159
Lattice="25.240851 0.000000 0.000000 0.000000 6.249290 0.000000 -2.815662 0.000000 11.570221" Properties=species:S:1:pos:R:3:force:R:3 Energy=-628.299276 Virial="-52.286977 0.693384 -4.450425 0.693384 -43.340919 -3.215751 -4.450425 -3.215751 -42.819026" pbc="T T T" defect_vacancy
Ga 12.70407349 6.22690564 4.60440739 1.16649602 0.39849232 0.07272791
Ga -0.03896580 3.15506434 4.55217457 0.74120485 1.53889386 -0.57388626
Ga 12.63240008 3.16191790 4.58353021 -0.15406467 0.62521187 0.18417773
Ga -1.38222106 6.29208251 10.43178456 -0.20442211 -2.50659716 -0.38925385
Ga 11.20720920 6.20479851 10.38047589 -0.07772736 0.49630018 -0.19795761
Ga -1.41933999 3.06203240 10.42173444 0.41820051 1.03233420 0.40162670
Ga 11.16283787 3.12374128 10.39062786 -0.42473492 0.05139919 1.77003379
Ga 11.15819898 0.00157914 1.21891826 0.11662225 -2.14617960 -0.79629863
Ga 23.82536099 -0.02430722 1.22591122 -0.79228363 -1.84363186 0.28407761
Ga 11.19164628 3.14946602 1.20896207 -0.28896517 -0.07588253 0.06468677
Ga 23.82982406 3.11046388 1.16668484 -0.50354178 1.37559021 -0.17985486
Ga 9.77736436 6.22545117 7.05406514 -1.04581303 -1.11449226 1.29083926
Ga 22.41789279 -0.02498924 6.99368712 0.64868619 -1.12420659 0.06940880
Ga 9.84409100 3.09702845 7.00002779 -0.06316850 -0.43472578 -0.85977673
Ga 22.41654889 3.04741132 6.92454453 1.73902194 -0.70055711 1.34605509
Ga 6.29804492 1.53974966 4.56360848 0.57076472 -0.05485308 -0.83102378
Ga 18.94149534 1.59720344 4.56614046 1.06557639 -1.11711296 -0.83531185
Ga 6.36649150 4.72993488 4.59209812 0.06574953 0.33427685 -0.80539280
Ga 18.94280329 4.72188463 4.56252032 -0.20895927 0.14610185 -0.17252785
Ga 4.85595996 1.48308027 10.39076809 -1.14549662 -0.74129171 0.87077656
Ga 17.50388365 1.44507730 10.44003581 0.84267632 -0.74290704 0.95629600
Ga 5.00968096 4.67021016 10.49338427 -0.20243771 -0.20269892 0.60690867
Ga 17.54459628 4.72330594 10.40344209 0.11980962 -1.35976933 0.69679618
Ga 4.88530974 1.52020580 1.19224718 -0.21182822 2.35075960 1.16211753
Ga 17.44022626 1.49309032 1.14567414 0.34700638 -0.30299567 -2.29541636
Ga 4.90467062 4.68355091 1.15176086 -0.90401361 -0.17229379 -0.27025901
Ga 17.52618943 4.71544544 1.14831193 -0.87097881 -0.06800170 -0.34266478
Ga 3.45421024 1.56817876 6.96560343 -0.92074361 -1.49731762 0.13079294
Ga 16.05913351 1.56801657 6.96941548 -0.69034660 -1.04763890 -0.15566162
Ga 3.47687817 4.61236393 7.00628342 0.08326455 -0.96827250 -0.91931444
Ga 16.10596083 4.73547958 6.99553847 -0.14093616 0.31355941 1.90668122
Ga 1.60334530 1.56458817 1.75962270 0.03623345 0.49704406 0.70626354
Ga 14.21693493 1.54805834 1.83499420 0.57340515 0.87590860 -0.21800885
Ga 1.52877111 4.70435995 1.76125240 -0.81248054 -0.64337330 1.46360540
Ga 14.21931791 4.68288629 1.84402471 1.28264282 0.37675799 0.51051583
Ga 0.11161618 1.55547517 7.62376487 0.47554874 0.48656894 -0.08072963
Ga 12.78892668 1.57379933 7.57524815 0.03037510 -0.02410298 -1.85889506
Ga 0.14828120 4.67359223 7.53715145 -1.37368214 0.38051869 0.19985226
Ga 12.74397395 4.67507666 7.57944283 -0.93906474 -0.19044363 0.01666611
Ga 9.64999019 1.57899087 3.96738673 0.06566452 1.34714292 0.01620365
Ga 22.26146003 1.59791380 3.92452448 0.12593882 -1.75759676 -0.83371812
Ga 9.62521969 4.64632220 3.98340567 0.72056634 -0.13689996 0.69415954
Ga 22.29734448 4.70592913 4.04341274 0.06770773 -0.41591307 0.65304911
Ga 8.21349512 1.56047202 9.77245954 -0.36611600 -1.55149234 0.42246207
Ga 20.85138066 1.59105974 9.78335354 0.61033204 0.33967116 0.15848322
Ga 8.27332380 4.74996819 9.81961019 -1.52221890 0.47282059 1.31811068
Ga 20.89000454 4.66242972 9.88520500 0.92165105 0.20401622 -1.48325258
Ga 7.82054806 -0.00039092 1.84912003 -0.47439191 0.67690116 0.88782780
Ga 20.50319853 0.01591337 1.83818589 0.26829511 0.02323029 1.00505270
Ga 7.90070038 3.08125159 1.85190665 0.69088207 -0.15804972 0.35528072
Ga 20.48767848 3.15793499 1.81846680 0.45348906 -1.16975799 -1.85101150
Ga 6.42197936 0.02578777 7.54532421 0.48163560 0.24808573 0.61816737
Ga 19.10107155 0.10299523 7.57683998 -0.05605726 0.61209295 -0.38253445
Ga 6.42763536 3.13391182 7.59741200 -0.87707884 -0.07677187 -0.17966054
Ga 19.09012317 3.10311571 7.55318805 -1.59685544 0.56649005 0.85373675
Ga 3.23138611 -0.04322572 3.97911484 -0.17455541 0.59857656 -0.48833785
Ga 16.00147650 6.26658021 3.99718722 -1.05266788 0.13276496 0.06389854
Ga 3.37024323 3.10163525 3.89327807 0.36548534 -0.75511756 -0.76399614
Ga 15.96074384 3.05958873 3.97095914 0.69386896 1.39360592 -0.39212300
Ga 1.93043939 0.08233456 9.79938208 0.06628169 -0.05858146 -0.34848975
Ga 14.57667610 6.22429179 9.70014146 -0.99183734 0.16880334 0.49373917
Ga 2.02261845 3.11446609 9.76246081 -0.19168550 1.58814255 -0.00851304
Ga 14.52568671 3.19441585 9.71481769 1.24192427 0.60102085 -0.34433846
O 1.88851214 6.26416663 0.67097843 -0.01539040 -0.05684497 0.25975961
O 14.51781212 6.24478920 0.59450814 -0.74845150 -0.05222525 0.39246924
O 1.91171040 3.15998918 0.68380412 -0.45990980 1.55343040 0.60472029
O 14.51626116 3.07985290 0.70286001 0.49327063 -2.27679746 -1.15548769
O 0.52029131 0.02319685 6.49306131 0.43890151 0.32081202 1.60934205
O 13.16452277 6.20398465 6.40096909 0.83382076 0.15855490 -0.19900253
O 0.45104048 3.12102175 6.43515887 -0.23364389 -1.33421431 0.58999146
O 13.03778772 3.11475758 6.39222247 -0.66862345 0.24466170 0.51812762
O 9.35630880 0.06977170 5.20629504 0.90684630 0.47967516 -0.30826241
O 21.92372637 0.03446998 5.13816290 -0.62716967 0.90419323 1.21897698
O 9.27248098 3.09657079 5.20992216 -0.28523272 -0.09639614 0.49622587
O 21.99777789 3.11922674 5.18402751 1.04696944 -0.93506762 -0.38243224
O 7.87972594 6.28008212 10.88606530 -0.38418108 1.82093395 0.76621504
O 20.57179139 6.28873809 10.90803935 0.27089242 0.32009357 -0.22085347
O 7.96212702 3.00046690 10.92773662 -0.32499132 -0.33554605 -1.54389204
O 20.56470159 3.10504253 10.86953205 0.20298285 -1.04490185 0.52352066
O 8.21519938 1.52355945 0.67848543 -1.55081908 0.81360752 -0.63193907
O 20.77017743 1.56752237 0.56922258 -1.40882726 -1.33966854 -1.59234590
O 8.22550090 4.64584497 0.61877648 0.24327888 0.14220659 -0.60905041
O 20.80891815 4.66479823 0.63826269 0.15243529 1.27909293 -0.07899160
O 6.83792155 1.57056126 6.40142612 0.25013553 0.64725763 0.44656867
O 19.47731430 1.52211235 6.43890369 0.73151895 0.67151018 0.45354537
O 6.79348803 4.77688629 6.38865104 1.17547903 0.12702646 -1.98349787
O 19.38872368 4.68578282 6.40089270 0.68891094 -0.38936736 0.64511288
O 3.00650185 1.55520409 5.14837766 1.16819577 0.53786981 -2.17665043
O 15.67151928 1.62408589 5.16105839 1.51281805 0.43343456 -0.52152373
O 3.00488444 4.68808857 5.17442850 -0.33059159 0.11959814 0.55904714
O 15.55195479 4.73056488 5.17890481 0.95754718 -0.70987517 -0.33275217
O 1.57222060 1.52375889 10.88822898 -0.00951113 0.90746681 -0.33830759
O 14.22974414 1.64087019 10.83556638 -0.68186162 -1.05920376 -0.16712582
O 1.58863025 4.60951619 10.92144184 -0.34400739 0.70763077 0.11075519
O 14.19096910 4.74962353 10.94462317 0.15061294 0.60016238 1.30948629
O 1.42447270 6.22699822 3.28160333 0.68030907 0.62211405 0.44822887
O 14.01758418 0.08066944 3.26224530 0.05409151 -0.94810267 -1.15229537
O 1.40347461 3.16449152 3.24770676 0.24424013 -0.24378558 1.73862025
O 13.97461008 3.09800342 3.28919329 0.23728045 -0.74098821 0.15704986
O -0.02337017 0.00792879 9.04080902 0.03627374 -0.35202460 0.56360757
O 12.60832202 -0.04696838 9.07589424 -0.59650554 -0.72953497 -0.74941210
O 0.01651967 3.19538118 9.00007581 -0.19774029 1.42347346 0.24183252
O 12.69163401 3.10229109 8.96568779 -0.38132914 0.16313559 1.14490703
O 9.86111624 6.27982119 2.49193953 0.21191120 0.84014461 0.18014398
O 22.37215216 6.13575028 2.46884690 -0.00438896 -0.43858984 -1.17652762
O 9.77955367 3.14836049 2.51698752 -0.38329626 -0.93470480 -0.95138385
O 22.43753466 3.10282829 2.50961652 1.07930026 -0.38263572 -0.16733223
O 8.43317815 0.02405215 8.31653654 0.87449962 -0.46746551 -0.25935446
O 21.05939800 6.19169437 8.25117461 1.10958062 0.75548517 -0.12477958
O 8.43890198 3.11959370 8.29965010 0.83723151 0.54608092 -0.62059745
O 20.98966142 3.10828421 8.26839065 0.24644396 0.37808614 0.01261929
O 7.77054369 1.57247523 3.26942989 0.70999028 0.41786019 0.27579388
O 20.27224965 1.51970063 3.23504381 -1.32176960 -0.70600854 -0.32871280
O 7.72319676 4.64516323 3.27778262 0.18732748 1.31891598 0.54244367
O 20.26000770 4.66255601 3.20857029 -0.40699858 -0.68756820 0.32751281
O 6.28998264 1.53592601 9.03586885 -1.27521451 0.12123485 0.38978513
O 18.86076953 1.49722262 9.02467428 0.14989601 0.66250177 0.35577145
O 6.36905655 4.62157379 9.03655898 -0.44318542 -0.68315000 1.31229203
O 18.93370490 4.68995900 9.01149483 -0.65276923 0.15439010 1.05049527
O 3.45737936 1.56553156 2.55681642 -0.12096243 0.72393892 0.20825099
O 16.10379460 1.55773867 2.53208350 1.19613667 1.11064802 -1.01312519
O 3.56521761 4.63307051 2.56932978 -0.55039502 0.11756451 -0.95390010
O 16.07563474 4.66723078 2.55749578 -0.86427752 -0.17802402 -1.04352244
O 2.12507846 1.51245240 8.29825392 0.11207381 1.31772712 0.58966333
O 14.74562425 1.58668910 8.25850177 -0.69347829 -0.77427467 -0.08840909
O 2.08292731 4.70597629 8.28418119 0.35882305 -0.07220182 -0.82206101
O 14.66063962 4.68684710 8.38111392 -0.69267876 -0.35452204 0.99539282
O 12.20713992 1.48442017 1.43376911 -0.02436450 -0.47777012 -0.62454059
O 24.85953477 1.58541069 1.50303312 -1.42080717 -0.82623147 -1.07329728
O 12.23076011 4.73973000 1.51148803 -0.32768109 1.40974843 -0.25522950
O 24.82561742 4.67818472 1.48711261 1.90577066 -0.95036051 -0.03795906
O 10.71693129 1.64560603 7.24509653 1.34194856 0.37376967 0.50854531
O 23.37849950 1.56015199 7.25389017 -0.86356277 -0.20866308 0.80922378
O 10.88278263 4.68468396 7.29530776 0.82384939 1.58886334 -0.56841962
O 23.45211242 4.65843445 7.26966466 -0.31739707 -1.13585798 -1.26427078
O -0.98745985 1.58719341 4.25326366 1.50290854 -0.73224126 -0.16582446
O 11.59892548 1.44434729 4.28872942 0.78193925 -0.18095271 -0.62198337
O -0.99436595 4.73171982 4.31929251 0.30166304 0.41528216 0.60580947
O 11.58759007 4.67010147 4.33436051 0.18087622 0.25348334 0.65392705
O -2.41698300 1.54433916 10.13089314 -1.24193958 0.33822948 1.10114445
O 10.24550929 1.52784538 10.05944843 -0.10355958 0.12418778 0.25180087
O -2.33461412 4.69615352 10.13478813 0.35568181 -0.11757971 0.30637990
O 10.16463702 4.70947962 10.10450228 -0.33199391 -0.78769286 -0.41688722
O 5.95186956 6.29884207 1.47328848 -1.42880733 0.90371039 0.27350511
O 18.54194104 -0.00516894 1.52027886 0.32075780 0.17599001 -0.98512390
O 5.83340967 3.05240605 1.49098530 -0.21219708 0.62859506 1.60044677
O 18.51726738 3.13791440 1.45931024 -0.20896108 1.09626108 1.39006873
O 4.54497393 6.26204681 7.25733335 -0.86541629 -0.41659798 0.46880266
O 17.10465280 -0.07160683 7.36250005 0.27281609 1.01839605 0.39003207
O 4.47653764 3.14734056 7.27611155 0.17764557 0.32788618 -1.37314878
O 17.11869769 3.12504773 7.18133027 1.09283820 0.17941208 -0.03653569
O 5.34153919 6.22690307 4.33649182 -0.83447892 0.02996729 -0.39310470
O 17.95260684 0.00326910 4.35838380 0.38142878 -1.03540264 -0.55907375
O 5.39750185 3.10112586 4.28130380 -0.26967662 -0.77666164 0.02748278
O 17.86086561 3.12238328 4.31362349 -0.05676301 -0.42549656 0.08566628
O 3.86819234 6.23351210 10.16873485 0.12460885 -1.27792764 0.32605035
O 16.54252054 0.00010907 10.10995712 0.02639191 -0.13085290 -1.07618605
O 3.91896445 3.03994797 10.07967039 -1.44991129 -0.14350462 -0.77555845
O 16.50371323 3.17929367 10.06989263 -0.17868037 0.38799976 -0.62362312
159
Lattice="24.778118 0.000000 0.000000 0.000000 6.134724 0.000000 -2.764044 0.000000 11.358107" Properties=species:S:1:pos:R:3:force:R:3 Energy=-627.319745 Virial="-53.650479 -0.221481 -0.562019 -0.221481 -48.863550 -4.830801 -0.562019 -4.830801 -42.040318" pbc="T T T" defect_vacancy
Ga 12.36246451 6.12272907 4.53426991 -0.94264622 -0.31044314 0.28132704
Ga 0.01458434 3.08419179 4.48751328 0.63288866 -0.64202400 -0.63676391
Ga 12.42047865 3.06962611 4.48419885 0.41763627 0.59371220 -0.84828850
Ga -1.35775018 6.11508325 10.21734205 0.26902453 1.08142355 0.03869698
Ga 11.05574724 6.15316600 10.13319770 0.72665715 0.83414634 -0.57398995
Ga -1.40673811 3.03897777 10.15882564 -0.34498747 -1.06900561 -0.89148707
Ga 10.99040315 3.09967224 10.22194301 -0.15292916 0.53764757 0.44370396
Ga 10.97847049 0.02659293 1.17601329 -0.37743781 -1.39165395 0.00965874
Ga 23.37865691 0.05223835 1.13871291 0.73448452 0.29387855 0.45661470
Ga 10.99535895 3.02210836 1.13123771 1.59716053 1.20066946 -0.11445862
Ga 23.32831281 3.02536425 1.16507080 -1.75776293 1.00512931 -0.34818837
Ga 9.59801844 6.12387952 6.83233687 0.43241916 -0.72417384 0.30914602
Ga 22.07279769 -0.04340065 6.79490730 -0.68031255 0.35308106 -0.56062767
Ga 9.57613199 3.06390995 6.86578849 -0.32264688 -0.63190006 0.34955250
Ga 22.02505167 3.10603186 6.84211008 0.20089514 0.20800625 -0.70771073
Ga 6.19217901 1.59996336 4.40421518 -0.11703537 -0.87043133 -0.29403252
Ga 18.60422011 1.54954987 4.58885169 0.15601504 0.09316001 1.22097323
Ga 6.13988034 4.58347246 4.46039480 0.13211922 -0.20709563 -0.60742200
Ga 18.52616199 4.59323958 4.54619474 0.39834677 -0.38867234 1.04417060
Ga 4.87478925 1.50393069 10.22469189 -1.74171974 -0.57347481 -1.01762090
Ga 17.21234942 1.55018109 10.23418443 -1.04538215 -0.09319652 -0.43085708
Ga 4.82315309 4.64803680 10.14839692 -0.28615871 0.51802209 1.08673697
Ga 17.24527659 4.64031335 10.22923787 -1.16867475 -0.01027296 -0.31094722
Ga 4.75153747 1.52319310 1.17692388 -0.57981380 0.34208976 -0.85212112
Ga 17.19630869 1.54217122 1.22182547 -0.68149535 -0.80126508 0.50298850
Ga 4.74474772 4.58977369 1.09936287 0.20362797 -0.42959379 0.47767739
Ga 17.20736127 4.62576150 1.30253681 -0.59594713 -0.69876773 1.10862816
Ga 3.45739849 1.55016482 6.85240271 0.46228633 0.15691537 1.38502350
Ga 15.79918579 1.53533350 6.85956622 0.23828823 -0.21528668 -1.17887062
Ga 3.33467358 4.60755835 6.85249703 -1.15297659 -0.15086203 0.51780449
Ga 15.87312798 4.60048583 6.81144599 0.31687624 0.06419201 -0.19253880
Ga 1.53914628 1.54041074 1.77601240 -0.18376014 0.70902245 0.82421870
Ga 13.87016821 1.52564182 1.76010563 0.17393687 0.06116176 0.59385375
Ga 1.52359097 4.63216733 1.75575618 0.41786299 0.44456909 0.34853496
Ga 13.91008389 4.61623284 1.77292446 -0.38496728 1.08311377 -1.10772842
Ga 0.25112214 1.54018788 7.41261683 -0.01498737 0.35786548 1.38570318
Ga 12.50184281 1.49612337 7.42902339 1.23515255 -0.77314201 0.71876577
Ga 0.16978384 4.55573938 7.44582522 -0.25985780 -0.49440195 0.88833884
Ga 12.58246616 4.58272622 7.48912236 0.59035528 -0.67828123 -0.44554990
Ga 9.40837487 1.52255260 3.86011951 -0.67321418 -0.03800450 -0.63738789
Ga 21.88181947 1.49397901 3.97938688 -0.03359838 0.03515477 -0.06123823
Ga 9.41334748 4.64796469 3.92638612 0.15699841 0.66803395 -0.32898087
Ga 21.88241186 4.60600245 3.97550862 -0.25760202 -0.19253001 -0.04752578
Ga 8.19010979 1.52203198 9.57915865 0.61584195 0.17920705 0.79106695
Ga 20.45950469 1.49223521 9.58867973 0.54015165 0.93828197 0.63863361
Ga 8.10290551 4.53601816 9.59315464 -0.75991453 1.93491220 -0.15023682
Ga 20.49800359 4.57972565 9.54965463 0.63214479 0.51287240 0.74814105
Ga 7.73841449 0.06781299 1.79737097 -0.44617153 -0.07247642 0.81420627
Ga 20.14714551 -0.02703811 1.77098482 0.42375808 -0.66189307 -0.08100724
Ga 7.74897343 3.01354490 1.79394601 0.96155572 -0.96051162 -2.19083126
Ga 20.12503154 3.06819537 1.79599850 -0.63749536 0.13742893 -0.00758704
Ga 6.34789861 -0.02380344 7.41224726 -1.23736461 -0.04749180 0.59836490
Ga 18.72686776 0.05455494 7.50247306 0.85438027 -1.16983757 -0.55334559
Ga 6.33205073 3.05487396 7.45370623 -1.12194844 0.19086670 0.40454171
Ga 18.71131711 3.08296564 7.50053808 0.24003134 0.39631517 -0.93785721
Ga 3.37665515 -0.03011374 3.92625459 0.10271180 -0.47636364 0.04610596
Ga 15.69330692 6.11629793 3.85723942 -0.81106605 -0.86866686 0.34369493
Ga 3.29190156 3.15559507 3.90981668 -0.34828886 -0.24203688 -0.31794565
Ga 15.64367143 3.06089253 3.84558846 0.24202473 1.43505862 -0.65080625
Ga 1.90113926 0.03013827 9.54417014 -1.31904148 -0.94409017 0.06251616
Ga 14.16031513 6.14447781 9.55992975 -0.41549438 -1.36188939 -0.51854347
Ga 1.87540961 3.03230017 9.58517169 -0.33933961 1.10777508 -0.17444732
Ga 14.27428292 3.10721289 9.61138312 0.26704168 0.56524116 -0.30122964
O 1.85924890 6.11380993 0.62497555 0.60627372 -0.45576369 -0.51364316
O 14.25968509 6.05785709 0.68613767 0.79023000 0.69956208 -0.86081167
O 1.90886182 3.06358752 0.53602816 0.03452939 0.37429735 0.44247632
O 14.23837180 3.04649587 0.62143856 -0.03783681 -0.02168923 0.43483783
O 0.39624529 -0.01304750 6.28590141 1.11399220 -0.11224040 0.36312719
O 12.85380351 6.12164911 6.29248138 -0.60898646 -0.16704911 -0.07274070
O 0.55850153 3.04526112 6.27015064 0.08932983 -0.02617296 0.29671268
O 12.79843246 3.04190984 6.23770961 0.11733813 -0.98478710 -0.91281220
O 9.18001944 -0.00109196 5.10338791 0.45551313 1.03396349 -0.16249082
O 21.58969857 -0.03323115 5.04593345 0.83113957 -0.13250795 -0.70169048
O 9.18925929 3.07921315 5.09199541 -0.70354644 -1.26014323 0.42070963
O 21.56709391 3.10228863 5.07879578 0.09785154 0.97366255 0.22259996
O 7.81493545 6.12802942 10.76992746 -0.22257299 -0.23488417 -3.04257725
O 20.14153530 6.16586846 10.70481532 0.62738160 -1.24730653 0.78605559
O 7.69406195 3.09055835 10.69898563 0.03847844 -0.03523432 -0.31138550
O 20.10652859 3.10293599 10.77651477 -1.17269349 0.09429491 0.43699338
O 8.04363977 1.40557300 0.63483778 0.08986152 -0.24997221 0.02484270
O 20.48441348 1.56025545 0.63728051 0.23190824 0.46286016 -0.59894432
O 8.06381578 4.58786341 0.56915240 1.25744594 -0.33088144 0.39187971
O 20.42167118 4.61389249 0.63507341 1.39402883 -0.91080476 0.90697535
O 6.71517167 1.48051386 6.22318770 -0.88006463 0.09114275 0.29223825
O 19.05791513 1.48628560 6.30623670 -0.39839455 0.69878822 0.61263969
O 6.62897783 4.64986196 6.27058470 0.79973578 -0.82112506 -0.53630211
O 19.13727730 4.62533374 6.25025869 0.56757265 -0.22374615 0.63723554
O 3.02825346 1.53677755 5.06433638 -1.55959166 1.48489252 -0.80372954
O 15.32883621 1.56029195 5.08610081 0.11749345 -0.84298178 -1.56560914
O 2.91926416 4.58846697 5.06621455 0.57372370 -1.41865522 1.35376752
O 15.35555913 4.61383274 5.05495331 -0.82117052 0.60502239 -0.92246207
O 1.53400422 1.50023775 10.68992585 0.05182510 -0.16164815 -0.26656486
O 13.97105419 1.51282755 10.72956744 -0.64921574 -0.66219338 0.63632199
O 1.57155805 4.59340065 10.73947730 0.33209331 1.39221161 -1.12294739
O 13.91195648 4.61898127 10.72468473 -0.02190370 0.95623320 -1.33574835
O 1.36455215 6.18016843 3.23169642 -0.47833036 -0.86085539 -0.28772641
O 13.73067652 -0.00437673 3.27164574 -0.16167819 1.06882313 0.66290834
O 1.35646801 3.06296587 3.24218289 1.06961929 0.66634707 0.72124827
O 13.78721474 3.04238414 3.17422531 -0.16861232 1.30134828 -0.12022604
O -0.00996239 0.02828810 8.94941994 0.45529850 0.93691381 0.24602045
O 12.32477998 0.07309473 8.87056088 1.06294886 0.08075130 -0.40424917
O 0.02680867 3.04557095 8.81286458 -1.29832172 1.06836831 0.15257694
O 12.32816377 3.04912595 8.90212698 -0.46176758 0.19054037 -0.29730467
O 9.63731833 6.11009881 2.50961368 -0.18083424 -0.08085128 0.38131480
O 22.00430238 6.14209008 2.60315481 -0.76628222 0.03792181 0.48782139
O 9.63440773 3.03441118 2.47885512 0.19651238 -0.91156949 -0.13743969
O 22.04970270 3.07646031 2.47181508 0.59693327 0.51727822 1.13561994
O 8.31069896 0.05610818 8.14817051 0.09563917 -0.24249157 -0.30328721
O 20.60839837 6.14384401 8.11731685 0.29069709 -0.58243286 -0.55157165
O 8.28793896 3.09998341 8.26633279 0.97675165 0.26056603 0.71782198
O 20.69413318 3.03118748 8.12266381 -1.60286614 0.65440422 -0.11194047
O 7.49045019 1.45479845 3.20110296 2.01858945 -1.50264738 0.81329202
O 19.91297088 1.59037611 3.25449162 1.71582215 1.04795147 -0.22088883
O 7.55494617 4.57783544 3.25880650 -0.07583617 -0.22757199 -0.20809761
O 20.02399438 4.58152456 3.16879790 1.28677669 -0.55396333 1.17371713
O 6.16560392 1.56841604 8.85931478 0.86374617 0.91359004 0.84016054
O 18.59229547 1.61169296 8.83315895 -0.38815580 1.09427559 -0.80287294
O 6.17436683 4.54132069 8.84901142 0.60569469 0.02098839 0.70805069
O 18.56019418 4.57058343 8.90127678 1.04682588 -1.02579829 -0.12551283
O 3.44239346 1.54970560 2.45645019 0.10070362 -0.26084194 -0.34615827
O 15.81828914 1.50409362 2.47907104 -0.82733580 -0.87121807 0.47999537
O 3.45684158 4.51532993 2.49347051 0.78589392 -1.67010035 1.58651380
O 15.79020659 4.58247106 2.40748885 0.71199462 1.41160219 -0.30079772
O 2.03842052 1.54764801 8.16472921 0.02679819 1.11682498 -0.79321343
O 14.38651242 1.55303523 8.19986645 -0.14038133 -0.98799012 0.32920218
O 2.03627880 4.60274881 8.06043503 1.11360937 1.25993384 1.14280323
O 14.40314174 4.60780996 8.18916554 0.24459265 0.76974359 -0.77821207
O 11.95752182 1.63231887 1.47095154 0.72302649 -0.32984913 -0.07828213
O 24.31593006 1.59084178 1.41130871 1.47785307 -1.06893357 0.34153857
O 12.00022398 4.55130436 1.40553929 -1.24036446 1.89156709 -0.32061666
O 24.42033391 4.59076126 1.51311500 -0.34505371 0.52701734 -0.59980044
O 10.56078460 1.47256719 7.10533182 0.59663644 0.03131920 -0.72390820
O 23.10766042 1.56660045 7.16647660 -0.94887840 -0.22728812 -0.04402238
O 10.62885455 4.57811209 7.25883052 -0.00381769 -0.75968197 0.48927557
O 23.01177439 4.61093584 7.17929388 0.90554451 0.94535394 -0.16520161
O -1.03109613 1.50139851 4.21094201 0.47737415 -1.85492503 -0.64851843
O 11.45582748 1.47799315 4.23171051 -1.19747452 -1.37926833 0.10122211
O -0.99150118 4.54248913 4.19402639 -0.64672240 -0.52536232 -1.53899124
O 11.42868357 4.54175200 4.27794127 0.68899043 -0.93011588 -0.52409110
O -2.33980606 1.53964203 9.89429694 -0.79309980 0.02679883 0.91750126
O 9.98340898 1.51229351 9.91218947 -0.64574033 -0.85154408 -0.53240046
O -2.38446492 4.60364488 9.86383666 0.20992178 0.30850679 -0.09269183
O 10.04126414 4.62543470 9.82889167 0.59232953 0.58202820 0.44391145
O 5.79740652 6.07247623 1.38772999 -0.58688070 0.38200133 -0.36689760
O 18.16587839 0.11556296 1.49757886 -0.61003362 -0.36872024 -0.40042027
O 5.84047228 3.09716349 1.46067196 -0.64580556 -0.23319815 -0.79329285
O 18.21401341 3.04410420 1.46400166 -0.65945254 -0.05555741 0.40685667
O 4.46616901 6.15506014 7.19254168 -0.06030904 -0.43718503 0.82649349
O 16.80408992 0.06914382 7.12945372 -1.88810364 0.42829796 0.87908363
O 4.48955451 3.08861720 7.11682124 -0.14913233 1.01583391 0.58500530
O 16.75882144 3.02772949 7.09774921 -0.28512792 -0.03315758 -0.27201997
O 5.21417203 6.08164935 4.28049125 -0.55201046 0.38074775 -0.41362925
O 17.60348710 0.00973138 4.18458982 -0.33600304 -0.11278223 -0.86154157
O 5.19346737 2.98785736 4.28857480 -1.05106263 0.02959525 0.38295213
O 17.54854958 3.01468941 4.27888919 -0.21601091 -0.28913701 1.05871418
O 3.84660509 6.13316468 9.91606549 -0.75882949 -0.10444582 0.14921667
O 16.26460566 0.00823768 9.84787722 1.03833451 -0.75334223 0.39712672
O 3.86277499 3.08280513 9.94842265 0.84703241 1.06236148 -0.51408493
O 16.16846734 3.04203358 9.91306102 -0.04727289 -0.48538970 0.91377816
159
Lattice="24.572316 0.000000 0.000000 0.000000 6.083770 0.000000 -2.741086 0.000000 11.263769" Properties=species:S:1:pos:R:3:force:R:3 Energy=-625.670429 Virial="-51.598582 -0.331670 -1.259527 -0.331670 -47.906102 -3.991237 -1.259527 -3.991237 -42.562237" pbc="T T T" defect_vacancy
Ga 12.30440504 6.08598388 4.52701686 -0.54213531 -1.05481487 -0.06191504
Ga -0.00663565 3.03205307 4.41003753 0.75844000 -0.01584261 0.42099102
Ga 12.25309922 3.02353795 4.47271692 -1.56918586 0.11936703 -0.70126763
Ga -1.28126115 6.10107148 10.07151411 1.37974058 0.71119496 0.78376655
Ga 10.90016494 6.13715406 10.15895404 -0.08685490 0.49200552 0.55059910
Ga -1.35565771 3.02128713 10.15103372 -0.31609306 -0.39618193 -0.06753126
Ga 10.88091943 3.05290564 10.20023383 -0.52493254 -0.47375584 -0.20241333
Ga 10.91231291 -0.02812746 1.16961587 -0.62330511 0.61477793 -1.25258210
Ga 23.16698141 -0.04950768 1.18352857 0.61827877 -0.49873748 -0.41246500
Ga 10.94665415 3.02625632 1.14653641 -1.12124864 -0.11367800 -0.17384224
Ga 23.15006826 3.03334549 1.12960280 0.11259374 -0.42530374 0.09929191
Ga 9.48985672 6.15940771 6.80611566 1.41518254 0.32891545 -0.43466506
Ga 21.84204038 0.03740521 6.81866197 0.72191675 -0.10132521 0.49938654
Ga 9.51360612 3.05221572 6.77758154 0.44962701 -0.31113688 -1.51994303
Ga 21.83511642 3.05642971 6.77426803 -0.31869383 0.44288004 -0.27980136
Ga 6.10329719 1.52772812 4.46990718 0.31060452 0.78534799 -0.41100376
Ga 18.37159267 1.53992866 4.51502640 0.94451047 1.29915927 0.88752372
Ga 6.25588890 4.54642105 4.45565252 0.89179934 0.87915286 1.82791822
Ga 18.39924405 4.57154778 4.48348068 0.10811780 0.00338296 0.50677281
Ga 4.75401022 1.50554035 10.03418135 -0.76712702 -1.24082572 -0.68131941
Ga 17.11428512 1.48440037 10.10199957 0.25748135 0.38015837 -1.20480001
Ga 4.73372987 4.54341579 10.10104074 -1.54734190 -0.25119810 -0.12615825
Ga 17.07554673 4.57995759 10.16493948 -0.07993160 0.53880565 1.00735431
Ga 4.78838771 1.55719240 1.21300613 0.14414622 0.49186346 -0.85187439
Ga 17.05869290 1.52329742 1.19534907 -0.98161734 0.19070636 0.55601745
Ga 4.79965452 4.58712477 1.09899682 0.54042384 0.47590929 0.65162593
Ga 17.00613830 4.55434614 1.19007141 0.60729150 -1.40003259 -0.56304565
Ga 3.38711476 1.56961968 6.83798633 0.32355687 0.47905327 -1.18538696
Ga 15.72848689 1.56562678 6.75015406 0.89787816 -0.34934984 -0.16165283
Ga 3.40421946 4.53717658 6.72561204 0.17848399 0.60142388 -1.12220663
Ga 15.66021222 4.62048769 6.80366859 0.75135913 0.06355047 -0.59236383
Ga 1.59642274 1.53175637 1.86435393 -0.26078944 -1.74695498 -0.49380785
Ga 13.81280076 1.52005829 1.71728617 0.10495679 -0.56552468 -0.23812332
Ga 1.56394617 4.54456556 1.74204779 -0.15798082 0.04042041 0.84079630
Ga 13.85457445 4.60275182 1.81416753 -0.06048755 -0.20625865 0.45520315
Ga 0.13104814 1.51548437 7.39791818 1.62072272 -0.27248244 0.43458077
Ga 12.46259892 1.58312456 7.41477217 -1.30241489 1.07811079 0.55179377
Ga 0.22606857 4.59768083 7.38772785 1.02566881 -0.04553251 -0.80996548
Ga 12.46577687 4.63351879 7.48021435 0.66830820 0.60454250 -0.66934415
Ga 9.44446606 1.52563503 3.85453385 -1.21891901 0.36102139 -0.11282663
Ga 21.71122486 1.58957663 3.88158696 2.04916178 -0.48968147 -0.39856285
Ga 9.41837406 4.56636160 3.84581939 -0.12918234 -1.33033010 -0.68698266
Ga 21.68188391 4.57100368 3.93763074 1.27491923 -0.10338624 -0.46242389
Ga 8.01447815 1.51971657 9.45872255 -1.05808932 0.46610220 0.55092509
Ga 20.34014974 1.58089118 9.55564728 0.16459256 -0.30964533 0.26871738
Ga 8.03383696 4.58519093 9.48924516 0.26470042 -0.54299203 0.52215297
Ga 20.33764037 4.57809598 9.49910709 -1.73285593 -1.02950486 -0.21884679
Ga 7.66284047 0.02150590 1.75487279 -0.12737020 -0.92970463 0.28726455
Ga 19.93914729 0.07449231 1.88113050 0.80391366 0.36255525 0.20391034
Ga 7.61231861 2.99201865 1.73254050 0.62201960 0.32527341 -0.88962013
Ga 19.93417241 3.08007131 1.79206263 -0.20262168 1.03477788 -0.88570137
Ga 6.29976186 0.02223145 7.36973199 0.00926657 -0.30958338 -0.69412159
Ga 18.56514365 0.00155120 7.33615542 -0.84979346 0.08253264 0.27656678
Ga 6.24670410 2.99916067 7.43980393 0.20664414 -1.15511964 -0.20670576
Ga 18.58315605 3.07038719 7.32270594 0.23600459 0.75916186 0.56229346
Ga 3.19950605 0.02958319 3.75666622 0.62472506 0.87942510 0.68342446
Ga 15.59043334 6.00564476 3.89963523 -0.69273366 0.04814833 -0.54622390
Ga 3.21809285 3.08725056 3.99499644 -1.94575056 -1.34299573 1.69542175
Ga 15.45403875 3.06952284 3.78654940 -0.93440727 -1.79196712 -0.44359293
Ga 1.90168527 -0.00549221 9.49756331 1.17566245 -0.03425047 0.35075361
Ga 14.13537764 6.11368136 9.44248799 -0.25682459 -0.06486752 1.03760523
Ga 1.93927571 3.02086426 9.43357439 0.59622256 -0.06728555 0.73758294
Ga 14.23570168 3.04180258 9.57007665 0.81900256 -0.17361712 0.24027370
O 1.90339596 6.05176557 0.61131913 0.16272865 -0.53292127 0.94499046
O 14.15185585 6.13811214 0.62201123 -0.17421225 -0.49385977 -1.31634970
O 1.87172279 3.04853219 0.60557238 -1.05289251 1.22205447 -0.88776375
O 14.17945166 3.04466420 0.60287992 0.30307287 -0.29200117 0.43334917
O 0.45620978 -0.01635676 6.19392432 0.44126681 -0.61931216 -0.20920498
O 12.72465443 6.14011052 6.22988060 0.03891399 0.09335390 0.00147911
O 0.52169748 2.94124698 6.27694804 -0.29118471 0.50524302 1.07796872
O 12.75419640 3.01766136 6.24872330 0.39183305 -0.59039593 0.34104592
O 9.04585410 -0.08222558 5.06062360 0.00831239 0.37101863 1.50016140
O 21.36195850 -0.01119792 4.97915448 -0.21173358 -0.00748588 -0.68501514
O 9.00131574 3.05508767 5.09355278 -0.27172983 -0.45360460 1.30415226
O 21.35511255 2.98564842 5.02933891 0.20260865 -0.45581868 1.56786225
O 7.69250185 6.11440044 10.68413985 -1.10308330 0.69072497 0.83728229
O 19.86182233 6.09598263 10.60356180 0.41858599 -0.20720606 -0.07922901
O 7.64004257 3.03137043 10.66702740 -0.31533440 0.63057514 -1.83885111
O 19.91829614 3.05516972 10.67921053 -0.44956474 0.12327106 -0.44064534
O 7.99229615 1.48000036 0.56923737 -1.49464378 -0.19254733 -0.57984651
O 20.32903111 1.46634661 0.65588849 0.59964301 1.11963871 0.07979115
O 7.99742663 4.56220652 0.53998060 -1.58787220 -0.15523742 -0.71501506
O 20.27384824 4.58736124 0.56293740 0.50504150 1.35488183 0.27822855
O 6.64801161 1.52756748 6.21156666 1.58762859 1.21336024 0.58151060
O 18.94887276 1.42630958 6.26034784 -0.72876948 0.16882606 -1.04706424
O 6.69065611 4.62202166 6.26670401 0.88018602 0.19270184 1.22338029
O 18.90308172 4.54068663 6.22808692 0.29561531 -1.44170674 0.65442729
O 2.94175980 1.48119373 5.04598035 0.81901633 1.44908751 -0.63635702
O 15.28943111 1.52635000 4.96923859 -0.66109697 0.17124255 -0.70253422
O 2.87553911 4.58988978 5.01715611 -1.02595728 -0.76036102 2.20803439
O 15.23997606 4.53037744 5.03966578 -0.44009949 -0.71110523 -0.24114996
O 1.53676119 1.48234072 10.63236114 0.04948489 1.11956346 0.86434980
O 13.78362398 1.60427111 10.64420094 0.67316178 0.11944817 0.23154702
O 1.57485478 4.53361793 10.60842276 -0.46952993 -1.12168477 1.73576648
O 13.82294907 4.61399943 10.62718752 -0.32566976 0.89167927 -0.15008560
O 1.32182448 6.08912169 3.20477063 -0.03509446 -0.04383914 -1.00080332
O 13.70498869 0.01571672 3.20678570 -0.02700627 0.38192498 0.76239740
O 1.38616563 2.98982285 3.15037549 0.42900134 0.89148188 0.33283234
O 13.62080879 2.97861772 3.20916904 0.02698003 -1.50072391 -0.33473982
O 0.00212296 0.00513083 8.71898197 1.27162127 0.16787432 0.73014716
O 12.36275914 -0.03320898 8.89039678 -0.14213227 -0.46948274 1.73004894
O -0.06806947 3.01703536 8.71545106 0.31324888 1.26509808 0.51606326
O 12.29233507 2.99287854 8.76447803 -0.20951200 -1.72706303 0.16369623
O 9.50113473 6.10036997 2.47287837 -1.22783406 -1.70949175 1.08284253
O 21.89394150 6.05254837 2.46687878 0.60317988 0.58080703 0.12884850
O 9.50313167 3.02340901 2.41843382 -0.00479967 0.40484279 0.21305154
O 21.85602047 3.07964936 2.48470297 0.08028307 0.65814496 -1.88005506
O 8.14916263 0.04174190 8.08337512 0.73619962 -0.44387649 0.76861429
O 20.44977113 6.04744845 8.05325220 0.95847330 -0.61666210 0.71323360
O 8.25368111 3.06971062 8.09874453 0.63579816 -0.52389494 -0.36737620
O 20.45331945 3.14664139 8.12797815 0.07691060 -1.76009212 -0.31615330
O 7.47531561 1.51657022 3.16143018 0.12315789 -0.34404101 -1.24535289
O 19.80071168 1.48401554 3.19908118 -0.34431791 1.22429095 1.09345856
O 7.56104935 4.50029112 3.12769218 -0.12887917 -0.63659795 0.01728241
O 19.77033798 4.56299356 3.26451188 -0.02326024 -0.53594103 -0.23975610
O 6.16640559 1.57605756 8.79553261 0.46286239 0.75396004 -1.92480351
O 18.40848061 1.46287434 8.84683618 0.74564456 0.11393048 0.94867753
O 6.16040489 4.61006013 8.80026551 -0.05289202 0.35747118 1.34073078
O 18.41205480 4.56826971 8.84239405 -2.41483506 1.27811457 0.17942870
O 3.34900489 1.55441487 2.44739359 -1.49685470 -2.13043572 0.27654717
O 15.65307303 1.42212779 2.46288511 -0.86100529 0.80759406 0.19907811
O 3.46941708 4.62111444 2.47555329 -0.14554467 0.79992675 0.18134792
O 15.77199703 4.55613402 2.48756738 0.55560378 0.66973358 0.28360317
O 2.01766827 1.50318655 8.05168267 0.59331543 0.63455090 -1.06960253
O 14.23165880 1.57540200 8.06088228 -0.25791756 -0.09355502 -0.27714539
O 2.00689189 4.51728419 8.06736687 -1.31050261 -0.45135626 0.29659482
O 14.38963507 4.64255861 8.01681198 0.11455765 1.22202334 -0.46017542
O 11.86779905 1.47149825 1.48581631 -0.38587499 -0.45584924 -0.22787643
O 24.17594163 1.50110612 1.45219103 -0.52292542 -1.49462403 0.30116074
O 11.86842773 4.61493287 1.46958993 0.75141105 0.89895465 -0.84483501
O 24.20612986 4.45625936 1.42942225 -0.19451750 1.48235134 -0.06145737
O 10.59677636 1.57524896 6.99145998 0.23888306 -0.11957423 0.82977266
O 22.78853561 1.47244822 7.15342560 0.73467858 1.86439108 0.42432289
O 10.52706191 4.52860801 7.09163917 0.31907178 -0.96839628 -0.30327331
O 22.69817721 4.51478823 7.08205449 -0.60197088 -0.26085219 -1.02440548
O -0.93819831 1.44615735 4.17045951 0.93303413 -0.84121496 0.24320367
O 11.36174125 1.45914996 4.20840186 -1.04850090 0.27954367 1.35081188
O -0.97234239 4.63578768 4.17017435 -0.69653274 0.29379777 -0.02912543
O 11.30538519 4.59706547 4.13337108 0.18654762 0.33837542 -0.48412306
O -2.34777373 1.49489975 9.80623555 -0.18443771 -0.46950185 -0.63543426
O 9.97775495 1.54767117 9.78555949 -1.02313402 0.77405597 -0.56620308
O -2.33334234 4.61753830 9.78431153 0.49212731 0.44594569 -0.77453592
O 9.94576281 4.55842186 9.80930138 0.79819734 -0.68674347 0.52738512
O 5.68135810 6.13883111 1.41905304 1.12591637 -0.57057788 -0.71884022
O 18.07959738 -0.02119943 1.42936217 -0.79464801 1.83926068 -0.27617481
O 5.78526572 3.08705991 1.44873706 -1.05265238 0.65297513 -0.11896242
O 18.05765918 3.03264871 1.43284297 -0.06952809 -0.79921290 -1.76004085
O 4.35591606 6.11235550 7.05576698 -0.63005353 -0.84104859 -1.27869486
O 16.71668132 -0.01118491 7.07931829 -0.91737778 -0.76503464 0.66019487
O 4.39861013 3.04116460 7.06102426 0.51599723 0.40607205 -0.41148718
O 16.66519844 3.07038569 7.05033833 -1.05661687 0.23074363 0.38331009
O 5.16933394 6.08208290 4.22824089 0.75263348 -0.02911240 -0.08814785
O 17.44889001 0.07919983 4.18980018 0.19771505 -0.74880361 -0.62810629
O 5.17133010 3.04427653 4.13611435 0.46430648 -1.01447563 -0.04766867
O 17.41756332 3.02165364 4.23272533 0.57750872 0.18389480 0.36208714
O 3.79795707 6.05804868 9.86926828 -0.93361383 -0.10259459 -0.19613570
O 16.15372299 0.05442273 9.79318764 0.43915983 0.33584544 0.04830547
O 3.78179758 3.11299595 9.82896566 1.48254191 0.44092089 -0.19891341
O 16.07301907 3.07443232 9.85546373 -0.52335156 -0.01824710 -0.42215702
159
Lattice="25.133272 0.000000 0.000000 0.000000 6.222655 0.000000 -2.803662 0.000000 11.520907" Properties=species:S:1:pos:R:3:force:R:3 Energy=-627.908666 Virial="-55.654823 -0.041706 -3.318201 -0.041706 -41.333262 -5.480924 -3.318201 -5.480924 -43.894911" pbc="T T T" defect_vacancy
Ga 12.55756839 6.27465172 4.58498844 0.23279476 0.38820874 -0.96295879
Ga 0.10832612 3.10644165 4.58736478 -0.64101338 0.65262172 -0.08191606
Ga 12.49180128 3.08444213 4.53985230 0.48796757 0.61239628 0.82274797
Ga -1.41252366 6.25314870 10.34612739 0.55181052 -0.27935549 -1.28370758
Ga 11.11740286 6.17124852 10.34735861 -0.14224333 -0.04475734 0.31104041
Ga -1.39176274 3.15170432 10.27231009 0.93530300 -1.05814404 -1.28377335
Ga 11.19927129 3.13574856 10.30352542 -0.17550188 0.19297098 -0.02632258
Ga 11.13708898 0.04176027 1.07868986 -1.08823396 -1.38104429 -0.99102547
Ga 23.73153417 0.03737732 1.18219286 1.35548805 0.07013460 0.23791503
Ga 11.15333040 3.04450500 1.11737250 -1.11552738 -0.02638365 -1.30781622
Ga 23.70976279 3.15466308 1.16564865 0.46451675 -0.37671662 -0.13505573
Ga 9.75863533 6.16668257 6.93316491 -0.30491435 -0.61487072 0.15831861
Ga 22.26032536 0.05086729 6.90239748 -0.02966323 -0.05137365 -0.66720794
Ga 9.73151621 3.10795986 6.93087774 -0.96159793 -0.11669130 -0.99884420
Ga 22.30372586 3.11407745 6.92972467 -0.07354766 0.04222768 -1.37865951
Ga 6.34137343 1.60009822 4.50674710 -0.43916905 0.50305955 0.27513922
Ga 18.85282683 1.57793724 4.55478474 1.84184957 2.25670345 0.16146846
Ga 6.35597985 4.64410975 4.50440375 -0.35086203 1.35047595 -0.14797117
Ga 18.83166656 4.65627609 4.56436455 -1.42865365 0.25159665 -1.09526969
Ga 4.82958446 1.49469881 10.31696386 0.01937770 0.12707965 1.26465038
Ga 17.42688621 1.61944028 10.33590584 -1.31626810 0.13046381 0.77370079
Ga 4.96970212 4.70914984 10.37408942 0.69688130 0.05020178 0.54271981
Ga 17.42891749 4.67968077 10.41469409 -0.58235581 1.28213861 0.44532198
Ga 4.89931255 1.55945459 1.21751355 0.60161985 0.89037101 0.45522208
Ga 17.36186113 1.52542872 1.24234116 0.32126518 0.25018183 -0.39162562
Ga 4.92239864 4.65026386 1.10199850 -1.57909772 0.23982622 0.04312671
Ga 17.35490691 4.68917961 1.16829525 -0.42308994 0.55264136 0.77154275
Ga 3.42379980 1.58989900 6.92331994 0.15721227 0.54264822 0.12688149
Ga 15.97900678 1.55605048 6.96747791 -0.31942892 0.77097067 -0.56540326
Ga 3.40180816 4.61524654 6.90356913 -1.03354010 -1.64045141 -0.73380227
Ga 16.04331834 4.70828772 6.89714962 -0.44197477 -0.76509358 0.09835054
Ga 1.52338664 1.49738324 1.81386753 0.71361498 -0.64622644 0.95240440
Ga 14.09346771 1.56073245 1.79786085 1.53184444 0.52597875 0.18887865
Ga 1.55712598 4.58603724 1.80023277 0.28229708 0.40360159 0.13990905
Ga 14.12723823 4.58081125 1.85512663 0.10969601 -0.65258919 0.30960927
Ga 0.18602728 1.59171611 7.56755764 1.17577656 0.05544633 -0.78004809
Ga 12.74518682 1.62822147 7.51729748 -0.39893402 0.85167102 0.41507561
Ga 0.19523289 4.67125249 7.48657303 -0.52037527 -1.16202431 0.57201089
Ga 12.72370143 4.69666599 7.60388169 0.13808419 -0.25932295 0.63939010
Ga 9.63438938 1.59442804 3.96386944 -0.72990834 -0.09439745 0.23095467
Ga 22.13637002 1.55183753 3.98136804 -0.14233111 0.19180121 0.56369460
Ga 9.60683767 4.65728216 3.88336149 0.40777361 -0.91223902 -0.37481696
Ga 22.19777923 4.70258879 3.96891356 -0.09321942 0.06320329 0.01881918
Ga 8.21830310 1.54417703 9.74940922 -0.18903250 0.23777469 0.19725736
Ga 20.86410727 1.54609683 9.74948884 -0.82003980 1.25450709 0.55145208
Ga 8.17353319 4.64500930 9.66065200 -0.98722931 -0.02652518 -0.52811882
Ga 20.81384228 4.66207956 9.65676513 0.80697592 -0.71280198 -1.81305969
Ga 7.87670210 -0.05059152 1.83401307 0.87539317 -0.10025269 -1.69753659
Ga 20.41343625 -0.08784544 1.81064213 -0.57293668 0.51355382 0.87640831
Ga 7.81719531 3.04580624 1.83706903 1.04123190 -0.23056453 -1.06427492
Ga 20.38922946 3.12438786 1.77946000 1.20004457 1.24209542 -0.26245416
Ga 6.45985948 -0.02836262 7.61812716 -1.24368515 -0.34135280 1.09482943
Ga 19.01494911 -0.02699334 7.59837822 1.23758585 -0.41142313 -0.55084427
Ga 6.43973293 3.14091476 7.52789339 0.00870122 -0.59304304 -1.07712593
Ga 18.91325611 3.11699351 7.53082477 -0.58115103 -0.42606731 0.15877961
Ga 3.35779560 0.03452618 3.91539536 0.57427505 -0.44924049 -1.01486536
Ga 15.96016759 6.22565730 3.93407581 -1.19680406 -0.07168318 -0.48072874
Ga 3.36722090 3.14633549 3.94446189 -0.16357937 0.37058332 -0.65585890
Ga 15.84434673 3.05987031 3.94278072 0.76416567 0.22543847 0.12400934
Ga 1.95799271 -0.08352080 9.70762556 -0.78081001 -0.00651079 -0.38034349
Ga 14.48435933 6.25935910 9.61515495 -1.04714143 -0.35517891 1.64012406
Ga 1.94120933 3.07177634 9.71357660 -0.97408396 -0.59858718 -1.04296006
Ga 14.60484658 3.17974608 9.71695076 -0.56246878 -0.78801507 0.27908997
O 1.82635227 6.19388542 0.67453171 0.00056816 -0.65300666 -0.71028644
O 14.45229432 6.16547186 0.61665595 0.33772372 1.23827313 0.92672250
O 1.89503760 3.17667036 0.57941858 -1.41800824 0.61844316 -0.72220226
O 14.41376709 3.13344048 0.64472424 -1.34378532 -0.20200977 0.89538560
O 0.49352987 0.01136024 6.48026209 0.65377993 0.73725854 -0.13352026
O 13.01085949 6.20382637 6.43771175 -0.70959126 0.51092120 0.60232271
O 0.47977176 3.15339667 6.41019653 0.75081229 -0.40185418 0.73868797
O 12.98354307 3.07613988 6.38513642 0.12266176 0.21321585 -0.09227120
O 9.20201539 0.00412673 5.10132217 0.38494060 0.29238792 -0.08725867
O 21.79914785 0.20112187 5.18615369 0.35929709 0.41749855 0.83021127
O 9.30704969 3.05095141 5.08558055 1.11105556 -0.54198968 -0.74519351
O 21.85879961 3.00656577 5.09460713 -0.19081408 0.47408891 -0.11593953
O 7.83094845 6.19750829 10.94625802 -0.43127183 1.05215548 0.42673727
O 20.49593119 6.23653928 10.83391368 0.96102563 0.27187418 1.02592739
O 7.82556298 3.15469729 10.92197826 0.57860318 -1.24134597 0.29100853
O 20.48334859 3.05055808 10.87173773 -0.34351062 -1.95219787 0.24767355
O 8.22082031 1.58256951 0.65582627 -0.21206724 0.67830230 0.54071994
O 20.76984781 1.52974411 0.65066867 -0.36714496 0.51086194 -0.26849634
O 8.19219680 4.64445356 0.59384095 -0.58398886 0.22514615 1.68061413
O 20.74766590 4.66254500 0.61331651 -0.69983374 0.22912309 1.01989657
O 6.77695005 1.53423415 6.39424012 -0.01805519 -1.03015243 1.08286300
O 19.35851531 1.56377578 6.31438232 0.80456368 -0.19278064 -0.06156404
O 6.73640637 4.62965874 6.33005997 0.44304348 -0.95674101 -0.83400651
O 19.40319164 4.67669986 6.35254342 0.28268699 0.56276794 -1.45196508
O 2.95781799 1.48222745 5.05324754 -0.50258390 0.88859371 0.62220574
O 15.56603868 1.66085219 5.16765745 0.61403802 -0.99140585 0.30634547
O 2.99587036 4.62836620 5.12338535 -1.34163350 0.69675647 -0.70860595
O 15.46535929 4.64712903 5.10582524 0.45889323 -0.09892810 0.92956834
O 1.51522456 1.47420276 10.90729037 -0.43647113 0.28933696 1.73520104
O 14.08458902 1.63705009 10.82536415 1.28383220 -0.19059797 -0.72746103
O 1.61484986 4.58102163 10.90793181 0.27140462 -0.19700837 0.40258623
O 14.11903835 4.65917273 10.89944823 1.79980789 0.37284609 0.37308742
O 1.34941022 6.25302266 3.27521288 0.41054796 -0.93339949 -0.93150512
O 13.90903331 -0.05390518 3.24667101 0.19830284 -0.83076251 0.58360965
O 1.40099450 3.06878773 3.26048899 0.08864681 0.96257151 -1.44777199
O 14.00274112 3.11469914 3.22706435 0.60639271 -0.14383717 0.09366016
O 0.03977656 -0.02918517 8.93450394 -1.13145460 0.52869692 0.33132521
O 12.47945533 -0.01755615 8.98504919 -0.07568741 0.16227603 -1.11376500
O -0.02891947 3.09161047 8.98057858 -0.04116634 -0.76855841 0.96216205
O 12.51046256 3.12670109 8.99564769 0.38080705 -0.25593831 1.60920858
O 9.80925264 6.21392814 2.47255346 -0.48688668 0.20703432 0.55827504
O 22.30348119 6.22283697 2.46374382 0.60265714 -0.87364261 1.44953496
O 9.77823575 3.12451234 2.39266816 0.13455816 0.35215572 -0.64618670
O 22.29150757 3.13152543 2.51168162 0.07550748 0.19945120 -0.98015077
O 8.35581789 0.00021863 8.26282301 -0.01505258 -0.48109865 0.85287247
O 20.97826960 6.15737542 8.29663697 -1.39977945 -1.13417167 0.99714580
O 8.38038773 3.17533740 8.29944025 -0.75475480 -1.06436968 -0.69798963
O 20.94505161 3.11195232 8.25255690 0.09922389 -0.03504680 1.76145873
O 7.73846104 1.50075335 3.20597962 -0.21687324 -0.35355737 1.49519323
O 20.28096039 1.56762974 3.33184498 0.87135204 -0.60656631 -1.13648105
O 7.64763455 4.65705011 3.29263599 0.34453330 -0.07374425 -1.69398320
O 20.25717674 4.73285057 3.22853055 -1.41411020 -0.62690245 0.31826896
O 6.28624707 1.50925408 9.06016782 1.54397988 -0.66436579 -1.11461160
O 18.84942890 1.57697159 8.99528097 0.33337096 -0.06878943 1.07271284
O 6.29308874 4.71228622 8.96555363 1.32740067 1.52816095 0.49987660
O 18.90225161 4.68059541 8.97742183 0.70300519 0.71973446 -0.21575310
O 3.45937678 1.57913302 2.48045113 0.21330237 -0.04315526 0.15833549
O 16.08861840 1.54825641 2.58519071 -0.84606320 0.94936174 0.67007780
O 3.50795074 4.69807312 2.52212272 0.54357585 0.65172462 1.13990602
O 15.99492850 4.65648200 2.44355027 -1.06237651 0.14204733 0.56066250
O 2.08044384 1.57407008 8.23361157 -0.04955154 0.90676509 -0.24933994
O 14.60572458 1.60726705 8.20103104 -0.56063681 -0.54376864 -0.66897368
O 2.14251725 4.69397786 8.19190721 -0.33256601 -0.51162590 -1.05913218
O 14.54047527 4.61774777 8.23663091 0.24409602 -0.47131697 -0.13453303
O 12.14684374 1.52989386 1.50365951 -0.19979193 0.72090387 0.41499560
O 24.67923538 1.55702331 1.46661964 0.23368779 0.21281081 1.00194008
O 12.15579867 4.67138346 1.48235491 -1.23661551 0.69398534 0.04801899
O 24.75982782 4.69264846 1.40615699 0.40744080 -0.87588785 -0.91247311
O 10.77083814 1.52978296 7.24382890 0.39775257 0.67093443 0.26117718
O 23.33845320 1.52226056 7.25170694 -0.18960175 1.69394245 -0.00125411
O 10.75437554 4.69012988 7.26936269 0.41611984 0.98604520 -1.03516393
O 23.34983327 4.67648792 7.16664395 0.42645998 -1.10714880 0.22070777
O -0.96597940 1.56822871 4.37592064 -0.48645438 -0.09999571 -1.41667748
O 11.60680799 1.58852175 4.33167437 0.75867164 0.46169753 0.41620809
O -0.99138496 4.64104932 4.28420520 0.12360343 0.29442601 0.86017010
O 11.58755769 4.65173575 4.19311734 -0.30865240 0.44555811 1.16960973
O -2.42950796 1.53896778 10.12433539 0.62437171 -0.80379583 0.77360520
O 10.15191912 1.66300831 10.04156413 1.44287343 -0.07802350 -0.79103990
O -2.40278708 4.64792482 10.07042674 -0.38004205 0.42978962 0.08239629
O 10.14102132 4.66807322 9.99062985 0.93630731 0.10477845 0.64955745
O 5.82669726 6.24768895 1.41058107 1.21907822 -0.11037299 -0.96213867
O 18.42527296 0.02077573 1.46570757 -0.71339194 0.13276981 -0.40340493
O 5.84837788 3.16975549 1.50855110 -0.68896497 -0.25820966 0.79497473
O 18.48928193 3.07906491 1.49364722 0.22958506 0.96672614 -0.38179167
O 4.48048508 6.14433888 7.21423876 0.64550990 -0.79409071 0.76899043
O 17.12747976 -0.02488494 7.28264604 -0.31583312 -0.36463081 -0.57614642
O 4.48313054 3.05808517 7.30313697 -0.52580859 -0.61979526 0.08228557
O 17.06494704 3.09272652 7.29385252 -0.99402178 -0.53670210 0.07424673
O 5.23178707 6.20532035 4.32824598 0.85550494 -0.01869964 0.39264607
O 17.87682574 0.03953455 4.31671966 0.08774168 -1.15203135 -0.10235254
O 5.30244842 3.08148620 4.25362814 0.10946734 -1.24352993 -0.28689849
O 17.88388625 3.07564780 4.21959260 -0.33618861 1.18310056 -0.72977890
O 3.93268100 6.35080310 10.03058921 0.76126472 -0.51259028 -1.06559869
O 16.41724509 0.07234990 10.03398043 -0.79397453 -0.28526033 -0.33137959
O 3.88551782 3.02172301 9.97688374 -0.46767812 -0.01260455 0.18973257
O 16.46104734 3.09297520 9.99706885 -0.25596351 -0.07919816 -0.57405087
159
Lattice="25.394740 0.000000 0.000000 0.000000 6.287391 0.000000 -2.832829 0.000000 11.640762" Properties=species:S:1:pos:R:3:force:R:3 Energy=-627.487213 Virial="-55.436494 2.301053 -2.745799 2.301053 -47.128477 -7.088216 -2.745799 -7.088216 -39.189501" pbc="T T T" defect_vacancy
Ga 12.70396250 6.28186306 4.68936082 -0.69565581 -1.07816130 -0.66820512
Ga 0.00227690 3.11376268 4.60341260 -2.24069299 0.98848583 0.40508647
Ga 12.70465182 3.17694081 4.62975798 -0.26868344 -0.38186690 1.32346859
Ga -1.37066187 6.32545901 10.43505538 -1.30515974 0.65460278 -0.15950542
Ga 11.29228501 6.30537287 10.42774672 -0.13868762 -0.01316529 -0.33320801
Ga -1.40042089 3.18304385 10.44916748 -0.50524409 -0.07720046 -1.08304026
Ga 11.33717624 3.10243868 10.46120745 0.59256246 0.99507068 1.46564594
Ga 11.29217528 0.01566044 1.18028060 0.54770004 0.22718408 0.45299062
Ga 23.90344359 0.05119828 1.13772485 -0.67784678 0.89723062 0.61009088
Ga 11.21338894 3.16364668 1.18573641 0.18131718 -0.80652810 -0.56444232
Ga 23.97038707 3.08975017 1.20231856 -0.26237553 0.78597301 0.22343718
Ga 9.88272122 6.22489199 7.02471630 -0.84950061 0.28350323 -0.55038677
Ga 22.58551387 -0.05121919 7.02079696 -0.93266283 -0.68157043 0.52979295
Ga 9.85115767 3.15737475 7.00464510 0.39699235 1.68302450 0.62748679
Ga 22.48953947 3.12871216 6.99459191 0.60916182 -0.60419428 -0.26860641
Ga 6.35980984 1.62102004 4.56850085 -0.53244948 0.57868887 -0.28590380
Ga 19.10305366 1.64121057 4.69451576 0.68477194 -1.75490152 0.33065222
Ga 6.43237651 4.72246488 4.62993922 1.42389090 1.12256658 0.03033191
Ga 18.98859122 4.70723399 4.67048238 1.31451969 -0.01504503 0.94573016
Ga 4.88981956 1.52875999 10.45619918 -1.00385772 0.79179605 -1.13701947
Ga 17.58263157 1.63887836 10.46489011 -1.25762187 0.20203001 1.16185055
Ga 4.96487250 4.75192134 10.43712565 -0.36507008 -0.94641954 0.18761497
Ga 17.65872330 4.67433701 10.35300193 -1.42495235 0.74411090 0.88710704
Ga 4.91706517 1.63282019 1.26080984 -0.74652200 0.02789303 0.94486792
Ga 17.59853989 1.56473653 1.13142246 -0.97062838 -0.70336858 0.26977378
Ga 4.95842944 4.73076771 1.18834829 -0.30784145 -0.61360718 -0.51549236
Ga 17.53121573 4.64603107 1.20285215 0.67691767 -0.65931373 1.57796127
Ga 3.43966031 1.59668384 7.03595698 0.19495047 -0.70337835 -1.41305335
Ga 16.15275406 1.57012579 6.98138902 -0.85283521 -0.41721162 -0.05790367
Ga 3.53586013 4.84577924 7.01412875 0.62730164 -0.67907624 -1.12702389
Ga 16.25534588 4.76148353 7.00923484 0.44227318 0.26223073 -0.45838204
Ga 1.58772294 1.52507331 1.83107305 -0.53039313 -0.67358822 1.68202589
Ga 14.25577010 1.62438625 1.80259055 -1.19661629 -1.02624610 0.32365223
Ga 1.52821149 4.67679772 1.86132815 -2.25692785 0.41117903 -0.63268044
Ga 14.25795836 4.64156813 1.86867285 0.05903976 0.50004731 -0.00236801
Ga 0.08998591 1.54637516 7.63956921 0.63100157 -0.01602095 -0.82151812
Ga 12.80353694 1.50401510 7.68025886 -2.12956048 0.55854115 1.40567868
Ga 0.17806934 4.71662691 7.65931134 -0.17806274 -0.39546496 -1.62141057
Ga 12.78069870 4.73895701 7.66451131 1.46840743 0.10057226 0.21542568
Ga 9.72919711 1.59318814 4.03227065 -0.69896454 0.69702597 -0.53718458
Ga 22.40943572 1.57609734 3.94017621 0.37190553 -0.40223803 -0.92828589
Ga 9.74224030 4.69032423 3.96422338 1.03572576 -0.80202798 0.67881674
Ga 22.39791013 4.67550323 3.99413641 0.80149917 -0.19291925 -0.34977324
Ga 8.32559648 1.52393349 9.81041209 0.17225742 -0.09825430 0.33213732
Ga 21.01795703 1.47810012 9.88248843 -0.30402298 0.73759985 0.16411289
Ga 8.27583953 4.67751318 9.81645527 -0.29821772 -1.02159858 -0.02022489
Ga 20.96950753 4.71551767 9.78466811 -0.33412509 -0.06638423 0.16943073
Ga 7.95869291 0.11089685 1.85468654 0.38264309 -0.02640432 -0.30054422
Ga 20.62450881 -0.01567743 1.87449018 -0.76388362 -0.33979379 -1.67714678
Ga 7.88615790 3.15696870 1.80929201 0.50062671 -0.63823444 -1.55404508
Ga 20.55537169 3.13760793 1.78818838 -1.97161425 -0.46584927 -0.21448481
Ga 6.56252434 -0.02905482 7.63979596 0.42498542 -0.41525281 0.89027104
Ga 19.17062203 -0.04697930 7.67455996 -0.21517133 1.42504258 -0.38621376
Ga 6.50000159 3.23963487 7.69912165 0.65807754 0.61240682 0.24937821
Ga 19.19778515 3.16257050 7.64024071 0.24218834 -0.28030290 -1.10027504
Ga 3.32682894 -0.05432184 3.95504637 -0.02753086 0.52348077 -1.19615190
Ga 16.11510941 6.29230886 4.01677858 -0.49405867 -0.44324521 0.04016556
Ga 3.39401991 3.13921533 3.97186246 0.99510981 -0.23506098 0.67293325
Ga 16.14603741 3.16474547 3.92145650 0.57544993 0.02281288 0.96344130
Ga 1.87748439 0.03287236 9.77473978 -0.67603037 -0.27686125 1.21853358
Ga 14.64096137 6.19852398 9.79987093 -0.94038870 -0.50152743 0.28897143
Ga 1.98934389 3.11747795 9.76048946 0.19778402 -0.27290916 -0.48079118
Ga 14.63645908 3.14778556 9.79742910 -1.43262938 0.59718715 -1.00103667
O 1.85347806 6.30304445 0.61233944 -0.70117467 -0.39907337 -0.51169508
O 14.62748161 6.24140073 0.67457883 0.11291741 0.19007254 -0.52538031
O 1.95558166 3.14444112 0.64009959 -0.83104554 -0.76759102 0.15266073
O 14.66553079 3.19341724 0.69975671 0.23805342 -0.87944098 -0.83155539
O 0.51901881 -0.01569140 6.48272896 0.07387940 0.50403142 -1.30521010
O 13.24953148 6.30790036 6.41384959 1.61992464 -0.57459951 -0.32877624
O 0.51268868 3.17257430 6.47042021 -0.61627054 -0.83798023 -0.67038370
O 13.21827636 3.11378638 6.44178643 1.31770353 0.44689003 0.21229754
O 9.38275968 0.01836397 5.16656033 0.74356435 0.11374572 0.42706282
O 21.96890027 -0.11383814 5.18387437 -0.94940488 -0.56980236 -0.87969646
O 9.37066986 3.13980300 5.19873986 0.11915522 -1.00439771 0.35608216
O 22.12550193 3.12287935 5.20296465 -0.42303365 0.72520389 -0.43270472
O 8.01952716 6.24187633 11.08746534 -0.55324840 -0.36200955 0.06328533
O 20.68886390 6.26506319 10.89854197 -0.72775362 -1.27275544 -0.19367221
O 8.01014817 3.21143060 10.97927242 -0.80724160 -0.24975334 0.24774344
O 20.72610289 3.06067574 11.01675032 -0.61619985 -0.43670067 0.01191392
O 8.25074912 1.51191561 0.61877935 1.54523714 -1.61913800 -0.73134285
O 20.96578985 1.53030908 0.66084422 -0.65012177 0.01602554 -0.47376763
O 8.24466034 4.70449439 0.68653996 1.00374594 0.17725563 0.58362852
O 20.93229160 4.62506590 0.62696248 -0.21866181 1.39540643 2.30539907
O 6.85426326 1.56535772 6.48049030 -0.82657903 -0.05416612 0.32782100
O 19.56376034 1.54110669 6.48340696 -1.08413447 0.49786109 -0.27101691
O 6.86618693 4.73452695 6.45394463 1.05319920 -0.72871458 -0.01001839
O 19.55964628 4.72330801 6.43704955 -0.50382744 -0.89895153 0.16522629
O 3.03690637 1.58640625 5.20584116 0.78671635 -0.61682398 -1.24494413
O 15.73765984 1.49000582 5.22730544 -0.25477146 0.88697372 0.11108611
O 2.98880863 4.75621334 5.13312856 -0.37157132 0.57631459 0.23320369
O 15.77708154 4.61671945 5.18693425 1.83966519 1.18000631 -0.80843625
O 1.58011298 1.58077123 11.07381697 0.99108333 -1.02101216 1.34192880
O 14.30390565 1.61331079 11.06582586 0.40692874 -0.41824834 0.54032191
O 1.57615967 4.72203014 11.06169007 -1.00007112 0.84562749 0.77286286
O 14.30937511 4.69944628 11.02500382 -0.61123039 0.48706562 -0.22421530
O 1.40664706 6.30686669 3.27026642 0.36459546 0.67857634 -0.01711324
O 14.10546333 -0.00396092 3.26770255 0.55701732 -0.28964370 -0.51724607
O 1.45521681 3.11700751 3.26542871 1.25953145 0.75196049 0.67459029
O 14.07403899 3.13079245 3.27760421 -1.09113787 0.26022225 -0.27930555
O 0.01908910 -0.04723787 9.05060433 -0.41124963 0.56185860 0.79004941
O 12.61737188 0.02089021 9.14451866 -0.98865735 0.07459317 0.26740865
O 0.02768552 3.13153717 9.10342018 0.54048055 -1.11802067 -0.19494916
O 12.59891062 3.20328922 9.14845046 0.54238117 -0.67832592 1.18132884
O 9.91202980 6.23650487 2.51169123 -0.23212200 -0.56567214 -1.49551483
O 22.54420842 6.35148248 2.58039822 0.00694014 -0.34652776 0.76958691
O 9.86701773 3.16183512 2.48435844 1.42251176 -0.00017639 0.25607648
O 22.51293874 3.13792936 2.48140114 0.20738697 1.10612466 -0.07206366
O 8.38907876 0.00319426 8.34515422 1.27884145 -0.88188246 -0.03242939
O 21.10728766 6.26313185 8.36108689 -0.91321419 0.38337237 1.01377651
O 8.44887314 3.16534588 8.35578997 1.10149307 0.42892723 0.37183204
O 21.21792563 3.20401237 8.35071996 -1.25326847 -0.58333980 0.61359729
O 7.72254322 1.55622384 3.22444320 0.03491709 -0.67303614 -1.68531879
O 20.42550255 1.58939149 3.26426720 0.04650411 -0.48537831 0.31866305
O 7.74708880 4.75247529 3.30113171 2.19369758 1.79846509 0.07785054
O 20.45476821 4.72920338 3.28323713 0.86015146 -0.34618758 0.65576044
O 6.36862860 1.60168645 9.09058223 -0.63580038 0.45572968 -0.21961562
O 18.98548793 1.59115596 9.12431950 0.00855175 0.48553818 -1.65649991
O 6.28300065 4.70501324 9.11692058 2.15194513 -0.40475582 1.55572097
O 19.02370485 4.78670316 9.16255709 0.88424567 0.52265020 -0.68963755
O 3.47139008 1.56608379 2.56890731 0.04357405 0.39971043 0.46431453
O 16.21740040 1.58537567 2.52504099 -0.25368410 1.57083974 0.54768840
O 3.46289456 4.73428085 2.53042821 0.36071949 -0.91881977 0.75321898
O 16.32190086 4.74800805 2.48901525 1.19574274 -0.06111835 -1.38450562
O 2.13079154 1.57194573 8.37020330 0.53588917 -0.36876136 -0.74633390
O 14.76422852 1.58740713 8.39957054 1.54807408 -0.04339431 -0.79304845
O 2.14008849 4.76103329 8.47045408 -1.15651271 -0.30589610 1.38707808
O 14.77967648 4.78360575 8.36561494 -0.64341185 -0.52914530 0.23832179
O 12.26417553 1.56321517 1.53080249 -0.49387037 1.32998877 0.10639394
O 24.95852187 1.49926526 1.53138482 -0.42075692 -0.20764719 -0.51314652
O 12.29449378 4.68190036 1.44572770 0.92432324 0.16630303 -0.56066739
O 25.00488060 4.76729389 1.44415995 0.20491039 -0.39157784 -0.48757443
O 10.87660811 1.66168931 7.33976911 -1.73070075 -1.03938737 -0.39117744
O 23.56440463 1.56756631 7.30340410 -0.30001262 1.05360007 0.73808061
O 10.87259981 4.69573731 7.31728522 0.10801450 1.05107824 0.39981809
O 23.56145108 4.64700605 7.31246886 -0.05377390 0.78053329 0.38608524
O -0.89523269 1.52080403 4.38883595 0.66327290 -0.55416452 0.54803639
O 11.74418336 1.59588461 4.32076072 1.76860421 0.72383225 -0.70772307
O -0.96831746 4.79628289 4.36574087 2.21582517 0.63846496 0.82643552
O 11.70428477 4.71991472 4.30461440 -0.99455302 1.04834259 0.13282005
O -2.40924316 1.58939507 10.14580368 -1.00047050 -0.19666750 0.22715350
O 10.27755198 1.57802899 10.22148071 1.02168773 0.90228291 -0.41189772
O -2.40591978 4.72313324 10.05436887 0.37016058 0.32742978 0.42408482
O 10.31543070 4.74660507 10.16595559 -0.96083513 0.48029508 -0.59842597
O 5.96735985 6.25215006 1.49107927 -0.22882003 -0.06906044 -0.37292077
O 18.71690981 -0.04813032 1.45358288 -0.14101293 -0.04714664 -1.54968357
O 5.87410554 3.14604524 1.55651518 -0.77502042 0.22247534 0.98031630
O 18.64581842 3.19368560 1.40531472 1.41500671 0.39798635 0.64655265
O 4.49951674 6.25639988 7.38876381 -0.47355338 -0.14304073 1.00861755
O 17.22463497 0.00364346 7.32735218 -0.30962294 -0.37662170 0.88562994
O 4.50909783 3.22566655 7.39177721 -0.83735939 -0.39270360 -0.42322521
O 17.27317138 3.18064355 7.29742534 1.12212404 -0.86116253 -1.00620946
O 5.37046527 6.20923840 4.32097834 -0.23742895 0.72816374 0.41476951
O 17.97904710 0.03127565 4.33660566 1.07034091 0.36942559 -0.30452791
O 5.38908962 3.18359571 4.37813099 -0.13349126 1.27366236 -1.88348169
O 18.01690902 3.07699964 4.40928576 -1.09220981 0.21031473 0.31680156
O 3.90887118 6.28320524 10.19593889 -0.12119640 1.29412590 -0.89451934
O 16.62272998 -0.03721601 10.24507632 0.91748700 -0.05759572 0.56207215
O 3.91108790 3.22034624 10.16700855 0.80053308 -0.31734986 0.70110351
O 16.66668338 3.19150935 10.13165831 -0.35793167 -0.95772496 0.06280696
159
Lattice="25.147604 0.000000 0.000000 0.000000 6.226204 0.000000 -2.805261 0.000000 11.527477" Properties=species:S:1:pos:R:3:force:R:3 Energy=-629.801837 Virial="-55.671767 -2.621807 -3.418834 -2.621807 -46.521774 -4.789264 -3.418834 -4.789264 -43.064477" pbc="T T T" defect_vacancy
Ga 12.61920435 6.23498350 4.56820388 -0.39463242 -1.06441419 -0.82308670
Ga 0.05444444 3.16150521 4.53944930 -0.84962495 -1.54250573 -1.25001162
Ga 12.55239054 3.21156189 4.60476550 -1.05847232 0.29434530 -0.26593461
Ga -1.31690479 6.25766315 10.36302335 0.33875105 -0.10237412 -0.00741874
Ga 11.09969358 6.17571354 10.37668948 0.24925032 -0.07886795 -0.07452830
Ga -1.42474604 3.10420677 10.37905331 1.14497149 -0.30666138 -1.02150053
Ga 11.18175307 3.12428320 10.40152578 0.59127493 -0.33651164 0.26871530
Ga 11.21886515 0.00071214 1.23115801 -1.48717850 -0.94507364 0.64801209
Ga 23.69017524 0.01547501 1.20518013 -0.11484760 -0.94987109 0.30085204
Ga 11.15296156 3.10095261 1.14404532 -0.05491304 -0.18614204 1.33852684
Ga 23.72999928 3.04616117 1.17374328 -1.17131206 0.13775521 0.64481049
Ga 9.75583416 6.25596259 6.89931239 0.38764639 -0.67453767 0.51030806
Ga 22.34357069 0.02490569 6.94585501 -1.35013340 -0.14080166 0.71762056
Ga 9.77114742 3.12331220 6.84324439 0.44071553 0.44378612 -0.49969168
Ga 22.29148714 3.19970959 6.97477350 -1.12568417 1.28315279 -0.18456033
Ga 6.27654053 1.57217405 4.61135812 -0.34763293 1.25320332 1.02865874
Ga 18.94073951 1.53962685 4.55737391 0.41357601 -0.02975428 -0.18939813
Ga 6.27894004 4.64602072 4.55782114 0.66681000 0.08393677 -0.28600913
Ga 18.88291954 4.65319406 4.57768269 1.13530596 -0.14763727 -1.87992956
Ga 4.97341734 1.50963344 10.36357506 0.48461173 -0.91045268 0.20840317
Ga 17.43161893 1.58778263 10.38468620 -1.40528513 -0.39755877 -0.22832749
Ga 4.86825316 4.64579127 10.37564094 -0.58487130 -0.21761819 -0.70250101
Ga 17.46480310 4.72423149 10.29593769 -0.33914289 1.03206186 0.14768973
Ga 4.91358106 1.64376287 1.19789009 0.93645908 -0.64988581 -0.15333047
Ga 17.40927447 1.52937951 1.17554427 1.82401859 -0.19113819 0.06263026
Ga 4.89514156 4.60822544 1.17188265 1.69751062 -0.17388378 -0.46158899
Ga 17.44399796 4.73439074 1.26048659 0.50548813 0.33966201 -0.41940069
Ga 3.46202379 1.51549373 6.94984224 0.20290540 -0.25085555 -0.19333195
Ga 16.05467163 1.60037577 6.93289236 -0.52166523 -0.07411749 -0.09888551
Ga 3.42460166 4.66780548 6.93697504 -0.87955608 -0.34118033 -1.29238403
Ga 16.02395258 4.63970086 6.89387689 0.09391658 -0.23915741 1.38403687
Ga 1.57561064 1.57092317 1.77565632 -0.70851943 0.34402246 0.01509599
Ga 14.16171716 1.48102163 1.79354532 0.02240924 -1.65681068 0.79528878
Ga 1.56371294 4.71583233 1.78710033 0.00225855 -0.77996549 -0.58873987
Ga 14.17145091 4.63702901 1.84315715 -0.76126865 -0.45917540 0.30323630
Ga 0.21622960 1.51305408 7.57962620 -0.46109719 -0.14943216 0.62973859
Ga 12.74396523 1.50682105 7.59059617 0.23107335 -0.11929472 -0.19555677
Ga 0.12785956 4.63487736 7.55336900 -0.32595595 0.09266732 0.42581538
Ga 12.70385825 4.70419134 7.57350227 0.48281040 -1.36674620 -0.76696729
Ga 9.70942233 1.53885872 3.97260240 -0.67557985 0.14351654 -0.17021964
Ga 22.18992035 1.50721811 4.01832349 0.54681031 0.84133897 -0.96346094
Ga 9.62505334 4.63992707 3.96527476 -0.54478643 0.41899537 0.82393675
Ga 22.23747504 4.63852193 3.96149978 1.09886802 -1.14883606 -0.64988390
Ga 8.25354011 1.55974556 9.73776309 -0.55181495 -0.45923090 1.98168816
Ga 20.77645579 1.49904075 9.70279188 0.67727288 0.39840229 -0.46802745
Ga 8.19117530 4.66466726 9.69570663 1.42909964 -0.14649648 -0.51529635
Ga 20.79898272 4.65855738 9.75146960 -0.30439742 0.06110813 -1.12703409
Ga 7.86123086 -0.03346822 1.85826200 0.19450284 -0.05899917 -0.67486886
Ga 20.38696010 -0.03862980 1.85642561 1.04606059 -2.03374008 -0.63977487
Ga 7.81614897 3.11753931 1.76077247 0.00077922 0.00145088 0.00388018
Ga 20.39045937 3.11089722 1.79411288 -1.36020934 -0.78363707 0.23880905
Ga 6.41965759 0.00273807 7.61020544 0.04571130 0.76810380 0.93303743
Ga 18.97212048 -0.09868874 7.62234295 0.80894927 1.65325587 1.41575018
Ga 6.41415959 3.09236496 7.56089026 -0.40189233 0.74713812 -1.11153383
Ga 18.95504781 3.10146033 7.55826217 -0.41857421 0.24758084 -0.18729510
Ga 3.35255499 -0.01878100 3.86071141 -0.78021136 0.02422995 0.22103120
Ga 15.85181115 6.26550889 3.92280399 -0.32606894 -0.25352039 0.04535949
Ga 3.35164319 3.08805303 3.98970995 0.29124455 1.66737516 -0.26066415
Ga 15.91286881 3.05486706 3.90238242 -0.18521277 -0.61988248 -0.18278198
Ga 1.86914607 0.03934243 9.66425715 -0.02753476 2.59276093 1.13537701
Ga 14.48886668 6.22165212 9.73172672 -0.51027176 -0.04899889 0.83393665
Ga 1.91540855 3.04532124 9.66358302 -0.69976844 0.75561679 0.71449587
Ga 14.46161898 3.00984508 9.73330334 0.90514818 0.69331157 -0.51585146
O 1.91817759 6.18325106 0.68129183 0.23587485 -0.04196685 -0.72175673
O 14.47396902 6.25323606 0.64969931 0.91257673 0.29658764 0.16336697
O 1.90296044 3.04691436 0.62978134 -0.96956505 0.63488020 -0.34199877
O 14.47907271 3.08969194 0.63959719 -1.02054862 0.47748746 -1.26869152
O 0.48885257 -0.03220186 6.39233841 -0.73151825 0.05488271 0.38475122
O 13.03291411 6.23752589 6.36059211 -1.05507688 0.29636505 0.67715605
O 0.47660863 3.04606967 6.48889752 0.82093834 -0.24038271 -2.08489244
O 13.04130076 3.06279892 6.41175140 0.29957859 0.34873838 -0.21989547
O 9.28541056 0.02472127 5.16751338 0.33269487 0.48409892 -0.70763863
O 21.89602016 -0.04119877 5.14114199 -1.27130146 -0.33915693 -0.23293526
O 9.20906415 3.10517935 5.17358086 1.23029840 -0.25874639 0.12651245
O 21.81095427 3.20138881 5.13859176 -0.26756171 0.14641189 0.79752943
O 7.80236978 6.25038968 10.99824772 -0.39009381 -1.53401303 -1.51381881
O 20.35960053 6.24495941 10.85331820 -0.54312634 1.10401491 1.14575047
O 7.87495091 3.05768948 10.93408071 0.83536329 -1.04550650 0.58615194
O 20.43905336 3.14427013 10.85679980 0.50261957 -0.26038083 -0.03003094
O 8.16922579 1.45761729 0.72656503 -0.22838837 -0.91823807 0.80906776
O 20.83976373 1.64971164 0.68899268 0.20526564 1.36331337 -0.43240106
O 8.16778937 4.67117451 0.63420341 -0.63560924 1.71079514 1.00947879
O 20.76948493 4.62582247 0.58499249 1.32650689 -0.69807648 -0.28297470
O 6.72975966 1.54262594 6.37054734 1.29790394 0.76941788 -0.21748241
O 19.33941058 1.55990395 6.33740826 -1.67536354 -0.46582017 -0.48074463
O 6.74682911 4.64087377 6.43022119 -0.68826658 0.09107468 0.98765102
O 19.36589104 4.68654885 6.34894220 0.11809358 -0.61812983 0.50839576
O 2.98999065 1.51794064 5.10350351 -0.07930732 0.89377151 1.32130071
O 15.57484708 1.53874251 5.13639294 -0.18295252 -1.12895303 -0.07127735
O 2.98711487 4.61858955 5.11396372 -0.28115994 -0.91740124 1.44980166
O 15.53842085 4.64302073 5.05153542 0.86736807 1.14140065 -0.37605574
O 1.55004877 1.58350567 10.91519756 0.95876584 -0.19537411 0.98606834
O 14.13935190 1.51320334 10.90136508 0.23395842 0.71466392 0.54110887
O 1.62404845 4.72241846 10.87889029 0.92321019 -0.47937105 -0.91428640
O 14.11374362 4.69621411 10.91167308 -0.19037534 1.17051673 -0.32241172
O 1.38882506 6.19990813 3.20701911 0.37219001 -0.18629535 0.63604032
O 13.98558209 0.03746487 3.24110130 -0.33521775 -0.09430350 1.11570399
O 1.45759566 3.11647003 3.25656944 -0.20046071 -0.26619132 -0.15309683
O 13.93675608 3.03486784 3.23126054 1.49839421 1.60741961 1.44727570
O 0.00504912 0.09533998 9.03195044 0.13675858 -0.76200319 -0.44079929
O 12.59174306 -0.03046815 9.02289135 -0.47920759 0.18446861 1.15778099
O -0.00721710 3.08310825 9.06320190 0.59921455 0.77109409 -0.11813982
O 12.55993763 3.15224401 9.01398323 0.61127031 1.07576471 -1.26815689
O 9.76650577 6.18011886 2.48763429 0.74632903 -0.50937857 -0.31293276
O 22.39093328 6.18637451 2.54232868 -0.17760081 -0.88242687 -0.99643898
O 9.76595306 3.13148832 2.50456892 0.94799515 0.45903775 -0.41775724
O 22.29537025 3.11674457 2.58893360 0.91488193 0.29077550 0.58129679
O 8.38675217 0.03892791 8.28631735 -1.31599708 -0.50371058 0.82059994
O 20.97335923 6.18931447 8.25985993 -1.54107994 -0.11512236 -0.34695871
O 8.41079558 3.11498794 8.32409132 -0.15546975 -0.52997185 -0.31287249
O 20.90276748 3.12253336 8.25449347 0.33230362 -0.24485758 -0.16889018
O 7.78537688 1.54768570 3.26102500 0.57805330 -0.35713383 -1.42580212
O 20.17865958 1.50075207 3.26824498 0.25390720 -0.22685228 0.22730241
O 7.66807002 4.64964157 3.23410115 0.12043303 -0.52690243 0.47445031
O 20.24557998 4.61924363 3.25565979 -0.62034040 -0.16522615 -0.56714599
O 6.26099512 1.61695822 9.04568219 -0.82092224 -0.71456588 -1.29444715
O 18.73803231 1.52716532 9.09404114 -0.11088515 0.58146818 0.62120821
O 6.32076729 4.68498119 8.99481923 1.06838180 -1.48538762 0.27351348
O 18.87852674 4.60764908 8.99026421 -1.00485871 -1.90965424 -1.15902296
O 3.50139095 1.58497982 2.51418693 0.71983851 0.78205343 0.71809391
O 16.07862349 1.54732652 2.51352288 0.70106915 1.06900642 0.15833826
O 3.54500685 4.73480254 2.51693157 -0.11620021 0.02773784 0.26855283
O 16.01392379 4.65516339 2.51025537 -0.01663804 -0.84596275 -0.37331234
O 1.99497848 1.61298409 8.24239241 -0.21441108 0.32245332 -1.52987537
O 14.61613079 1.54601411 8.25696032 -0.20274465 1.26363878 1.41515042
O 2.08895265 4.70293322 8.31562820 -0.80526967 0.39829026 -1.74394942
O 14.68595626 4.62782741 8.26813055 0.60549616 -0.42614817 1.04689130
O 12.16434531 1.56058029 1.49971428 0.43341146 0.44989365 -0.82089759
O 24.73332977 1.55885187 1.51964834 0.05044959 0.79877478 1.02300112
O 12.16052422 4.69517398 1.51414336 1.08499529 -0.82496261 -0.18784975
O 24.80353445 4.67847380 1.52336968 0.35609941 1.23426972 -0.28955510
O 10.74744950 1.57166646 7.26135828 0.09463023 0.73138367 -0.52167774
O 23.29446582 1.54039636 7.22414070 0.96736647 -0.22041294 -0.72464888
O 10.76121837 4.64475468 7.26053252 -1.80895171 -0.61170003 -0.13478537
O 23.33320701 4.65372579 7.25240016 -1.30732636 -0.77205052 1.12032048
O -1.02207783 1.52499785 4.23597180 0.65119012 0.47000454 -0.13427122
O 11.51489131 1.52554098 4.31909999 -0.73875786 -1.73917482 1.35764715
O -1.00571601 4.67462769 4.26103981 0.67564680 -0.41145581 -0.32116209
O 11.65438096 4.67631509 4.26169043 -0.77922603 0.30199744 1.33457095
O -2.43597155 1.61708198 9.98543013 -1.52178435 0.25005049 -0.30441357
O 10.14483378 1.52945319 10.04391987 -0.52256345 0.05886854 0.45601685
O -2.37936459 4.66736857 10.03282966 -0.45937460 -0.37567798 -0.01412284
O 10.11678374 4.74731608 10.05213297 0.26666243 1.17810325 0.44242692
O 5.90382823 6.19776152 1.47209104 0.03378627 -0.76219159 -0.81445998
O 18.50778833 -0.08446691 1.51897240 0.46886115 1.41932482 -0.08373816
O 5.86116884 3.13528756 1.54070902 0.45407252 1.09185686 0.04957928
O 18.43015488 3.00738111 1.42307669 -0.03287799 0.36067716 0.35450374
O 4.48549843 6.28441305 7.23381609 1.05377321 1.35410761 -0.48855920
O 17.10917778 -0.09150193 7.22407701 -0.54626041 -0.15069392 0.54058748
O 4.51204676 3.14914230 7.16036377 -0.23723206 0.42371562 -0.29189648
O 17.02299239 3.10014415 7.21597195 -1.22957894 1.05750702 0.82551732
O 5.34229791 6.22457089 4.23406511 -0.26958887 -0.44021166 0.05597951
O 17.87991929 0.02757579 4.24833030 1.25024718 -0.18233771 -0.24694505
O 5.26649167 3.09408354 4.34151139 -0.20705536 -0.47697007 -0.35824530
O 17.86425303 3.02574649 4.23718870 -0.43256922 -0.02507331 1.71311101
O 3.91686588 6.20339120 10.00102231 0.15810204 -0.40896765 -0.37533127
O 16.45327734 0.04355837 10.14443356 -0.02553171 -0.91970549 0.01526291
O 3.88829237 3.13121328 10.04520284 1.40677510 0.35592035 -0.99145435
O 16.46903505 3.08000429 10.10276581 -0.10874948 0.50452125 -0.03645381
159
Lattice="24.981768 0.000000 0.000000 0.000000 6.185145 0.000000 -2.786761 0.000000 11.451459" Properties=species:S:1:pos:R:3:force:R:3 Energy=-627.323765 Virial="-58.640631 -0.213270 -3.327503 -0.213270 -47.913639 -4.880302 -3.327503 -4.880302 -46.014637" pbc="T T T" defect_vacancy
Ga 12.47805749 6.09404639 4.56083264 -0.38472645 0.11376487 -0.24949689
Ga 0.03279154 3.12472410 4.60169903 -0.61228772 -0.33665770 0.05378095
Ga 12.46438143 3.16982086 4.53825008 0.60064721 0.33102678 -0.68113564
Ga -1.36000668 6.17824135 10.24557388 -1.52980414 -0.79870186 -0.49665786
Ga 11.06344706 6.19192417 10.24385191 0.64227773 -0.19663166 -1.36148299
Ga -1.38820855 3.07314128 10.25994435 0.84603453 0.87428408 0.05006416
Ga 11.03065204 2.96114974 10.31134234 -1.16748000 -0.38816492 0.07212946
Ga 11.13081488 -0.09952234 1.18914454 0.10413035 -0.64370976 -0.60243879
Ga 23.58081899 -0.04660129 1.21065550 1.16847768 -1.40074902 1.19117300
Ga 11.12912898 3.13170160 1.25077564 -0.89714615 1.00894957 0.35651128
Ga 23.61492809 3.05672947 1.17198996 0.36521253 0.11004913 1.28676049
Ga 9.70452015 6.24585321 6.89051211 0.31252181 -0.01853258 -1.14774640
Ga 22.15742699 -0.06405407 6.93585072 0.28446009 0.27013077 -0.36373431
Ga 9.69729898 3.05733021 6.93227925 -0.91158722 0.08784200 0.18179117
Ga 22.16752048 3.04047442 6.95594239 -0.30274050 1.26379825 0.44959796
Ga 6.17653133 1.55298978 4.54826394 -1.27684511 -0.70689351 1.60568148
Ga 18.68904551 1.55796049 4.52326520 0.26512005 0.54539655 -0.50230329
Ga 6.32465543 4.67824835 4.56065138 -0.15880690 -0.25138546 -1.02734185
Ga 18.65128142 4.61701215 4.52465163 -1.31517664 -0.30650246 -0.24355169
Ga 4.91463404 1.54486004 10.29452356 -0.85570912 -0.07352190 -0.64232114
Ga 17.40248491 1.60570298 10.33009273 1.79573376 -0.86952549 2.06387810
Ga 4.89247519 4.63193237 10.29812320 -0.01884773 0.30029597 -0.14264870
Ga 17.35921828 4.66820503 10.25308587 0.16751071 0.59149824 -0.05245603
Ga 4.87451890 1.54587276 1.18985245 -0.14963326 0.22949717 0.23795722
Ga 17.27192524 1.53922836 1.19209132 0.84047028 1.56123449 -0.60189455
Ga 4.82870448 4.54331388 1.12710262 0.19923394 -0.04804998 -0.50395635
Ga 17.33740565 4.70158440 1.16889370 -0.64259213 -0.78100624 -0.57731508
Ga 3.42486550 1.59163223 6.89887830 -0.53958830 1.45062153 1.77463374
Ga 15.97153008 1.53086115 6.88855586 0.15276516 1.51204249 -1.46306203
Ga 3.47419563 4.66438600 6.89191073 1.14509768 -0.65504427 0.03893679
Ga 15.88788212 4.57683975 6.83680387 -0.73174202 0.12248283 0.71936557
Ga 1.51563741 1.56273664 1.72925076 -0.41597989 0.55975604 1.08979194
Ga 13.97173099 1.55957546 1.86067902 1.00767341 0.71958153 0.52151259
Ga 1.58839503 4.56704652 1.81305826 0.04170400 0.15781485 -0.32684401
Ga 14.07156374 4.61253681 1.78888570 -1.02879210 -0.31934801 -0.36797920
Ga 0.16130113 1.56232234 7.53870965 1.35665576 0.28228731 0.86389691
Ga 12.66741375 1.55495245 7.49832157 -0.60957681 -0.22684088 0.03773848
Ga 0.13167316 4.60663995 7.50193661 -0.09700252 0.63348376 -1.00819319
Ga 12.66226389 4.61044249 7.56639295 0.54494498 0.60992360 -0.13684298
Ga 9.51404089 1.55814242 3.96100753 -0.60797453 0.32527349 0.15671105
Ga 22.06752706 1.47409006 3.93395676 -1.01553468 0.77446227 -1.02470078
Ga 9.52731759 4.58747220 3.93215219 -0.35836053 1.17861892 0.02531838
Ga 21.99980831 4.65145599 3.99161385 -1.12879964 1.11862737 -1.54391430
Ga 8.16986232 1.53358783 9.64509820 0.32686133 -0.33531700 1.34326438
Ga 20.68649683 1.53943185 9.63019715 0.64788322 0.63945640 -0.18805165
Ga 8.12218310 4.60247472 9.68933977 0.25562890 -0.97914556 -0.88900201
Ga 20.63561746 4.66382255 9.68046262 0.23869633 0.61072415 -1.32869842
Ga 7.74668463 -0.02831710 1.81916719 -0.31539778 0.03709649 0.97644231
Ga 20.28687575 -0.00085250 1.82071628 -0.05134521 -0.06536865 0.49676733
Ga 7.82863895 3.09153605 1.77757902 0.49760153 -0.31361138 0.38500531
Ga 20.27522808 3.06277814 1.80358895 0.71055420 0.69368236 -0.07881607
Ga 6.39781628 -0.03154240 7.50448886 -0.95831489 -0.35617013 0.82374766
Ga 18.87145558 0.03172157 7.48781850 -0.06318500 0.86484223 0.22309777
Ga 6.36564260 3.07980207 7.55525896 0.53088831 -1.16544046 -0.79008305
Ga 18.91192454 3.10717480 7.54813101 -1.50165255 -0.35380227 0.61241460
Ga 3.35964081 0.00940579 3.90019754 -0.96803742 -0.13412471 -0.42739773
Ga 15.79732071 6.12539768 3.94610832 0.78233701 -0.02423404 1.61937787
Ga 3.28818542 3.10052147 3.92770359 0.60705042 1.20469392 -0.04787910
Ga 15.78867322 3.10140776 3.91818430 1.34878322 -1.13831375 -0.93969944
Ga 1.89079882 -0.04109168 9.66478296 0.37231426 0.05562342 0.87780169
Ga 14.35973727 6.25560504 9.71021518 0.06326445 0.56189705 -1.06666505
Ga 1.85750366 3.11294441 9.69334250 0.67797783 0.59272391 0.76122742
Ga 14.38460838 3.10927150 9.64696000 -0.03446207 0.23922290 -0.32598334
O 1.91271810 6.16721005 0.66552031 -0.67194456 0.45853789 1.11762543
O 14.37701181 6.16563968 0.64052244 -0.21169013 -0.82415938 -1.90066765
O 1.93177091 3.01400597 0.50155667 -1.16251011 0.12827106 0.58106514
O 14.37633938 3.06876700 0.57614825 0.69594295 -0.37988377 0.32077977
O 0.47180964 0.12233514 6.30094987 1.22714720 0.72856585 0.93254382
O 13.00262826 6.15103191 6.28400412 0.52611077 -0.43664178 0.47028095
O 0.47726655 3.03420442 6.29570800 1.36995457 0.42395589 -1.09538986
O 12.94428652 3.04391363 6.33964597 -0.71599409 0.61504848 1.00679557
O 9.22349379 -0.02878717 5.13262742 1.07823926 -0.74842871 0.97164253
O 21.68146676 -0.00475983 5.01464389 -0.25459965 0.55323349 -0.11703599
O 9.21436444 3.18697280 5.14461352 1.19727445 -0.78933701 0.15398188
O 21.69579113 3.04530766 5.16927264 0.46159814 -0.35166973 0.03898071
O 7.81641244 6.15420989 10.81156189 1.15656450 0.25705429 1.04398963
O 20.39712502 6.17066094 10.83908115 -0.30401222 -0.64483387 -1.23897229
O 7.81704176 3.08693837 10.81106450 0.61181873 -0.10584071 0.73950927
O 20.37381320 3.07918788 10.76980394 -0.12037550 0.01813429 0.55587614
O 8.13932727 1.53535475 0.63379559 0.49154424 -0.34791090 0.80900920
O 20.61279164 1.53059429 0.65929524 -0.21559237 0.03624336 2.78297658
O 8.21177238 4.56776889 0.62172193 1.46056914 0.24690130 -0.14970828
O 20.59603437 4.60237339 0.54040404 -1.03839773 -0.73608366 0.21830611
O 6.75294206 1.53006354 6.31952989 -0.11559950 -0.45142570 0.05118275
O 19.27797179 1.52205808 6.33129364 -0.25463402 0.47434064 -0.84322026
O 6.68284739 4.60416652 6.41393156 -0.06717614 -1.67724485 -0.14873304
O 19.25479794 4.69370909 6.31056204 -0.05674579 -1.20967218 -0.70211982
O 2.98311107 1.58061569 5.12243302 0.00787402 -0.88049829 0.37399544
O 15.52066565 1.57038091 5.10664019 0.82129709 -1.21450886 0.78498907
O 2.88396497 4.65146355 5.12709288 0.07627546 -0.69078105 1.21466779
O 15.50416612 4.59578601 5.08852067 -0.25602401 0.39468839 -0.43355732
O 1.50520573 1.47230166 10.84635537 -0.75833318 -1.59763986 -0.63844077
O 14.11264363 1.60216712 10.84302480 1.46895930 -0.77490777 -0.72654053
O 1.65672527 4.61529454 10.86390036 -0.86957089 0.42032586 -0.70644036
O 14.01007930 4.52036215 10.80619157 -0.53131648 -0.44248376 -0.51527267
O 1.37442609 6.19364567 3.23043217 -0.13846469 -1.05989412 -1.59426879
O 13.88100263 0.07120502 3.26354684 -0.09062952 0.49405134 0.34173142
O 1.34938786 2.98602896 3.19903365 -0.43255155 -1.55605336 0.87470027
O 13.94557262 3.06228120 3.25744144 -0.59388453 -0.90844742 0.19508816
O 0.01597498 -0.00024362 8.96623245 1.51477122 -1.10896649 0.04718792
O 12.45859991 0.09169289 8.91685964 -0.01356585 -0.32691566 1.18111848
O 0.03456991 3.13357747 8.97486519 -0.62174415 -1.66931402 -0.39463271
O 12.47764239 3.02834212 8.90823469 -0.10422310 1.14022360 0.51623286
O 9.68427779 6.18519913 2.52077637 0.61016167 1.36592159 -0.84045717
O 22.19763418 6.19167645 2.54078394 0.52232263 1.09897345 0.10808983
O 9.63031825 2.99913637 2.41792388 -0.36838359 -0.37237715 0.45831368
O 22.23834424 3.00923332 2.48540869 -1.35002264 0.61654219 -1.04941820
O 8.28281195 0.00804076 8.21419577 0.26474900 -0.14066412 0.68326958
O 20.81374163 6.16106398 8.23851060 -1.41386873 -1.37982500 0.47638995
O 8.37889871 3.15894944 8.21209803 -0.11107007 -0.62393956 -0.32247713
O 20.77019844 3.10742920 8.28936126 1.11609489 -0.46444440 -0.35909935
O 7.62707349 1.58651765 3.25417338 -0.03566869 -0.04307472 -0.12736306
O 20.15560299 1.58817421 3.18187020 -0.83998416 -0.02073961 0.39881009
O 7.58945959 4.63060292 3.27490156 0.08056422 1.31817845 -0.57990848
O 20.16854461 4.65494973 3.27756509 0.48282645 0.53283362 0.06414192
O 6.21155796 1.53086055 8.89968457 -0.81109357 -0.37976401 -1.50810560
O 18.72137678 1.53242220 9.00259796 -0.52256246 -0.98006442 1.40040453
O 6.26559923 4.63675033 8.95781029 0.08460625 0.56655576 -1.23968052
O 18.70785672 4.56631027 8.90616937 -0.43202410 -1.11017035 -0.31263214
O 3.49606560 1.54484471 2.43653376 1.29994087 0.91221897 0.46752005
O 16.01163601 1.59852565 2.55765486 -0.69953125 1.58672949 0.32884171
O 3.48531454 4.64146112 2.50136834 -1.35910508 0.42964000 0.97458785
O 15.96155742 4.65894823 2.51854769 0.61765916 -0.47491644 -1.31790710
O 2.08780366 1.41808183 8.25944830 -0.07896950 -0.40579962 0.97675548
O 14.56057709 1.49501332 8.22921608 0.86036840 0.36798761 0.19871429
O 2.08502459 4.57770915 8.18440215 -0.77908086 1.23515568 -0.47609248
O 14.51346077 4.59583085 8.24075370 -0.64099049 0.99586539 -0.28631443
O 12.05508039 1.54181292 1.49988714 0.49887609 -0.67343875 -0.90746916
O 24.54977803 1.58310752 1.52764304 0.81669787 -0.14475596 0.07189516
O 12.11945672 4.65018234 1.50601346 -1.29468078 -0.53042973 -1.79619357
O 24.59803836 4.67292290 1.40900716 1.43855345 -1.13428983 -0.22641124
O 10.68565485 1.56325396 7.18007639 0.55628317 0.52259129 -0.63576368
O 23.28110533 1.53818841 7.13173889 0.25491333 -0.23704375 -0.84232377
O 10.69474633 4.66842476 7.17350436 -0.34688350 -0.17154476 0.85614144
O 23.18096445 4.63121212 7.19619786 0.04142878 -1.09839762 0.93112341
O -1.01215192 1.59307894 4.34214966 -1.18195472 -0.37419314 0.13827533
O 11.47642246 1.49021226 4.25170656 0.41009127 -0.88660828 1.13147085
O -0.93494680 4.63299587 4.26367115 -0.65463691 -0.43949987 -0.84536192
O 11.46425379 4.71025104 4.24436827 -0.97884175 0.50528552 0.76707748
O -2.36793609 1.50650366 9.93959991 -0.46597002 0.73747277 1.49046963
O 10.10936895 1.55508730 10.01357490 -0.45656713 -0.37384260 -1.16722275
O -2.44529154 4.59583154 9.95366804 -0.42513300 0.40545435 -0.29986684
O 10.11039104 4.59705272 9.97149995 -0.62208067 0.25155758 -0.71778993
O 5.81659263 6.17833003 1.44320256 -0.07209968 -0.66103800 -1.85391489
O 18.29867047 0.01511958 1.52313617 1.56863608 -0.51880975 0.21496419
O 5.86486994 3.14259001 1.51359312 -0.20501588 -0.17057746 0.46224699
O 18.32118039 3.16975322 1.48730384 -0.03457262 0.69472816 -0.59143189
O 4.41741055 6.15069463 7.20757257 -0.40910110 1.00479899 -0.15094492
O 16.97005878 -0.00768153 7.15760468 -0.66019410 0.74488221 -0.46981518
O 4.47266918 3.04619420 7.20295335 -0.10872691 -0.87745754 0.39218138
O 16.94583968 3.03150130 7.26586673 -0.77323462 0.07784842 0.18006958
O 5.26127404 6.13557226 4.26547891 0.76869928 -0.20645060 0.78458422
O 17.67449863 0.02142592 4.30042496 0.42097440 0.66937449 -1.75130359
O 5.37524178 3.10587333 4.23222116 0.35991549 1.67441003 0.21549145
O 17.75822288 3.15119818 4.27710176 0.16028760 0.77039261 0.01502472
O 3.89589721 6.20910574 10.00409552 0.40587402 0.53636751 0.26199989
O 16.30373992 -0.05397473 9.92789250 0.84610640 -0.01718364 -0.42812208
O 3.81705456 3.04781525 10.05732964 0.96439139 0.34369192 0.39556838
O 16.32345516 3.10044368 9.96896753 -0.76227871 -0.81089213 0.27826421
159
Lattice="24.672247 0.000000 0.000000 0.000000 6.108512 0.000000 -2.752234 0.000000 11.309577" Properties=species:S:1:pos:R:3:force:R:3 Energy=-627.441867 Virial="-53.310451 -1.650266 -2.355050 -1.650266 -47.393922 -6.059885 -2.355050 -6.059885 -41.525752" pbc="T T T" defect_vacancy
Ga 12.35494943 6.04437984 4.49795101 0.31338538 -1.07560651 -0.48863038
Ga 0.00395031 3.09250894 4.52318792 -0.20793556 0.65270645 0.00355196
Ga 12.39461027 3.06488076 4.45881953 -0.27777120 0.36313905 0.22790337
Ga -1.39899832 6.08312852 10.22887540 -0.87592427 0.49423143 -0.37257911
Ga 10.96376379 6.11333964 10.21576457 0.20744990 0.43024270 -0.79958433
Ga -1.35211695 3.02140108 10.17634190 1.00237145 -0.74692589 0.65468623
Ga 10.94792554 3.06114120 10.17092631 0.55096117 -0.07846125 0.94327400
Ga 10.92867121 0.01036356 1.22189280 -0.45692467 -1.03014780 -0.01545064
Ga 23.25501219 0.05895810 1.13656638 -0.71115096 0.00168469 0.18206157
Ga 11.01835948 3.01683089 1.15059570 1.25417691 -0.12208831 0.04956961
Ga 23.34316411 3.11379261 1.18951994 0.56398616 0.69620738 -0.12589734
Ga 9.52578182 6.11175857 6.81510908 0.76214669 -0.73957498 -0.45317669
Ga 21.87364604 0.02995113 6.78435747 -0.51291871 -0.19434407 0.44667881
Ga 9.51726403 2.98884731 6.88444137 0.05258148 0.82258083 -1.11549365
Ga 21.88588616 3.03555615 6.77595946 -0.41956086 0.65995723 -0.14450121
Ga 6.23622323 1.47285780 4.44812403 -0.25861199 -1.48147869 0.46862972
Ga 18.50935545 1.52493951 4.52096278 -0.83265074 0.39214115 -0.85710869
Ga 6.15276096 4.64239530 4.46865735 -0.39525356 1.25858543 -0.84335393
Ga 18.47828408 4.53760870 4.46263279 -0.69642407 -0.11327591 -1.48558472
Ga 4.75918594 1.54872492 10.11442314 0.02746833 0.08122989 -0.27229647
Ga 17.14136649 1.48020769 10.09749578 -0.63719257 -0.02095874 -0.57366474
Ga 4.85454225 4.64939283 10.20410878 -0.24786457 -0.60078723 0.41474912
Ga 17.08658952 4.52601251 10.22761627 -0.29562045 0.79681506 -0.72842335
Ga 4.76826017 1.46989027 1.20314925 -0.20352178 -0.50802332 0.30350098
Ga 17.10788152 1.55374650 1.07016607 0.91485512 0.64552839 1.21933706
Ga 4.76302782 4.61768367 1.13627346 0.43938150 -1.18184955 0.11072188
Ga 17.15849408 4.53123640 1.15909632 0.83923218 0.59550971 0.02335486
Ga 3.46754365 1.48430896 6.82383068 0.14559925 0.15084521 -1.44507405
Ga 15.76769352 1.52723229 6.80925208 -0.62991756 0.47538766 0.88215650
Ga 3.36362706 4.58789019 6.81508836 -0.60142049 -0.40116791 0.26008674
Ga 15.67799291 4.63006719 6.77643106 0.34239472 -0.11838208 -0.68580557
Ga 1.46546182 1.50704040 1.73791679 0.62184320 0.75912795 -1.16032194
Ga 13.85151523 1.47563914 1.79357261 -1.14977056 0.46214106 0.07361645
Ga 1.58094528 4.58744866 1.71734808 -0.70258838 -0.17827284 0.04696187
Ga 13.82293173 4.58380415 1.69740103 0.84362910 0.48352874 0.42780904
Ga 0.09681636 1.45779471 7.43502508 0.55004450 0.15444579 -0.02239004
Ga 12.56834091 1.47672798 7.46279397 -0.05659594 0.58461226 -0.45209280
Ga 0.12511599 4.52753802 7.48976755 -1.04434684 0.82186847 0.46747310
Ga 12.56958314 4.60032175 7.44487865 1.89103309 0.71926582 -0.28065470
Ga 9.43769686 1.52487846 3.89251558 -0.36452527 1.54363452 0.61239713
Ga 21.80342820 1.59534345 3.85904192 -1.14234263 -0.41793743 -0.09979362
Ga 9.44351690 4.57932970 3.91559101 0.89033371 -0.41306509 -1.80682409
Ga 21.87257468 4.62649652 3.91657055 0.51871121 -1.10212262 -0.29692748
Ga 8.09301392 1.57448081 9.62852300 -1.35602101 -0.36917459 -0.07547576
Ga 20.32667173 1.55641466 9.42601558 -1.45633414 -0.78268876 0.20418309
Ga 8.09639541 4.60281187 9.51212989 -0.37958128 0.62826333 -0.54510814
Ga 20.29234152 4.58352869 9.54431165 -0.90053167 -0.86585755 0.37317224
Ga 7.68594680 -0.02141417 1.73795190 0.79445113 0.19577270 0.58622500
Ga 20.02790362 -0.02585202 1.81228988 0.66922454 -1.02386400 -0.76299580
Ga 7.68849883 2.98578366 1.78509618 -0.05824911 0.19203066 0.08409593
Ga 20.03595660 3.12133991 1.81272984 -0.05565831 -0.41677072 0.03925362
Ga 6.28252483 0.05811145 7.37205792 0.11059101 -0.16664844 0.43426773
Ga 18.65157558 0.03252728 7.48796424 -0.18683541 -0.02303005 0.17043756
Ga 6.39430553 3.10739169 7.43390687 -0.45227500 1.25423202 -0.79091496
Ga 18.67206271 3.06730814 7.39799395 0.40511171 -1.05837204 -0.17287063
Ga 3.26747678 0.07497982 3.90938907 -0.70620968 -0.38058505 1.28486687
Ga 15.68702675 6.05999783 3.86636096 -0.28067215 0.23549588 -0.49569847
Ga 3.28347844 3.08737332 3.87772360 1.30375007 2.23628029 -0.87940938
Ga 15.64020408 3.08579607 3.81905225 -1.22194919 -0.63873154 0.88925102
Ga 1.92241651 0.04572055 9.54282175 -0.05876229 -1.63296965 -1.05808345
Ga 14.15588062 6.09612238 9.55657618 0.19749251 -0.07149637 1.06833759
Ga 1.86266669 3.08631840 9.55745822 0.15309874 -0.24460780 -0.51147781
Ga 14.23491790 3.05757523 9.54009588 -0.56417207 -0.82169265 -0.23245388
O 1.86192137 6.05701302 0.60001438 0.67606063 -0.53114777 -0.32155697
O 14.20744637 6.15851828 0.63465070 0.17617544 1.04721990 0.08026235
O 1.93114703 3.01275944 0.59581853 0.15307533 0.58962588 0.07461326
O 14.26767501 3.02717868 0.59067875 0.15999540 -0.23516469 0.97351920
O 0.46986702 0.08654187 6.24856469 0.20575577 -0.47570356 0.39119595
O 12.82883945 6.12058189 6.18637428 0.13201163 -1.16652444 0.15159960
O 0.49490097 3.03064490 6.30676908 -0.50897226 -0.18497153 0.53247211
O 12.88210826 3.03548756 6.25308411 0.74685226 0.57182501 0.13786123
O 9.20326853 -0.02572115 4.99044411 1.05151106 -0.78328723 1.16346979
O 21.49417585 -0.00066003 5.04954104 0.71289357 -0.43726358 -1.28481858
O 9.18621590 3.00240079 5.04164862 0.11078762 0.01061931 -0.73156942
O 21.38434896 3.06673318 5.01863076 -0.53639935 0.48165090 0.37245605
O 7.67901057 6.13385525 10.70363520 -0.07755816 0.42525555 -0.05846248
O 20.01244963 6.05126084 10.69529905 -1.07575916 -0.75623292 0.13245607
O 7.66138253 3.06036736 10.74748459 -0.18538395 0.22285321 0.52921269
O 20.09187846 3.01436379 10.70295657 -0.78996060 -1.00210627 0.26178989
O 7.97284944 1.52631666 0.59781280 0.00737700 0.22696457 0.20302501
O 20.32892688 1.55795335 0.53670492 2.68175405 0.12362338 0.11886815
O 7.98915285 4.54198580 0.59058565 -0.18189096 -0.41067015 -0.59961306
O 20.41416386 4.61154426 0.62311304 0.94137827 0.75311986 -0.94242838
O 6.65734773 1.52973453 6.31755577 -1.49502853 0.78480932 0.75800977
O 18.91898045 1.55142093 6.25155600 -0.19498808 0.13759245 0.05188935
O 6.67294441 4.60329755 6.30586353 -0.52939112 -0.80216355 0.25648076
O 19.05541889 4.52984678 6.30579937 0.79204051 0.18405046 0.92057087
O 2.92932839 1.50120427 5.11743164 0.19586354 -0.55996917 0.39018789
O 15.29401312 1.51835457 5.08173444 -0.18562918 -0.55461099 0.55097147
O 2.93939954 4.56005158 5.01571594 0.52643485 -0.58739056 -0.42670689
O 15.27892057 4.54567885 5.03301817 -0.02161251 -1.22790599 -0.27931131
O 1.58484924 1.52220886 10.77076599 -0.82050466 -0.07965322 -0.74979123
O 13.88828431 1.58485890 10.73041149 0.42723459 -1.54772119 1.52965150
O 1.61638604 4.65250149 10.62335979 -1.60153964 1.35944922 -0.04197674
O 13.89916401 4.58406204 10.69577742 -0.51490653 2.20428960 -0.25468338
O 1.34626696 6.08590278 3.15377818 0.16771979 -0.96956991 -0.48015823
O 13.69863823 0.03893369 3.17421476 -0.38540753 0.49942693 0.33527238
O 1.34977457 3.02036712 3.16210339 1.06914749 -0.07097823 -0.18579313
O 13.71028825 3.05796234 3.24056613 -1.47510354 0.80186171 -0.76191152
O -0.05720172 0.00074354 8.90569617 -0.92348832 1.43442632 -0.60459383
O 12.28332899 0.05325298 8.82658776 -1.05306588 -0.57142519 -0.53236017
O 0.01831266 3.05321056 8.85771727 -0.53838532 0.52076040 -0.11028913
O 12.39214318 3.04442282 8.88307592 1.12576982 0.36654409 0.52172415
O 9.60588322 6.06251748 2.44853729 -1.47295931 -0.62683621 0.13768805
O 21.90187937 6.04823030 2.48648423 -0.33150692 -0.12348036 -0.13407814
O 9.61988096 3.08165629 2.50629890 0.50052971 -0.06768891 -0.36124408
O 21.96440789 3.02720629 2.43939583 -0.61953485 0.39287872 0.50710046
O 8.24970351 0.01739884 8.11730609 0.14381631 -0.39673881 -0.41112330
O 20.51098401 6.07926920 8.13180402 1.07269820 0.37293408 -0.14713123
O 8.13923727 2.97624928 8.15240269 0.11194850 0.24018739 0.41763140
O 20.52569223 3.07994260 8.17168715 0.50001515 -1.64016546 -0.67472315
O 7.49415334 1.46694318 3.17183579 0.23086017 0.19932353 -0.54259531
O 19.84798651 1.51719947 3.21598845 0.46496632 -0.00572495 -0.02094125
O 7.54654662 4.57320177 3.22804760 -0.73593338 0.82508376 1.05674882
O 19.89697281 4.59183722 3.22293420 0.01565189 0.62775715 -0.57425652
O 6.08942721 1.58709050 8.84280747 -0.21585774 -1.08898700 -0.74135266
O 18.44681606 1.51046238 8.89291929 0.14611803 -0.97862821 0.82492473
O 6.13502956 4.59358313 8.87967295 0.84367910 -0.00848026 0.71868649
O 18.49360461 4.54543472 8.83997714 -0.52075170 -0.64234300 -1.26473544
O 3.36529669 1.51162815 2.41388062 0.31293809 -0.20215682 1.51891241
O 15.75737219 1.46086212 2.48171907 1.08673982 0.22481899 -0.03135761
O 3.47069727 4.62047435 2.42153028 0.39021736 -0.99769577 0.18723080
O 15.73069522 4.61049813 2.48755834 1.45576967 -0.09056242 -0.62722925
O 2.01938830 1.51050858 8.11492838 0.52849172 -0.24974098 0.12170582
O 14.29896069 1.55112899 8.16275676 0.04970238 -0.19263580 0.08132021
O 2.03167696 4.52627711 8.16488736 -0.14379854 0.99061475 -0.95882816
O 14.38610537 4.60570557 8.06327426 1.39874528 -0.03155901 1.82586772
O 11.87759928 1.53558995 1.49326713 0.23628763 0.14570165 1.09686847
O 24.21758033 1.52870504 1.39169315 -0.43982418 -1.10435790 -1.00217120
O 11.90780617 4.55858746 1.47315131 0.41127541 -0.02285882 1.06825856
O 24.19343830 4.63430852 1.43109587 -0.06889210 -0.29555398 2.07777131
O 10.60797946 1.55634219 7.12816888 0.74404359 -0.83792680 0.66699312
O 22.97461178 1.49542802 7.11921244 -0.23552687 0.68875444 1.00732536
O 10.52043412 4.57377328 7.14791132 -0.05833305 -1.56652968 0.38213344
O 22.94029827 4.56143351 7.06120062 0.54759980 -0.32414140 -0.96275589
O -0.97304611 1.49592022 4.17961292 -0.71883129 -1.08893535 -0.79318994
O 11.39426475 1.54280345 4.24968006 -0.33255607 0.38647371 0.02980482
O -0.99243516 4.62614533 4.19695043 -0.16260363 -0.11386737 -0.05067747
O 11.34688759 4.53747122 4.11985295 0.62955991 0.64611649 -0.18341842
O -2.41100750 1.52790083 9.81539377 -0.12115593 0.01088264 -0.71098263
O 9.91844763 1.51493362 9.86661564 -2.08998020 1.42385328 0.76321768
O -2.33171899 4.57530196 9.85505774 0.41793384 0.68814160 0.18566330
O 9.95884352 4.61007411 9.84465167 0.67772984 0.15189226 -1.33866542
O 5.76690129 6.14865028 1.48760008 -0.63480668 0.52141030 1.13595194
O 18.10451900 -0.00941176 1.44690350 -0.61873859 1.12985825 -0.00803106
O 5.67922028 3.10357314 1.41885590 -1.08313668 0.18872817 -0.33675168
O 18.13471084 3.05823446 1.49467280 1.60503053 0.32088505 0.23192908
O 4.42138268 6.13738846 7.08862756 1.22874852 1.16357265 -0.17912203
O 16.67360042 0.00735539 7.03059735 -0.40188607 0.10555070 0.57876919
O 4.36730771 3.00499662 7.06811843 -0.00244990 0.11800278 0.90709235
O 16.75800592 3.06817285 7.09915413 1.21934805 -0.04191540 -0.62335961
O 5.20822692 6.08477678 4.30777867 -0.38633590 -0.30063772 0.51507399
O 17.53589462 -0.01671708 4.24814091 -0.01947584 -0.36661476 0.56254648
O 5.25151429 3.03255733 4.14907251 0.75768609 -0.77524219 0.93102128
O 17.48121654 3.02845684 4.20215025 0.54209405 -0.28399320 -0.31327362
O 3.74956781 6.08542025 9.85182616 0.08411960 0.39103496 0.30321801
O 16.17011185 0.02869583 9.88333864 -0.18405357 0.46721629 -0.82934419
O 3.88875482 3.09657631 9.86813172 -1.19897794 1.48294161 -0.34810989
O 16.11031386 3.03106474 9.79794143 -0.45461861 0.54027695 -1.02168092
159
Lattice="24.768483 0.000000 0.000000 0.000000 6.132339 0.000000 -2.762969 0.000000 11.353691" Properties=species:S:1:pos:R:3:force:R:3 Energy=-628.203024 Virial="-55.019135 0.599136 -0.504762 0.599136 -52.054830 -2.632375 -0.504762 -2.632375 -40.163009" pbc="T T T" defect_vacancy
Ga 12.44032559 6.11286185 4.53868432 -0.30818056 -0.92152102 1.39954843
Ga -0.01266114 3.02867197 4.51828205 0.93918786 -1.47180445 1.37034957
Ga 12.37121589 3.15185543 4.46346512 0.93662074 0.41569284 -0.92152433
Ga -1.30669666 6.06212424 10.21833625 0.48793283 0.08629901 -0.41728834
Ga 11.06356186 6.14734263 10.23179334 -0.64631865 -1.06586384 0.38058570
Ga -1.35224607 3.07155463 10.19531668 -0.66995440 -1.03012907 0.84797689
Ga 10.97964364 3.05275640 10.18918353 0.12992317 0.65796928 -0.17880834
Ga 10.91080381 0.00492374 1.20303286 0.79419685 0.50990762 -0.05862051
Ga 23.40982011 -0.06082510 1.14006840 0.37784390 -0.61837220 0.48418229
Ga 11.02878630 3.01194665 1.21197374 0.85673936 0.53857628 0.94584557
Ga 23.33434035 3.06376057 1.09022843 0.08488878 0.17716672 -1.46876280
Ga 9.67057935 6.06467720 6.82209392 0.03134217 -0.11413496 -0.96023703
Ga 21.98971792 -0.05270584 6.84866229 -3.09967790 -0.25586578 0.95646444
Ga 9.62438957 3.04247732 6.87745472 -0.45475522 0.10344402 -0.65794208
Ga 21.95499715 3.04686059 6.79219689 -0.07634394 1.12438371 0.12749629
Ga 6.18810083 1.56886158 4.50330415 -0.44467599 0.47871596 0.83016726
Ga 18.56089068 1.49272887 4.50841260 0.82901034 -0.32689375 -0.60441085
Ga 6.22139661 4.63071452 4.56112558 0.40307920 -0.26464058 0.47852134
Ga 18.63691257 4.63941371 4.50236139 0.34551892 -0.29970747 -0.74024874
Ga 4.82410467 1.55042554 10.21068520 1.41156243 -0.44307647 0.56492349
Ga 17.24553885 1.42708370 10.19373609 -1.05392165 0.05404661 -0.33754628
Ga 4.79881843 4.60410376 10.22366273 -0.10045212 -1.49636953 -0.69125657
Ga 17.14529606 4.64145268 10.17227645 0.22887081 -0.51536320 -0.38087870
Ga 4.74683623 1.45518766 1.23599542 0.59539948 0.23726693 0.37103583
Ga 17.13765715 1.53541635 1.17413224 -0.56265632 -0.51791970 0.76661430
Ga 4.77637367 4.52017141 1.17315486 -0.06851214 -1.02557701 -0.10259119
Ga 17.22476442 4.58522895 1.20331913 0.41770338 -0.06248221 0.56742583
Ga 3.47601263 1.45600172 6.89467969 0.00344673 -0.02656659 -0.11672872
Ga 15.87239407 1.54553903 6.86603503 1.02135964 0.31288525 0.73328326
Ga 3.49708033 4.60928821 6.92907757 0.36263316 1.42955227 0.88289596
Ga 15.83567430 4.56551730 6.81441107 0.11791968 -1.28126734 -0.33844681
Ga 1.55856170 1.49225285 1.83026345 1.36473346 -1.01269659 0.35776918
Ga 13.94484242 1.55011480 1.71290234 -0.01859377 -0.03374580 0.59547287
Ga 1.54706679 4.59039704 1.79300100 -0.83601734 -0.98427219 -0.30279338
Ga 13.89797226 4.54179285 1.77768371 -0.12504737 0.76207623 0.51939937
Ga 0.12305671 1.45650899 7.53407513 0.40035660 1.53675664 0.23682214
Ga 12.50665225 1.50330621 7.43009243 -0.25253138 0.67149343 -1.15023709
Ga 0.15528630 4.60397432 7.41671704 0.62575215 0.43762786 -0.03379479
Ga 12.47445552 4.65172625 7.40249573 -0.37846638 0.23893675 -0.78249198
Ga 9.45910353 1.56656628 3.85070859 -0.24181923 -0.06674671 -0.10072396
Ga 21.87117640 1.51080160 3.87274178 -0.94428504 0.70362415 -0.11336668
Ga 9.46870889 4.65196805 3.81967849 -0.21691397 -0.42557147 0.12604143
Ga 21.89301276 4.67607250 3.91599252 1.12531332 -0.72026148 0.40196674
Ga 8.09626266 1.56478869 9.56106773 -0.58735688 0.23234485 0.25014921
Ga 20.34233739 1.62048984 9.51474039 0.18694825 -0.40575874 1.65053847
Ga 8.10135047 4.58457005 9.56161293 0.57830192 0.82528494 -1.08405158
Ga 20.46385890 4.64865407 9.58011523 -0.33651334 -0.63841343 0.50570879
Ga 7.72066925 -0.00794841 1.76856034 1.03093341 -1.83810195 -0.11235928
Ga 20.14486259 -0.00617829 1.75173398 -1.06617956 1.62158045 -0.93927772
Ga 7.70690152 3.04729357 1.74522867 0.51714323 0.81925476 -1.06092938
Ga 20.16519835 3.04941951 1.77158504 -0.27483590 -0.73126946 -1.24076598
Ga 6.30937287 -0.01321592 7.48780827 -0.31475032 0.30548436 0.78200262
Ga 18.73335605 -0.00575517 7.43919204 -0.15961672 -0.51122850 -1.94231996
Ga 6.36383862 3.03295293 7.44679979 -0.13265849 -0.03328042 0.32321736
Ga 18.71580795 3.07907788 7.51982329 -0.34088287 0.45798732 -0.20854124
Ga 3.24545105 -0.01683270 3.94193955 0.63512392 -0.28649938 0.26274090
Ga 15.68524735 6.12635537 3.90361127 -1.32430200 0.61748899 -0.49272474
Ga 3.28266654 3.08343052 3.90288339 -0.50244821 -0.07394943 0.75395641
Ga 15.69076402 3.12270177 3.95864436 -0.09832823 0.53024027 0.43041269
Ga 1.85189724 0.07224480 9.61515903 -0.26961307 1.27296251 0.76056325
Ga 14.26772162 6.16224147 9.64864124 -0.01272172 0.97547463 0.53901482
Ga 1.87471852 3.04787970 9.59446696 0.53816479 -1.08402897 1.32578213
Ga 14.30651395 3.07498834 9.57159250 0.54362201 0.81406850 0.64590175
O 1.86409439 6.17292496 0.61971030 0.19984320 -0.33867078 0.86611873
O 14.24656140 6.15422549 0.59756715 0.88415244 0.93107671 -0.36836973
O 1.92800139 3.12737260 0.69084461 0.83342593 0.14031700 -0.53205921
O 14.25505956 3.09435335 0.64024026 -0.40089756 -0.33584342 -0.09249972
O 0.51063007 -0.01115844 6.29758131 0.61917480 0.17581432 -0.63003207
O 12.90720004 6.18123191 6.25107246 1.15988445 0.73501297 -0.70809614
O 0.50918107 3.10781018 6.36554877 -1.16369994 1.68089574 -0.01497436
O 12.90101294 3.04787929 6.30994803 0.25884714 -0.84254747 -1.21645805
O 9.13447105 -0.07371995 5.05963713 -0.19433052 -0.38644849 -0.22886953
O 21.52508458 0.00206515 5.10314431 -1.23977254 0.17536626 0.50855679
O 9.12389051 3.08719569 5.09445984 -0.54299111 0.10207976 -1.34119859
O 21.50786898 3.06921410 4.99642617 -1.20406116 -0.47081426 -0.70413270
O 7.73999971 6.12635633 10.71303542 0.53409683 0.57022430 -0.84675651
O 20.08918404 6.17973841 10.71506723 -0.03966114 -1.99829105 -0.29116615
O 7.71181220 3.07162096 10.74010901 -1.22976489 -0.01075516 -0.82137219
O 20.08616570 3.04724495 10.76571610 0.43208974 0.70806182 -0.82348678
O 8.11544954 1.49408347 0.58057954 -1.04872026 0.17189524 0.05454399
O 20.45327106 1.53682740 0.61503664 0.67045889 -1.49459489 0.40336550
O 8.06423122 4.65474669 0.61832266 0.09853590 0.80810686 0.80343811
O 20.49097522 4.61197515 0.65620483 0.32930302 -0.24086223 1.88708899
O 6.70203000 1.50368639 6.27280553 0.73848349 1.16387636 -0.96285334
O 19.11869257 1.53851176 6.27150017 0.10695596 -0.36994979 0.27111343
O 6.64873408 4.54035783 6.21730452 -0.48321130 -0.61762319 0.41015172
O 18.99145433 4.64017211 6.26769406 0.04735360 0.14606615 0.50180975
O 2.95521275 1.55999011 4.96075432 0.60744653 -0.92676837 -0.27935963
O 15.33888559 1.51109183 5.10397166 0.65078069 0.73274864 1.25806468
O 2.97322573 4.58775248 5.07096583 -1.18349190 -0.56238998 1.07537772
O 15.32775470 4.57693212 5.04644845 0.15128806 -0.05549854 -0.80392423
O 1.56267079 1.55686536 10.73847096 0.46991977 -1.01112821 0.07934207
O 13.93623674 1.54427580 10.68895159 1.60290743 0.13603745 -1.03777751
O 1.63446625 4.60766307 10.71583746 0.16921190 -0.40725620 0.91662529
O 13.95380708 4.60551683 10.77120658 0.71078163 -0.60481304 0.89637311
O 1.31960653 6.18976648 3.25434895 0.47290815 -0.20571614 1.00857623
O 13.77973911 -0.00643724 3.17448460 -0.67783250 -1.63506746 0.62562316
O 1.45701124 2.98105113 3.20497494 -0.26993992 -1.16568758 0.61372155
O 13.82169953 3.06130033 3.20600909 0.12894926 -0.73054249 -0.46078096
O 0.04503530 -0.03067098 8.81603767 -0.60105219 -0.07061905 -0.50898115
O 12.43554496 -0.00795464 8.90111989 -1.33873946 -1.46738019 -0.63514471
O -0.01402678 3.04938062 8.78090466 0.72312869 0.32048210 -0.20847884
O 12.34449445 3.07213157 8.84984247 0.47621856 0.63814192 1.34888467
O 9.70678779 6.10367788 2.49761708 0.20718989 -1.07210089 -0.23290761
O 22.03137153 6.12574143 2.52140675 -0.94870307 -0.85232767 0.12113304
O 9.61757038 3.08526558 2.43940649 0.48193086 0.18932812 0.72111426
O 21.95942885 3.07273933 2.47811313 0.44139681 0.38078620 -2.10965625
O 8.18068018 0.03014567 8.17151482 -0.80554574 0.35288347 -0.21984712
O 20.64945034 6.20288364 8.13164718 -0.17502708 -1.03965085 0.00491547
O 8.27398929 3.05494778 8.20784444 -0.22532409 -0.54239628 0.79602152
O 20.59910310 3.02574837 8.10425508 0.46858244 -1.14118864 0.53857905
O 7.56520597 1.53931783 3.18113213 0.17484449 1.12887598 0.56863115
O 20.00790000 1.54912522 3.29462563 -0.11669358 -0.35386784 -1.02350060
O 7.62606052 4.53675454 3.18458271 0.21823654 0.16523758 0.25496831
O 19.92423204 4.62333837 3.22851810 -0.16617343 -1.63212795 0.53760937
O 6.15384666 1.51720198 8.91059410 -0.60065616 0.12853647 -0.76312748
O 18.54773045 1.48369801 8.87577940 0.48850845 0.15904870 -0.26954251
O 6.17951430 4.56981278 8.89785591 1.26861853 0.20587405 0.39784128
O 18.55774424 4.54576026 8.85903387 -1.17203718 0.87766717 0.00836663
O 3.41868342 1.55755372 2.46740031 0.93547944 0.55838573 -0.87003299
O 15.83744712 1.51072361 2.51770928 -0.48238528 -0.29288562 -1.21950937
O 3.54174231 4.59946492 2.48776866 0.09241449 1.24259365 0.18055286
O 15.79374772 4.61637236 2.55594693 -0.35471478 -1.57820809 0.56398973
O 2.03348822 1.50716072 8.10520507 1.60716745 0.40220756 0.66349206
O 14.39313532 1.46549923 8.10343658 -0.84741037 -0.70123754 0.23605440
O 1.99674641 4.56933587 8.18545484 0.88451905 2.36139340 1.07123082
O 14.41800647 4.55086490 8.10567023 -0.65369805 0.26636013 -0.63170036
O 11.97329284 1.50686353 1.46611073 0.27428898 1.10175538 0.92285072
O 24.40976720 1.51948613 1.39183282 0.91453805 -0.28319608 -0.07456476
O 11.95435031 4.61942851 1.34786054 0.13366507 1.00504523 -1.68097492
O 24.32389417 4.56491504 1.42766312 -0.92577594 0.29500406 0.54131328
O 10.61207447 1.54895945 7.13738255 1.18604704 -0.62111797 -0.59559874
O 22.95684753 1.56373423 7.10275757 0.94250100 -1.38461000 -1.05012479
O 10.63478090 4.64058988 7.06445716 -1.45900311 0.00767086 -1.22018913
O 22.92300092 4.66095971 7.07953692 0.46705480 0.12984581 -0.48165719
O -0.97494261 1.56099245 4.22440895 -0.87544811 -0.02268758 0.17139083
O 11.39412949 1.50932486 4.28866266 0.65746374 1.04367688 1.28709347
O -0.98534888 4.58665185 4.22304253 -0.79499571 1.61071907 -0.97200175
O 11.41012171 4.64933791 4.22381241 -0.90541655 0.86556671 0.87724731
O -2.35684282 1.49617358 9.91848992 1.11238329 1.14703293 0.15149120
O 9.97829755 1.49967047 9.78282675 0.81657722 -0.84422644 -0.23154756
O -2.29042813 4.62791360 9.84161006 -0.83269446 1.92738555 -1.25682733
O 9.97765919 4.54314303 9.89705764 -1.53001112 -0.56333256 0.59336703
O 5.81476078 6.11385167 1.45111675 -0.15231262 0.40472851 -0.95755095
O 18.10749188 -0.01234697 1.52374187 -2.26433216 0.67473304 2.23456530
O 5.74198053 3.07347592 1.48885050 0.52342337 0.82357039 -0.32547839
O 18.18705456 3.10666582 1.47433652 -1.26677785 -0.62791441 -1.42087574
O 4.53102720 6.14365258 7.02566641 -0.41562376 0.71862551 0.35848872
O 16.74498571 -0.04653099 7.03399751 -0.18997670 -0.07371738 -1.44173125
O 4.41132582 3.09823454 7.18761427 -1.93913623 1.04307766 0.31921731
O 16.79055720 3.09367504 7.12187312 -0.53154161 0.26736592 0.09994937
O 5.25415412 6.19684701 4.24937018 1.01207880 0.45164313 -0.10506220
O 17.65919665 0.08203548 4.22162852 1.31685088 -0.63266609 -0.66134273
O 5.20710324 3.08829707 4.21165183 0.62357524 0.19830800 0.15332431
O 17.64024805 3.10514839 4.22110270 0.71084477 -0.50623706 -0.95768601
O 3.80845858 6.12225023 9.93431156 -0.34107829 -0.49430645 1.29669851
O 16.24659129 0.03655228 9.89832648 -0.55813394 1.31934853 -0.18493242
O 3.81556815 3.05577320 9.92036129 0.02291838 -0.17893146 -0.14635099
O 16.23548482 3.06806942 9.87371648 -0.50322522 0.78645972 1.30874513
159
Lattice="24.442782 0.000000 0.000000 0.000000 6.051699 0.000000 -2.726636 0.000000 11.204392" Properties=species:S:1:pos:R:3:force:R:3 Energy=-628.670014 Virial="-54.089472 1.689502 -1.062922 1.689502 -47.608653 -7.548258 -1.062922 -7.548258 -41.293807" pbc="T T T" defect_vacancy
Ga 12.19827107 6.08518425 4.40606898 0.15195615 0.14423730 -0.94344707
Ga -0.01484377 2.98195224 4.47245184 0.46280824 -0.25886422 0.75838829
Ga 12.23987038 3.06354219 4.41995674 1.05090965 -1.30455717 1.03023337
Ga -1.39501775 6.02982667 10.04741259 -0.54442161 -0.82852869 -0.21949708
Ga 10.88003379 5.98280604 10.07972303 0.23970810 0.80867420 2.22433662
Ga -1.38540091 2.99707140 10.09971036 -1.17036485 -0.29162224 0.26737888
Ga 10.77575592 3.03411363 10.06878483 -0.42544530 -1.37395975 -0.21577736
Ga 10.81386583 -0.01499852 1.19596384 -0.02123441 0.31575634 -0.34708833
Ga 23.14207379 0.04881301 1.22483079 1.08042353 0.17648110 0.60193570
Ga 10.81681742 2.95947062 1.15339741 -0.82342565 -2.03959993 0.59086871
Ga 23.09848582 2.94913088 1.10896592 0.28989371 0.56124572 0.08944828
Ga 9.44744282 6.06591289 6.76078034 -0.24106114 -0.18713755 0.78909160
Ga 21.67311752 0.00925077 6.70624601 -0.59038935 -0.21442441 -0.04675805
Ga 9.46283501 2.97468962 6.74654818 0.27602036 1.77516703 -0.44258641
Ga 21.67054594 3.05433701 6.75273540 2.03127963 0.14200014 -0.00445030
Ga 6.11494532 1.58458096 4.46980309 -0.33628625 0.74949857 1.32631562
Ga 18.33523609 1.48826202 4.40556820 -0.69588290 -0.06372326 -0.21698573
Ga 6.11967421 4.55032434 4.37702419 -0.41921662 -0.77413657 0.33440930
Ga 18.29183516 4.51850286 4.40786852 0.62404523 0.26504403 -0.41578148
Ga 4.76296032 1.51185022 10.05512281 0.21149228 0.81178697 0.36136220
Ga 17.00921362 1.48384346 10.04828917 0.82579869 -0.11289680 0.65610350
Ga 4.72541015 4.55402110 10.06195366 0.56938377 -0.42170456 -0.10138266
Ga 16.93804006 4.53052362 10.05258211 -0.50373536 0.15556609 -0.11949153
Ga 4.74523205 1.52342463 1.12022503 0.08965243 0.02044382 -0.45840939
Ga 16.97664482 1.53765006 1.11991286 0.43609539 -0.85789416 -0.00263704
Ga 4.68595092 4.51121159 1.09221587 -1.80686488 -0.78366236 0.54800008
Ga 16.95829090 4.58861630 1.20963929 -0.17466047 0.24197062 -0.77470389
Ga 3.32653513 1.54758251 6.75298747 -1.19687537 -0.84778818 -0.03333220
Ga 15.50202188 1.49611020 6.73808408 -0.32091762 1.40378319 1.47515531
Ga 3.41550303 4.50259352 6.77829517 0.69268715 -0.64883436 0.07513724
Ga 15.58481339 4.48558808 6.72738280 -0.35965780 -0.42131835 -0.28862990
Ga 1.56898548 1.50969499 1.79336462 0.02071264 -0.21319967 -0.07397103
Ga 13.76696470 1.49322021 1.70780235 -1.46317992 -0.43214639 0.50038222
Ga 1.46544068 4.59865448 1.76467946 0.43236171 -1.03772102 0.16368609
Ga 13.66120752 4.56576194 1.68808667 0.03217851 -1.00443000 0.05926235
Ga 0.11172362 1.51277548 7.46211803 0.35406755 -0.04126137 1.33645588
Ga 12.39840608 1.49366845 7.36216920 -0.48076489 0.17384484 0.32595542
Ga 0.18308599 4.59461988 7.34821999 0.36306792 -0.38710337 0.35802684
Ga 12.35834457 4.50801315 7.38787821 0.23535954 1.84282314 1.00861921
Ga 9.38849262 1.43902361 3.82696430 -0.02440764 1.07935322 -0.79122610
Ga 21.52531399 1.52062738 3.79434785 0.20207087 1.28161109 -1.52133338
Ga 9.29783359 4.58518551 3.83196871 0.84099079 0.41027551 -0.53518969
Ga 21.57164181 4.55878635 3.88734438 0.67256398 -0.95725762 0.69798311
Ga 7.96502376 1.49375934 9.42761043 -0.01740600 0.78863674 -0.96546307
Ga 20.24767193 1.51545305 9.42899294 0.46398663 0.65428861 -0.83327034
Ga 7.99903038 4.61141699 9.44830313 1.28209509 -0.90105077 1.66779373
Ga 20.19864227 4.61918988 9.49990589 1.60241563 -0.65084580 1.29640076
Ga 7.66435736 -0.01661654 1.73333286 0.27479346 0.29310962 0.25408106
Ga 19.77031972 0.04476184 1.76644360 -1.38582081 -0.01456000 -0.24510029
Ga 7.54807513 3.07443326 1.74799758 0.44403841 -1.75903661 -0.04151587
Ga 19.82463505 2.96767347 1.77877818 0.80855087 -0.53621769 0.41364968
Ga 6.27977820 -0.00085114 7.34169010 0.45149367 -0.20048946 0.20088622
Ga 18.58204878 -0.04579214 7.33165967 0.67795737 -1.22370676 0.47422229
Ga 6.28831212 2.98739901 7.32665318 -0.23860269 0.01790289 -0.39795238
Ga 18.52069238 3.05409557 7.37666776 -0.45061989 0.56019139 0.29930741
Ga 3.24894254 -0.02464766 3.83731681 -0.25361094 -1.30185925 0.26041626
Ga 15.45635771 6.08038260 3.86255645 0.39939306 1.58814078 -0.58336114
Ga 3.19937080 3.06082269 3.77914643 0.14474774 -0.19841077 -2.16062552
Ga 15.45020298 2.97999131 3.80424953 -0.57678999 0.34635715 -0.56647058
Ga 1.95174313 -0.05606293 9.40956478 1.32564783 0.41061652 -0.29988028
Ga 14.11755363 6.03159564 9.45656270 0.84646247 -0.28003705 0.79791907
Ga 1.93683104 3.04740847 9.42090943 0.23286914 0.40829315 -0.50917632
Ga 14.09184759 3.04967132 9.46912395 0.06400568 0.31175722 0.13622444
O 1.84559552 6.06604530 0.62594150 0.52027541 1.42433161 -0.15726888
O 14.06874864 6.02081501 0.63102764 -0.57287766 0.58454017 -0.41783631
O 1.86651320 2.95717556 0.57135827 1.21496808 -0.32095613 -0.66602222
O 14.03356857 3.02042143 0.66357621 0.28658433 -0.85438590 -0.37909204
O 0.60435914 -0.09258954 6.22923720 0.60759810 -1.42717924 0.17419121
O 12.69021607 6.04090220 6.22697749 -0.38025540 0.00089749 0.72894201
O 0.49691094 3.00991229 6.22241591 0.28616914 0.48994897 -0.43435407
O 12.71564482 3.03936856 6.21612792 1.10148297 0.36043496 -1.55111073
O 8.99455902 0.11548074 5.01163138 1.02939027 -1.00631211 0.91781243
O 21.27017702 -0.01895949 4.99893327 -0.75826070 0.39521392 0.84834427
O 9.01961358 2.95359614 4.97383803 -0.18230316 0.28874479 0.46437284
O 21.20504854 3.00091006 4.95107575 -1.42363138 1.49002505 -0.17563337
O 7.65582719 6.10368289 10.60889607 0.37100667 0.11453762 0.69873799
O 19.82867231 6.00091651 10.57251017 0.06434363 -0.97178661 0.65849247
O 7.59971284 3.03506790 10.64856744 -1.82108221 0.72147707 -1.41810883
O 19.85554317 3.01407512 10.57538356 0.89078512 0.48611520 0.01238684
O 7.92311013 1.51430351 0.57867300 -0.36476949 0.01015337 -0.69122515
O 20.14870871 1.45397529 0.61266011 0.51716996 0.38748192 0.73839877
O 8.00452134 4.57026216 0.66477714 -0.71485200 -0.49922808 -0.46398192
O 20.14583083 4.57279709 0.56903915 -1.58741331 -1.07361970 0.24391188
O 6.62149637 1.58174060 6.22437184 1.00604350 -0.38459479 -0.67896781
O 18.88144867 1.48246734 6.20818276 1.17350966 -1.46558338 0.72369778
O 6.55432273 4.54175396 6.22894567 -1.38489115 0.37281860 -0.07051423
O 18.81647828 4.52308267 6.18767980 0.47829561 0.17389346 -0.35573895
O 2.91842139 1.49913360 4.94317087 -0.19610949 -0.41429069 0.79520891
O 15.04806411 1.49694652 4.94124458 -0.82320655 0.82187958 -0.24272987
O 2.88046401 4.51786288 4.98724123 -0.96159526 1.05207473 -0.97738590
O 15.09810924 4.61537623 4.92960504 -0.93360905 -0.05155944 0.12577350
O 1.58332717 1.49716947 10.56596649 0.86449695 0.86205372 -0.49842994
O 13.78209578 1.49854412 10.55964590 -0.10362774 -0.30239032 -1.50194044
O 1.61250060 4.44330191 10.58456032 -0.24076567 -1.55134846 -0.18992758
O 13.76698953 4.60218192 10.57594805 -0.85828114 -0.58355891 0.31515394
O 1.45593475 6.08120158 3.07332914 0.25889721 0.92029474 -1.30829340
O 13.50922740 0.01103580 3.11850242 0.18183852 0.88531256 -1.09957657
O 1.37215239 3.00179016 3.12425724 -0.93885224 -0.53899771 0.14359760
O 13.55354979 3.04999727 3.07968296 -0.97477234 0.51706332 -0.72092918
O 0.03238192 0.04492218 8.76292514 -2.64860704 0.15723305 -0.13787958
O 12.15962493 0.02478297 8.74243641 0.04138424 1.17635082 -0.35715843
O -0.07065127 3.10982127 8.72178011 -0.43401612 0.08836332 -0.89069452
O 12.15424079 3.03232154 8.75825554 -0.34208317 -0.52426213 0.12859767
O 9.56510775 6.02206049 2.41673570 -0.51663609 -0.52611157 -1.12709964
O 21.71983644 6.05590648 2.45436939 1.23287023 0.23640355 0.50669235
O 9.51521507 3.02738654 2.40967002 0.94898203 0.64347628 -0.15299143
O 21.75563250 3.00855253 2.46434507 -0.06410728 2.14465930 -0.81908944
O 8.19524920 -0.02530795 8.13869668 -0.40263841 0.72020816 0.27455176
O 20.32638014 6.01554459 8.05467811 0.82130399 -1.33629705 -0.86062752
O 8.15850878 3.04416949 8.08183402 0.01183376 -0.99991130 1.50029182
O 20.36603862 3.11536003 8.03107688 -0.39414104 -0.69033098 -0.16526545
O 7.43041984 1.49739409 3.17214213 0.36021240 1.34903829 0.29834798
O 19.70996527 1.51235270 3.13077680 -0.26174017 0.44904386 0.53791769
O 7.50775952 4.60631539 3.15726141 -0.08659777 1.36989671 -0.27141974
O 19.75776639 4.59096949 3.25653311 -0.97272357 0.60866438 0.60611453
O 6.11294772 1.53563965 8.79338149 -1.39051890 0.16716280 -1.13289343
O 18.30548822 1.52920953 8.82232356 -0.33738094 -0.19622890 -0.57543105
O 6.14117181 4.53335095 8.77027986 0.17007919 -0.06618984 -0.43901185
O 18.35094315 4.56639977 8.79029571 -0.23722294 0.41164889 -0.42212148
O 3.40342659 1.48395188 2.40870143 0.04612542 0.31397497 0.66947658
O 15.63112607 1.53083402 2.48340952 -1.56602846 0.48008614 -1.29627260
O 3.36651597 4.52407307 2.40139203 0.56086400 0.76642205 0.73731324
O 15.55513056 4.53708391 2.49084919 0.16000274 -0.86249804 0.04425812
O 2.02897829 1.59206329 8.02963120 -0.55620256 0.98689534 0.48352578
O 14.23987132 1.47624462 8.03002921 0.74190910 0.00344149 -0.97629982
O 1.98060350 4.47860768 7.98605341 0.25681412 0.28203079 1.45074189
O 14.24702261 4.50530724 8.02064054 0.51956470 0.47791408 -0.95288486
O 11.83573541 1.44294545 1.44190009 -0.25410102 -1.08775155 1.96444281
O 24.07101675 1.55590389 1.46231080 2.09202435 0.72787486 0.88871688
O 11.82277156 4.50142602 1.43678552 0.28565658 0.21212387 -1.03324304
O 24.11801297 4.54980498 1.42026917 0.48752209 -0.29499082 1.09375501
O 10.48057351 1.51616840 7.03713000 0.26763969 0.28015981 0.59026781
O 22.67100706 1.49589606 7.08747274 0.26079038 -0.20865513 -0.15897198
O 10.38383441 4.55442924 7.03382603 -0.85249243 0.16635944 -0.43213319
O 22.60605906 4.49517362 7.04182921 0.13239656 -0.14935275 0.33421391
O -0.96284208 1.54537726 4.19596132 0.34271188 0.15320288 0.35265718
O 11.19980418 1.52431020 4.20623985 -0.70697869 0.65783763 -1.28392468
O -0.96108480 4.56323385 4.08004717 0.44586294 0.62463937 0.89591722
O 11.21300757 4.59345560 4.15316777 0.32829299 0.66659735 -0.91148321
O -2.23768443 1.45401533 9.82261960 0.39535581 -0.52224682 0.44021567
O 9.86697118 1.55196039 9.75194859 1.27948328 -0.81035320 -0.66303770
O -2.32185404 4.55771508 9.74127828 0.93472565 0.10293066 1.07418091
O 9.91960146 4.53144268 9.76722011 -0.44307663 -0.65434800 0.80896908
O 5.61048417 6.03684353 1.49292491 1.14742095 -0.88595345 -0.13837901
O 17.97125052 0.03909819 1.44884822 0.78777110 -0.82371936 -1.52786218
O 5.77355028 3.04277807 1.40639333 -0.69592596 0.15948160 0.96089875
O 17.96638751 3.06504717 1.45080627 0.09427968 -0.51285173 -0.17299847
O 4.34316175 6.05542086 7.10189550 -1.92799317 -0.56017071 -1.23577720
O 16.58856747 -0.05766968 7.01603278 -0.46757852 0.72724905 -1.25815507
O 4.31822291 2.99401048 6.95120389 0.31724686 0.10230058 -0.12751557
O 16.65416479 2.98358425 7.00738854 -0.58577653 -0.11046300 0.45387224
O 5.06943808 6.08426879 4.16791583 1.14851730 -0.76268202 0.35547008
O 17.34684360 -0.00508839 4.19745417 -0.62145825 0.56322114 0.26127348
O 5.13432556 2.95547767 4.11503723 -1.77939648 -0.56039578 -1.08895983
O 17.31325744 3.03785234 4.20241940 -0.47831366 -0.25982992 -0.23585933
O 3.83788624 5.98000119 9.79325002 0.32156414 0.09716260 0.30826094
O 15.98224505 0.12112358 9.83084828 0.74756428 -0.70029156 -0.37223193
O 3.84964300 3.05651625 9.78283261 -1.25583451 -0.76249661 0.54973286
O 15.98283474 3.00567004 9.73142643 0.35188460 0.45164738 1.33392638
159
Lattice="24.485678 0.000000 0.000000 0.000000 6.062320 0.000000 -2.731422 0.000000 11.224055" Properties=species:S:1:pos:R:3:force:R:3 Energy=-628.557241 Virial="-54.945022 -0.770223 -3.028161 -0.770223 -46.482772 -4.377828 -3.028161 -4.377828 -41.639192" pbc="T T T" defect_vacancy
Ga 12.25604620 6.07398828 4.42050682 0.03453296 0.78357865 -0.32409195
Ga -0.01973869 3.09428858 4.51834691 -0.94426239 0.14812219 0.32234001
Ga 12.21373478 3.04883340 4.40418605 -0.29484982 0.36920759 0.17789570
Ga -1.36560604 6.10273234 10.05157478 1.06854010 0.01930012 -0.01566769
Ga 10.93957239 5.98996678 10.11629417 1.38567599 -1.86885576 0.31886643
Ga -1.34501935 3.04470824 10.03300800 -0.00131203 0.67540966 -0.25350936
Ga 10.82378892 3.00892057 10.18885585 -1.08516736 -0.26210763 -1.15350993
Ga 10.84420391 -0.03010981 1.13343260 -0.97879376 0.94342417 0.09444510
Ga 23.10588773 -0.00790467 1.15390914 -0.35061418 -0.78395277 -0.57235095
Ga 10.86739666 3.05394449 1.15390397 0.75315578 1.06909070 0.26848791
Ga 23.11439571 2.96550788 1.13200394 0.38659757 0.15929297 0.96443956
Ga 9.47490199 6.03587575 6.77766303 1.27141247 0.90103299 0.59530195
Ga 21.71946890 -0.03838380 6.81834065 -0.35826461 0.08326791 0.47064581
Ga 9.48544010 3.05988402 6.74451804 1.43541731 -1.19989455 0.29624404
Ga 21.70718871 2.97640979 6.83153581 -0.05838481 -0.11492988 1.10835424
Ga 6.16244410 1.48723549 4.54632342 0.23950393 0.76333095 0.21761668
Ga 18.31372848 1.52054323 4.40809432 -0.04015804 1.00317123 0.84689048
Ga 6.08617215 4.43119898 4.45737361 0.08644052 0.59421514 0.18804262
Ga 18.39511187 4.58237486 4.47924352 -0.49195603 -1.14607644 0.68072400
Ga 4.77333309 1.55415831 10.12181916 -0.34680348 0.60941330 -1.66980760
Ga 16.98757121 1.53955146 10.09756188 0.60294086 -0.69264006 0.08958131
Ga 4.73305303 4.55712930 10.02177219 0.15080853 -0.46253306 0.48383336
Ga 17.00278446 4.56819927 10.10434664 -0.42695160 -0.52206321 0.34423392
Ga 4.70974881 1.52044247 1.19247558 1.90406661 -0.70832917 -1.74148845
Ga 16.96791499 1.50749523 1.20360428 -0.06888526 -0.20704702 0.65305801
Ga 4.76726001 4.55616247 1.08513394 0.01283524 -0.33112975 -0.91391863
Ga 16.99012315 4.53711064 1.12017310 -2.50088793 -0.44562368 -0.06526286
Ga 3.37759272 1.56815615 6.84653251 -0.30444578 -0.99863197 0.13783426
Ga 15.65506576 1.47173636 6.75341844 -1.13321173 -0.36128233 0.02196905
Ga 3.35641092 4.51134980 6.79682573 -0.38966892 1.06118490 -0.68056685
Ga 15.60094348 4.49893143 6.76831913 -1.06117739 -0.66380019 0.48234769
Ga 1.57936339 1.53800918 1.73745678 0.37141061 0.61312238 -0.30766685
Ga 13.82555127 1.51130226 1.76995638 -1.73966690 0.11369738 -0.64200875
Ga 1.52376433 4.61906703 1.75862445 0.08918811 1.01797640 1.88668160
Ga 13.73333251 4.58515304 1.82922340 1.77966177 0.19085165 -1.01037902
Ga 0.14269209 1.49704739 7.39260532 -0.14004802 1.07653990 0.14922849
Ga 12.29532630 1.49949539 7.32359641 -0.10520848 -0.15366509 -1.18831396
Ga 0.08491798 4.48922979 7.36949991 0.89254076 -1.08138654 0.10726631
Ga 12.35697955 4.49719540 7.37410460 -0.58241737 -1.51190230 -0.64257162
Ga 9.35596753 1.53639154 3.86757453 1.35810743 0.55306579 -0.79425648
Ga 21.59867739 1.54385061 3.82512862 -0.63296821 0.24290699 -0.33910135
Ga 9.35183295 4.55281006 3.87431546 -0.18307760 0.08932128 1.11736093
Ga 21.59829873 4.49114004 3.89900595 1.21068743 -1.97182740 -1.01285749
Ga 7.96450564 1.53691309 9.42273011 -0.64965575 1.53321194 -0.11532970
Ga 20.15606888 1.50444976 9.48977965 -0.19309750 1.04646131 -0.19747817
Ga 7.94780005 4.53578246 9.49003872 -0.29368572 -0.38320803 1.48804009
Ga 20.26212588 4.68852562 9.49018977 1.12705618 -1.47416244 0.40792093
Ga 7.64014928 -0.01013653 1.73692227 -0.64460043 -0.25443327 -0.22883135
Ga 19.88130284 0.03036246 1.70309091 -0.96522092 1.60991434 0.70848050
Ga 7.61683220 2.98463632 1.72292033 0.21065966 0.44778297 -0.17116440
Ga 19.91818052 3.04505579 1.80850561 1.06712492 0.68432342 -0.23223876
Ga 6.31138324 -0.02600494 7.36125231 -1.21670521 -0.43393777 1.10018174
Ga 18.55305725 -0.04090039 7.37907840 1.30634193 -0.95639316 0.14793857
Ga 6.24659608 3.00721763 7.39044514 0.75937271 1.96694203 -0.89921483
Ga 18.50617069 3.00994916 7.38047567 -0.40568093 -0.49207669 0.23193307
Ga 3.29591595 -0.07772779 3.81767822 0.43622428 0.63947667 -0.50678629
Ga 15.45133000 6.09292014 3.86493034 0.47381170 -0.03525538 -0.57089101
Ga 3.23555666 2.97508723 3.92021433 -0.53436033 0.32826486 0.22784388
Ga 15.44919441 2.98261793 3.73163969 -0.30572054 -2.61511561 -1.29523756
Ga 1.84581884 -0.01516857 9.44288361 -1.16216738 1.56695889 1.00604536
Ga 14.14412677 6.07177668 9.48500958 0.75756383 0.07324542 0.00294000
Ga 1.84020216 3.05959748 9.46047636 -0.01270708 0.71183192 2.18373184
Ga 14.10990866 2.98565054 9.46924092 0.05377536 -0.33040103 0.61879376
O 1.87666143 6.09249652 0.59596125 -0.62882462 -0.20423923 -0.91555003
O 14.12587324 5.97175087 0.59321960 0.25990287 -0.88639746 -0.29152601
O 1.91157808 3.05196829 0.56836003 -0.13465576 -0.75773054 -0.32185913
O 14.00363397 3.00566542 0.60331944 0.13485842 -1.01913598 -0.38505407
O 0.49578263 0.02446201 6.25200139 0.62345626 -1.29959617 0.18339261
O 12.71946317 6.07999681 6.25953577 1.24837020 -0.02512333 0.55887619
O 0.51278989 3.04038766 6.23252304 -0.36697549 1.37523068 -0.39080561
O 12.72576912 3.02516341 6.20719365 1.00069357 -0.52579531 1.76439349
O 9.14976322 -0.02463584 4.99776250 -0.53434784 0.31461321 -0.84132369
O 21.24091252 0.08862983 5.01674500 -0.18788251 0.37361402 -0.00654463
O 9.07864856 3.11961253 5.03134716 0.40663088 0.68598711 0.23620222
O 21.30317357 3.08817345 4.99138839 0.68480174 -0.33058512 -0.59744007
O 7.65397237 6.06930877 10.61134672 0.43985450 -0.44673915 -0.16110399
O 19.88660766 6.04475511 10.62237381 -0.25211722 -0.33929587 -1.63128799
O 7.67930503 2.99663718 10.59598096 -1.40495342 0.43728359 -0.18944474
O 19.89944712 2.96529541 10.61563793 0.47348760 -0.82362768 -1.38922822
O 7.92804082 1.57464620 0.61576972 1.39394889 0.58476866 -0.47341457
O 20.22996199 1.54900673 0.57038456 0.46022279 0.50966197 0.50294102
O 7.98635319 4.53580594 0.62310692 0.22065994 -0.22304976 1.12278589
O 20.20281227 4.52696832 0.56397791 -0.17823186 0.17501390 0.79209157
O 6.52092793 1.56353158 6.20080981 0.43980567 0.44299802 0.29297245
O 18.85458097 1.50935778 6.12567613 0.50103826 -1.48061314 1.61730571
O 6.57099395 4.56927121 6.26734345 -0.97341953 -0.00796246 1.65699540
O 18.84701695 4.50614164 6.25106196 0.56135186 -0.24712322 -0.04624087
O 2.96286730 1.51738486 4.98242400 1.18101914 -0.16334848 -1.05730834
O 15.10868729 1.52055338 5.03078701 0.37842731 1.68851517 -0.10678372
O 2.89007896 4.55770530 4.97584425 -0.23992235 -0.31252893 0.25602272
O 15.13981987 4.61267777 4.93486002 -0.28155206 -0.29816319 0.41489996
O 1.55168189 1.51114683 10.60826287 0.09421486 -0.38638064 -0.29193371
O 13.79772272 1.53578554 10.61329919 -0.97113604 0.87746251 -0.62276645
O 1.52475938 4.56368718 10.58103749 0.59442686 0.30949364 -1.05302312
O 13.78212075 4.56859961 10.57026012 -0.87403887 0.05289862 0.72351540
O 1.35732493 6.01255571 3.18681480 -0.82152032 0.38235631 0.29922273
O 13.58161629 0.03459817 3.16065025 -0.84276524 0.39494249 1.53567208
O 1.32636825 3.00136580 3.18219465 -0.10318428 -1.25868199 0.63029210
O 13.59480315 3.03331285 3.23024799 0.38919535 -0.98006785 -0.25434641
O -0.05540161 -0.00443350 8.80421540 0.78908121 0.19295558 -0.17982940
O 12.19845419 0.02521263 8.70043727 0.57899475 0.93783359 -0.44276353
O 0.00537866 2.96733260 8.76533251 -0.41516504 -0.14354187 1.41777172
O 12.20916676 2.99629979 8.76308544 0.85089877 -0.77003546 -0.97829464
O 9.51988689 6.05159858 2.45075152 -0.08075440 0.01911112 0.33294582
O 21.69893541 6.13991541 2.40977762 0.60793094 0.43149225 -1.44858327
O 9.56658435 3.11355030 2.48980349 -0.01567911 -0.91822298 -0.61641953
O 21.75357964 3.05967341 2.45866415 -0.12706099 0.67850984 2.02680113
O 8.11620822 -0.07429400 8.07703245 0.05674956 -0.65034601 -0.68971704
O 20.41170391 6.04794004 8.07187929 -0.66031569 0.28488242 0.40164113
O 8.15861236 3.09975010 7.95601451 -0.49254538 0.28860828 0.85686154
O 20.49336230 3.01588748 8.01791657 -0.91664238 -1.19075286 0.52173960
O 7.54510492 1.48484945 3.20144990 0.49504635 0.81846602 1.15676705
O 19.78939356 1.53900459 3.21828941 0.22945836 0.37763945 0.04055776
O 7.51030331 4.56169192 3.11356052 -2.25435405 0.04875323 0.00248586
O 19.73678239 4.53853070 3.19784918 -0.34266334 0.59144020 -0.13272212
O 6.09452651 1.59685655 8.73904497 0.28859676 -0.48553177 -0.69058656
O 18.37086895 1.51481965 8.84214173 -0.84894982 -0.63627308 0.23096100
O 6.11867819 4.50885672 8.73501012 0.51655423 0.37523400 -0.97417871
O 18.33443300 4.50857203 8.80332181 -1.01896950 -0.00629775 -0.08640862
O 3.37615067 1.46506748 2.44116275 0.70853203 0.78639254 0.13809886
O 15.56444059 1.54936340 2.43982444 -0.39919988 -0.50311509 0.13311442
O 3.46395835 4.57424965 2.44789655 0.57493115 0.63711123 0.54399408
O 15.67835069 4.47800637 2.43220810 -0.47861671 -0.93040891 -0.38952593
O 2.02514107 1.49836917 8.00899451 0.51586847 0.06015540 0.01654644
O 14.26948326 1.54971969 8.06178883 -0.10889641 -0.20653526 -0.79017389
O 2.03515280 4.52710089 8.04917562 0.03871101 0.41888393 -0.40569946
O 14.21693445 4.51852125 7.99388492 0.03250711 -0.25072442 -1.07230820
O 11.83818955 1.54798042 1.42043683 0.94452935 1.10323688 1.04850657
O 24.04471975 1.51149185 1.44226558 0.15025233 -0.60919817 -0.56434475
O 11.83288894 4.50586521 1.37834063 1.09093353 0.91923051 -1.99470759
O 24.09404300 4.59151965 1.41267763 0.58393266 0.53699021 -0.65445672
O 10.44562224 1.51082420 7.01095529 -0.17363464 -0.25524363 -0.25528452
O 22.73688056 1.48725893 7.14472962 -0.43445008 -0.49681662 -0.57197592
O 10.48609718 4.49208353 7.07842685 -0.32896951 0.04292769 -1.04952421
O 22.67406268 4.52838274 7.00672023 -0.04939710 0.25330313 0.69397037
O -1.03635178 1.57745915 4.14151384 -0.60478614 -0.14290178 0.08960039
O 11.25186808 1.46944186 4.16709683 0.24910746 -0.76262264 -0.23684378
O -0.96014638 4.51018169 4.13730464 -0.62744200 -0.52939249 -0.89570857
O 11.25822131 4.46786093 4.20266787 0.39947394 0.32203740 0.29374097
O -2.29636786 1.49840420 9.80416919 -0.92761001 0.34806854 -0.81504761
O 9.95343167 1.45535864 9.64635083 -0.63349774 0.77379386 0.85753100
O -2.31527881 4.52195335 9.74803543 -1.66250223 -1.18191375 -0.28428580
O 9.94068554 4.59914340 9.82784617 -1.35904644 -1.07123833 0.09538330
O 5.72064803 6.11316338 1.41247070 0.15852204 0.44266241 -0.60528917
O 17.93443864 -0.00407609 1.44341389 -0.76464307 0.24662986 0.64284932
O 5.74980606 3.05256817 1.38926132 0.03603836 0.45701058 0.70401577
O 17.94739986 3.03947460 1.44105192 0.76658390 1.91075712 0.21552331
O 4.33572786 6.08312638 7.06233015 0.34463893 -0.31647648 -0.50961770
O 16.53762934 -0.00605761 7.06107468 1.58589242 2.03243645 0.53354786
O 4.36771440 3.07665837 7.07412891 0.47306749 -0.57612471 -1.02462461
O 16.67630129 3.06709357 7.02981850 -1.10083035 -0.63614240 -0.34557211
O 5.12845299 6.06594145 4.22809202 0.14787314 -0.75803037 0.45109169
O 17.32156637 0.04266303 4.20403013 0.91020006 0.04202504 -1.30383647
O 5.14833913 3.05059019 4.14860262 0.10186575 -0.60051362 0.07429952
O 17.42429503 3.01319397 4.17571223 0.35872378 -0.35449083 0.16408670
O 3.76023473 6.10315629 9.78577052 0.41778283 -0.59409063 1.58322360
O 16.01169155 -0.04876967 9.80025782 -0.36007115 0.21843487 0.84847475
O 3.71969059 3.04384288 9.72486733 -0.60627794 -0.19922394 0.20078326
O 16.01482180 3.04214829 9.68849399 0.78472732 0.66099178 -0.66050198
159
Lattice="24.572633 0.000000 0.000000 0.000000 6.083849 0.000000 -2.741122 0.000000 11.263915" Properties=species:S:1:pos:R:3:force:R:3 Energy=-628.745962 Virial="-53.112646 -0.862659 1.591157 -0.862659 -43.021353 -8.377434 1.591157 -8.377434 -40.110990" pbc="T T T" defect_vacancy
Ga 12.25505760 6.07838384 4.44406164 0.24839801 -0.02854387 -0.38257404
Ga -0.01919141 3.04890782 4.47482432 -0.28332612 0.43817902 1.16964852
Ga 12.26953562 3.03244959 4.46974450 1.30015809 -0.18910740 -1.93798988
Ga -1.30566758 6.01686108 10.15721365 0.10540983 -0.28004670 -0.58142171
Ga 10.96893396 6.08289677 10.13174527 -1.09920731 0.31447532 0.40610398
Ga -1.33619604 2.98321639 10.11620421 0.37916710 0.78517221 0.74590488
Ga 10.90454887 2.96230104 10.07767657 -1.46739112 1.75444608 -0.45256643
Ga 10.94795491 -0.00501870 1.18956797 0.04987329 -0.91335558 -0.73702740
Ga 23.19659454 -0.04771467 1.18659335 0.67235415 -0.23511855 -0.54617983
Ga 10.93547762 3.01859685 1.10228230 -0.76508140 0.97177349 0.30815871
Ga 23.18198865 3.01481546 1.14748528 -0.41647105 -1.88917357 2.30883762
Ga 9.58010864 6.12637251 6.82035171 -0.82696743 -0.11463648 0.82841994
Ga 21.84121958 -0.00415472 6.83653995 0.36461163 -0.07258523 1.06486071
Ga 9.49475415 3.01452866 6.80821667 -0.64338680 -0.79516730 -0.65498655
Ga 21.90442623 3.03640565 6.83422913 1.02274339 0.75708244 0.41473039
Ga 6.11331168 1.53242360 4.50401557 0.14132781 0.22143593 0.11593447
Ga 18.48108998 1.50950183 4.45215803 1.19567354 0.14025903 0.95858489
Ga 6.11061086 4.55606291 4.54465980 0.38225298 0.51580584 0.67455010
Ga 18.43244407 4.66306913 4.47671861 -0.09315836 -0.54225252 0.38074880
Ga 4.82059340 1.60041095 10.11953510 0.02461625 -0.44013149 -1.11469913
Ga 17.15380383 1.51874001 10.09639032 0.13804449 -0.00388582 -0.14939135
Ga 4.79669492 4.50721024 10.07828671 0.55464866 -0.25978858 0.91193942
Ga 17.03471009 4.56141481 10.13168047 -0.23521418 -0.82591800 -0.32979314
Ga 4.73726002 1.61903420 1.09252609 0.00108940 0.01321282 -0.56613147
Ga 16.98833628 1.55432455 1.14078468 -0.62015582 -0.73055577 0.62080663
Ga 4.67623808 4.57994123 1.17115617 0.60460226 0.07422990 1.23889429
Ga 17.04887032 4.56375697 1.15830419 0.04921805 -0.44282396 0.77752239
Ga 3.45509245 1.56577211 6.81545120 -0.18834313 0.54121537 0.30873539
Ga 15.72476641 1.51485082 6.80510494 0.06516988 -0.78812685 -0.55140870
Ga 3.25820252 4.66334353 6.79363062 0.02310930 0.78366655 0.07522113
Ga 15.71937140 4.60425312 6.81763778 -1.18363087 0.15549602 -0.46697887
Ga 1.50355774 1.57776286 1.79988203 -0.94272907 -0.01109122 -0.76403956
Ga 13.76035662 1.52669539 1.77339828 0.36149380 -0.70804130 -2.27916901
Ga 1.50252500 4.52049329 1.73016555 0.14266056 -0.52051066 -0.27551101
Ga 13.82985625 4.54133954 1.78976043 -0.37011548 0.57867161 0.76164996
Ga 0.14018430 1.51326632 7.36390416 0.39629223 0.75047788 -0.62708919
Ga 12.40760547 1.51811188 7.33465207 -1.11257446 -0.44276284 -0.47669680
Ga 0.15669281 4.55891067 7.33596028 -0.26753937 -1.08977188 -0.30265202
Ga 12.42872116 4.45561021 7.38199432 -0.24293755 -1.08317993 0.39754823
Ga 9.40062101 1.56133604 3.96912439 -1.09798465 0.87633775 0.47300964
Ga 21.69616986 1.53461001 3.80054345 -0.19405352 -0.47490059 -0.31764282
Ga 9.39317159 4.54594371 3.79102941 0.37180544 0.36965812 0.18518936
Ga 21.75810149 4.58347486 3.89083504 -0.34595811 -0.28447641 -0.59748091
Ga 8.09121168 1.46133641 9.44251304 0.09296009 0.03363582 0.12395289
Ga 20.36801440 1.48707495 9.51844598 -0.38583401 0.22979880 1.21057980
Ga 8.03766819 4.64280024 9.55566274 -1.01181664 1.08411283 -1.28618423
Ga 20.37868773 4.49886867 9.52432083 0.95452534 -0.06794462 0.57601251
Ga 7.69982111 0.00314660 1.74246589 -0.83034310 -0.00420732 0.16810276
Ga 19.94410803 0.04117895 1.72262479 -0.61373169 0.89697643 -0.63969748
Ga 7.73176043 2.96806412 1.74381034 0.74374168 0.88876412 0.26517150
Ga 19.89010394 3.04537782 1.74839685 -1.14664522 0.92437779 1.25240452
Ga 6.34545983 -0.00755786 7.41014033 0.76992190 -0.90270574 0.59573360
Ga 18.57030916 -0.01005832 7.40772091 0.45560744 0.79014204 1.93792607
Ga 6.24092955 3.00600897 7.36510451 1.18921136 -0.12995867 0.05290275
Ga 18.58614335 3.05183672 7.40524695 -1.13833723 0.38548980 -0.61395984
Ga 3.26043962 0.01958843 3.85097723 1.22086349 0.90910944 0.02574454
Ga 15.53613336 6.09420797 3.83640279 1.07995349 -1.55697138 0.26630009
Ga 3.27343881 3.09180380 3.87494182 -1.33295416 -0.00516790 0.29420689
Ga 15.60336267 3.03767893 3.90318723 1.60408477 0.86103172 -0.48758669
Ga 1.85258953 0.01576493 9.51547713 -1.28382155 -0.77990410 0.52689625
Ga 14.21197267 6.10343907 9.56338930 0.05399431 0.37328620 0.09755862
Ga 1.92016073 3.04102417 9.49472502 0.56476612 -0.61794613 0.19452156
Ga 14.14764128 3.03480998 9.48819563 0.99760506 0.45744542 0.07438241
O 1.86433463 6.07842605 0.56020104 -0.12395767 -0.22976832 1.43293606
O 14.19688511 5.99188644 0.57035977 -0.76064802 1.24487607 -1.60117999
O 1.91603502 3.02497108 0.64805514 1.14769619 -0.28750503 0.86931149
O 14.13772074 3.06630607 0.60270709 -0.59798364 -0.79340749 0.39864859
O 0.46850110 0.03258419 6.25345009 -0.12132967 -0.18139707 0.98785860
O 12.73652083 6.07937454 6.22677945 0.07123710 0.23761592 0.89555226
O 0.44307906 3.04426149 6.28246130 -0.30235971 0.89112583 0.99139978
O 12.76055870 3.03160963 6.25474981 0.73383430 -0.17758265 -1.28513402
O 9.02515529 -0.07594032 5.06189734 0.10051032 -0.20084310 0.09765877
O 21.37686037 -0.07858681 5.01141877 -1.05347411 -0.18386175 -0.63164507
O 9.05993401 3.02871355 4.99411770 0.57128875 -0.20935123 1.86003537
O 21.34500389 3.01029905 5.01840685 -0.82273173 0.13663859 -1.95136097
O 7.63980031 6.10063171 10.72422969 -0.06136743 1.37074268 -0.33610283
O 19.98319276 6.10300415 10.63439914 0.16062810 -0.29460010 -0.07843743
O 7.75917857 3.01214178 10.58719224 0.65272393 0.11856218 -1.08626318
O 19.92652567 2.99157134 10.65550684 -0.48298003 0.63431733 -0.52276795
O 7.97826089 1.59474026 0.61842038 2.16714199 0.96463333 -1.40072736
O 20.29245863 1.53238489 0.66547934 -1.34054503 1.01491575 0.36551458
O 7.93657164 4.59130857 0.57115395 0.26510633 -0.62522768 0.72862683
O 20.29291871 4.54933932 0.62023267 -0.85175702 0.98384622 -0.78830684
O 6.64809854 1.55978769 6.25732500 -0.24670236 -0.60024283 -1.01331576
O 18.92063220 1.53421218 6.24466154 0.87319417 0.62888710 0.85630704
O 6.64820261 4.61138360 6.32380670 -0.26312450 -1.29009713 0.58693598
O 18.96249788 4.62399773 6.20604916 0.69004668 -0.62794340 0.14551726
O 2.95726535 1.52296124 4.98324250 0.70258840 -0.44870334 0.26427578
O 15.17902458 1.57288306 5.06224264 1.19311862 1.09224091 -1.17211301
O 2.88492030 4.55400241 4.96766796 -0.85267674 0.37069719 0.79430062
O 15.18991598 4.52438551 5.00537853 -0.78911778 -1.99652092 0.35852158
O 1.57445022 1.47986827 10.60810703 0.85763232 0.64256935 0.44619104
O 13.83203913 1.52438850 10.59863338 -0.26159481 0.08876194 0.65551683
O 1.57116164 4.51913984 10.70512138 0.97872948 -1.65392043 -0.82800467
O 13.86255293 4.62007652 10.63910009 -0.94858645 1.25439725 1.33159712
O 1.41815025 6.10357630 3.22262109 -0.21110578 -0.23180153 0.53008550
O 13.68213814 0.03359694 3.13486055 -0.43583857 -0.91989711 0.33564776
O 1.34492942 3.04490372 3.15836275 0.59152134 0.00110341 1.20457837
O 13.68279380 3.00042968 3.20256899 0.62598048 0.05582926 -0.04678425
O 0.03661781 0.08628481 8.81612240 0.36682691 -0.41205128 -0.99596170
O 12.29212879 -0.00743430 8.84058759 0.39928982 1.19830474 0.91482390
O -0.01023415 3.03613899 8.88510929 0.43051389 0.35441911 0.27827559
O 12.31373865 2.98475639 8.79036989 0.25400815 -0.30594996 -0.08471032
O 9.56704229 6.08351970 2.37723445 0.61025386 -0.75134591 0.10096731
O 21.81403475 6.14386899 2.49439351 -1.50986229 -0.06169009 0.00220928
O 9.58741794 2.95353643 2.36374882 0.23496149 0.76214586 -0.25298668
O 21.83232867 3.00415763 2.42610308 0.68474994 0.34561715 0.21852128
O 8.16011445 0.00700908 8.06605070 -0.43808486 -0.22577991 -1.36459430
O 20.52380541 5.97752866 8.09473387 -0.48032119 -1.60180960 -0.17647004
O 8.17522048 3.07110092 8.10701247 0.75467154 -0.37723748 -0.46161280
O 20.43242370 3.04401295 8.09797709 1.47756165 0.12623221 0.42778581
O 7.47822882 1.55214532 3.20734094 0.08184223 -0.80450628 -0.87453956
O 19.73804022 1.47447745 3.08622020 -2.31297779 -1.09737107 1.10287939
O 7.55583046 4.52317798 3.24753220 -0.08035023 -0.17411085 -0.95303611
O 19.77709796 4.66254372 3.17788943 0.88990585 -0.61256221 -1.12159679
O 6.07792608 1.53966225 8.78677602 0.73399659 0.22776434 0.92224939
O 18.40827921 1.56316484 8.84569465 -1.18825249 -1.56611592 0.51898922
O 6.15123378 4.54546712 8.79557578 -1.16648206 -0.68585775 0.01816022
O 18.44241752 4.63041177 8.85073540 -0.14779696 0.51253608 -0.36641793
O 3.35171144 1.56268840 2.42765974 0.70736487 1.59014097 -0.18818569
O 15.69047910 1.54463275 2.47222658 1.00769318 -0.93438816 -0.61733382
O 3.44789124 4.54455837 2.39532543 -0.25117520 -0.82700158 1.57418809
O 15.66963381 4.48596289 2.46619520 0.02053188 0.46345015 0.32051293
O 2.01795072 1.51069070 8.06787642 0.61256933 -0.13374315 -1.01301239
O 14.34973445 1.54283298 7.96004840 -0.02480069 0.36618951 -0.32592697
O 1.94476029 4.60584194 8.08671854 -0.31842170 -0.28667107 0.47998241
O 14.31106524 4.56009303 8.08880502 0.24974526 1.27671790 -0.38077277
O 11.88375960 1.54165141 1.40344173 -0.60520566 -0.09610160 0.96030473
O 24.15153857 1.52367902 1.45609875 1.17558503 -0.77263605 0.36057886
O 11.88006243 4.54341349 1.46830192 -0.05497705 -0.10777843 0.88354450
O 24.22087533 4.57237357 1.38157068 1.01134035 0.11831157 -0.05250988
O 10.49574196 1.45653875 7.08915936 -0.47000568 -0.31141129 -0.44318791
O 22.79168653 1.56056542 7.09770023 1.13914825 -0.25664427 0.50446346
O 10.53564640 4.50748347 7.05234182 -0.33918963 2.02237831 0.47125429
O 22.79222307 4.53845134 7.06844295 -0.42646374 1.04452136 0.58392228
O -1.01253542 1.54554701 4.17807584 0.28281999 0.21116719 -0.73916275
O 11.36124104 1.45949916 4.25754018 0.88869550 -0.40561245 -1.19283292
O -0.98023333 4.53328501 4.16886812 0.58958051 1.14248326 -0.48884574
O 11.27827766 4.55198072 4.22820346 -0.49797618 -0.19374166 -0.68879723
O -2.35202128 1.51756381 9.79616436 -0.66679806 0.20232184 -0.91675118
O 9.93447927 1.50932854 9.76526095 -0.72451332 -1.05079680 -0.37635921
O -2.26684380 4.57126599 9.88891083 0.85709547 -0.64681555 -2.57676422
O 9.96552298 4.49495743 9.82660676 -1.20642866 0.35148158 -0.33756779
O 5.74566974 6.07255923 1.43716043 -0.31955335 0.13409136 0.24679469
O 18.09109413 -0.04121217 1.44354218 1.30715578 -1.09666002 -1.60707495
O 5.75576315 3.02140769 1.44777989 0.40406558 1.86444145 -0.41736682
O 18.07085549 3.06872347 1.35575402 0.50287070 -0.18132945 -0.51397392
O 4.35170353 6.04091475 7.10911092 -0.43067631 0.56834514 0.90873437
O 16.63730556 0.00304419 7.05623782 -0.72572431 1.06265461 -1.14951094
O 4.36241218 3.11189766 7.16591055 0.53731993 -0.19176821 -0.64226997
O 16.67727297 2.99426431 7.08582292 -0.32070859 0.88706123 -0.66329821
O 5.23560809 6.09208689 4.12691312 -0.92963381 0.34567506 0.35047579
O 17.44648115 -0.04582255 4.15798009 0.65044182 -0.05996482 -0.06084365
O 5.17589529 3.01750163 4.20795178 -0.32757075 1.42309503 -0.03403995
O 17.49736717 2.99201502 4.22597352 0.29099965 -0.96803432 0.95869435
O 3.83318193 6.08089754 9.83332810 -0.30100672 -0.56541095 0.24637345
O 16.11617663 0.04570897 9.76026740 -2.51224424 -1.48018801 1.05979941
O 3.83820843 3.08533444 9.82838048 0.37313839 0.41609121 -1.11137522
O 16.11793196 2.96654918 9.84951038 -0.36636046 -0.57124475 0.62180636
159
Lattice="25.260343 0.000000 0.000000 0.000000 6.254116 0.000000 -2.817837 0.000000 11.579156" Properties=species:S:1:pos:R:3:force:R:3 Energy=-625.697704 Virial="-54.217443 -3.019333 -3.929483 -3.019333 -45.989706 -4.372329 -3.929483 -4.372329 -40.655453" pbc="T T T" defect_vacancy
Ga 12.60706744 6.23694184 4.62098706 -0.29674870 -0.86606084 0.23937086
Ga 0.04873303 3.17153190 4.60567409 -0.40297984 0.61082589 0.10743931
Ga 12.60269539 3.15775452 4.62915577 -0.58964771 0.16321821 0.50578013
Ga -1.46248269 6.30660940 10.29153906 0.14860386 -0.67701728 0.14829895
Ga 11.27668172 6.22710085 10.42529983 0.29218913 0.60846790 0.51606329
Ga -1.37436601 3.12259523 10.40704980 -0.72001824 -0.44917908 0.42300625
Ga 11.22297382 3.15082501 10.47980042 -1.35155511 0.57082105 -0.73312416
Ga 11.15576487 -0.12454782 1.16886388 -0.33083275 1.10370995 -0.11315056
Ga 23.81562470 -0.00867058 1.15078331 -0.23491555 0.17416848 -0.13672017
Ga 11.24209346 3.06852308 1.21218247 -0.49413945 0.14892404 1.64789961
Ga 23.86335045 3.13710343 1.20384210 0.74229236 0.29936259 0.14426311
Ga 9.83511792 6.25620830 6.96364546 0.64481902 0.44830851 -0.74695273
Ga 22.44953740 0.02614182 7.01346735 0.41223415 -0.00917166 1.31112109
Ga 9.72847932 3.11912941 6.93580223 -0.16227306 0.95044744 -0.98611213
Ga 22.45091061 3.15702805 6.96870663 0.25691791 -0.62011462 -0.76346730
Ga 6.29968011 1.58836992 4.59813485 0.63484595 -0.83747624 -0.17205195
Ga 19.02078970 1.63308987 4.64178112 -0.55499942 0.26577470 0.16053068
Ga 6.33639462 4.76283029 4.61219184 -1.72523710 0.51006814 -0.54907481
Ga 18.94087618 4.66395855 4.57255916 1.61283117 0.65643181 0.70375695
Ga 4.92022865 1.57341220 10.33989579 -1.87545488 1.35200824 -0.00789777
Ga 17.53743699 1.56616809 10.41202659 -1.03367843 0.21482486 0.97739196
Ga 4.92390346 4.70435855 10.34582669 -1.22726332 0.80435898 -0.29691449
Ga 17.51765639 4.68603574 10.41080598 -0.41824592 -0.36289773 -0.69046866
Ga 4.90158605 1.52727674 1.17804412 0.18205417 0.16278798 0.77105865
Ga 17.57338498 1.58922961 1.18082295 1.11948549 -0.28497527 0.79753617
Ga 4.84888966 4.66036080 1.18984674 -0.88520617 0.46330838 -0.90313381
Ga 17.52795043 4.71579278 1.20685493 -0.41730435 0.43644068 -0.62298957
Ga 3.46802259 1.54637693 7.05724758 0.40346502 -1.17299046 -0.60236085
Ga 16.09731735 1.50822449 6.91625147 0.43450773 1.12976487 -0.95111197
Ga 3.46556438 4.72679888 6.95870149 1.24344560 0.16361070 1.70753931
Ga 16.16962097 4.69509731 7.01960853 -0.22022407 -0.43574937 0.19905749
Ga 1.52784154 1.53766932 1.81954417 -0.82538643 0.05463865 -0.10376815
Ga 14.21156294 1.55453738 1.82967749 1.04328440 0.22172800 -1.02899066
Ga 1.58560989 4.63564096 1.80379438 -1.00534580 -0.78918382 -1.65764026
Ga 14.16907227 4.66519828 1.83468954 -1.65719989 1.60095255 -0.70346787
Ga 0.12941922 1.47981109 7.59806102 1.01613889 -0.62285312 -0.37149469
Ga 12.73679942 1.58342288 7.63947615 -1.31978793 0.94305580 -0.36123269
Ga 0.06419783 4.65855439 7.61837477 1.31775420 -0.59231594 0.95226475
Ga 12.72438812 4.72441590 7.64946404 1.17915040 -1.21986660 0.30252059
Ga 9.65362635 1.53634075 3.87894887 -0.79429932 -0.95033575 0.03804384
Ga 22.32801414 1.64535256 4.04426121 0.64875235 1.01391154 -0.32554718
Ga 9.65560008 4.64839963 4.00049053 0.78936645 0.39422722 -0.06763149
Ga 22.29057083 4.71254875 3.98934655 -0.73559449 -0.01787137 2.70912098
Ga 8.25246143 1.60124591 9.80177869 -0.72876732 -0.18575014 -0.76661989
Ga 20.85930039 1.53203393 9.65644227 1.08978342 1.37151699 0.99383099
Ga 8.23657632 4.64622623 9.77802675 1.56849423 -0.11455417 1.25861525
Ga 20.87194932 4.68427569 9.79516576 -0.64899938 1.17288326 1.11083424
Ga 7.88762645 -0.00114258 1.88356196 -0.49239154 0.69012403 -0.92183308
Ga 20.53694263 -0.01026306 1.80749450 -1.11053608 -1.16111235 -0.94494198
Ga 7.90652298 3.13569872 1.77556353 -0.90714157 -0.14949474 1.30972648
Ga 20.53236676 3.17976838 1.86518378 -0.20755945 -0.73770365 0.46598864
Ga 6.53079180 0.08387203 7.67374209 -0.20391047 0.00742559 0.23845905
Ga 19.10863414 -0.00591620 7.53352735 0.33877190 -0.61205275 -0.27339498
Ga 6.46980017 3.15002169 7.61844109 0.73317437 -0.36606107 -0.26940128
Ga 19.01786826 3.11976662 7.62920227 0.23428727 0.26849509 -0.33027594
Ga 3.30906017 0.00976775 3.99337720 0.43841046 -0.07241766 -1.12311744
Ga 16.02132882 6.31728238 3.95903398 0.50786955 -0.76091620 2.36945472
Ga 3.35208863 3.13916570 4.00091211 0.22323936 -0.28965450 0.60438309
Ga 16.00172242 3.18387606 3.87367291 1.16359693 1.14682961 0.16980982
Ga 1.95410473 0.02235292 9.74875011 0.85151312 0.50206721 0.00150026
Ga 14.47809763 6.25032929 9.73801255 -1.21094338 -0.04092282 -2.12355440
Ga 2.00963769 3.13728876 9.72357457 -0.70988472 1.03013773 0.07368663
Ga 14.48661300 3.15336716 9.78744362 -0.03557837 -0.75675509 -0.75284907
O 1.89783797 6.27818232 0.61800008 -0.54907806 -1.17170232 -1.88651955
O 14.58582062 6.28692563 0.55587985 0.82231573 1.26255029 -0.58114331
O 1.86107437 3.22336168 0.66189522 0.61049795 -1.04667608 0.20833251
O 14.47233751 3.06694751 0.64431379 -1.11224297 0.66620403 -0.03005664
O 0.44650362 -0.00671223 6.42311778 -1.02485424 0.37653888 1.24766066
O 13.10818380 6.29548065 6.48620343 -0.00051822 -0.09549993 -0.06476479
O 0.48818293 3.08030227 6.44488803 0.09490246 0.93711018 0.95944403
O 13.18320907 3.10582436 6.45026140 -1.69321000 0.90360373 -0.23668411
O 9.28604174 0.00365669 5.11792099 1.32804813 0.30525903 0.69652210
O 21.95053566 -0.00326035 5.18262572 -0.41743666 -1.13543584 0.11807119
O 9.38491640 3.11586811 5.08983886 0.76593792 0.52566839 0.55243236
O 21.93661926 3.13807871 5.16898005 0.17458868 0.51160868 -0.73570760
O 7.90378915 6.30958332 10.96379644 -0.12182788 -1.31154251 -0.11890547
O 20.53654033 6.21314209 10.87185713 -0.25606670 -0.02245652 0.75961490
O 7.92559522 3.13381582 10.90643277 0.04295620 -2.39191011 1.02224474
O 20.54170234 3.10598850 10.92186087 0.11484639 0.55702969 -0.71038981
O 8.18241707 1.57332046 0.61641563 0.65506139 1.16337990 -1.37180636
O 20.83241973 1.53507905 0.62528299 0.97724181 -0.81486370 -0.69302421
O 8.26512763 4.70215503 0.61585180 -0.00667026 1.60683785 -1.52519005
O 20.85989042 4.74515253 0.65326945 -0.52012567 -0.03211154 0.44623319
O 6.82406067 1.59222050 6.40564177 -0.09909885 0.27882369 -0.90636647
O 19.45166146 1.53724497 6.35936050 0.61188053 0.78040373 -0.96025685
O 6.82511734 4.70609542 6.41463492 -0.63995342 0.25353173 0.19193112
O 19.48620767 4.66510633 6.34407485 0.41788210 -1.04516939 -0.39029357
O 2.97388335 1.49422358 5.16964444 -0.40034847 1.02765779 -0.14948372
O 15.59973787 1.61102015 5.20221119 -0.41117838 -0.79223929 -0.07269500
O 2.97435141 4.65415046 5.18147128 0.95509163 -1.31257212 0.01979658
O 15.66983506 4.59866663 5.15788847 0.40542543 1.54123658 0.47576716
O 1.49839629 1.53202631 10.99030354 1.08661258 -0.02623494 -1.19336313
O 14.33918038 1.55783542 10.89631811 -1.15167880 -0.64235372 0.03599226
O 1.57190875 4.68527849 10.92190517 -0.23711277 -0.43972600 1.38591614
O 14.18261711 4.68083679 10.96198531 -1.93749137 -0.90975661 1.85668881
O 1.38785561 6.21796084 3.24718219 0.24296795 -0.60490570 -0.98046877
O 14.00462135 -0.03836649 3.24180921 0.64374807 0.50055390 0.57993970
O 1.42114724 3.11173732 3.20805903 -1.05231137 0.04495164 -0.25246783
O 14.08776043 3.13346591 3.21099143 0.35110187 -1.36877950 0.40528552
O -0.02435961 -0.02967834 9.09680299 1.23293815 -1.16982060 0.63253547
O 12.60953021 -0.00027730 9.04739036 1.34672436 0.65402111 -0.11037468
O -0.06958799 3.19113441 9.07655885 0.10274010 -0.48822910 0.10889717
O 12.59173564 3.12963757 9.09297069 -0.84192654 -0.01376184 -0.74807030
O 9.82583479 6.30148620 2.62957783 -1.17310911 1.15696273 -1.56701373
O 22.42741812 6.22691534 2.48737738 1.44729841 -1.81917981 0.69246512
O 9.73369470 3.17176735 2.49334535 0.15524906 -1.36430604 -0.47594104
O 22.48390706 3.16711796 2.47028340 -0.82257971 -0.82597868 0.64955651
O 8.37476379 0.07164115 8.30872053 -0.94955787 -1.61326895 0.83939664
O 21.00930248 6.20410462 8.29611032 0.31970223 -0.05194651 -0.29403517
O 8.47345675 3.17043958 8.32560056 0.56840613 0.24800394 -0.15673901
O 21.10033867 3.18999999 8.31526512 -0.47477638 0.82105062 1.11660314
O 7.82531999 1.56038845 3.30268138 0.38656933 2.37768847 0.12180988
O 20.33341527 1.59051646 3.26067612 0.15717814 1.18235937 0.17808820
O 7.73150428 4.77592151 3.29973131 0.21961984 -0.34003862 0.32847778
O 20.36285034 4.67773072 3.28127073 -1.35906864 -0.64282620 -0.93860029
O 6.25755512 1.61683583 9.08715414 -1.76806599 0.83548623 -0.33033871
O 18.92850751 1.63007036 9.12331907 -0.70886736 0.25737567 -1.07298827
O 6.31869048 4.70888246 9.03180477 0.73624612 1.09328077 -1.22363202
O 18.92253673 4.64606909 9.03417357 0.97210743 0.11599097 0.86069478
O 3.49905704 1.50125731 2.53983617 0.16883818 -0.73631380 -1.35706119
O 16.17577678 1.54734978 2.42956823 -0.89552041 -0.45776180 0.79650207
O 3.49691140 4.62590757 2.50587117 0.52458191 0.19649522 1.13233171
O 16.19101413 4.58809300 2.48536515 -1.48657073 -1.00303062 -0.98856267
O 2.12590056 1.53835917 8.27385248 0.06407222 -1.40071644 -0.53336817
O 14.79617173 1.58172365 8.35034373 1.11947485 0.76377088 1.19926810
O 2.11582700 4.69875688 8.35221812 -0.44894437 -0.88254100 0.16248223
O 14.79624520 4.61911379 8.30816560 -0.73741603 -0.11740875 -0.16479953
O 12.21294545 1.53806204 1.52602127 0.44754999 1.12414427 1.07227044
O 24.85136095 1.64633187 1.53387896 0.77536507 -0.20804198 0.48466783
O 12.27496433 4.62980703 1.45600417 -0.29111007 -0.78058240 -1.28609769
O 24.82741287 4.74362343 1.43350550 -0.44777924 0.36849363 0.50774157
O 10.77030804 1.51997143 7.37329491 0.05483505 0.43557032 -0.50466762
O 23.43381545 1.58427891 7.23773696 1.37427312 0.08846546 -0.30342007
O 10.85014620 4.61603453 7.24964102 0.56445087 -0.15673966 0.23118415
O 23.41168814 4.69457118 7.24713079 1.23165378 -0.68297080 -0.26222147
O -0.93828220 1.58660566 4.27532173 -0.11220360 0.01569425 1.50608491
O 11.67825743 1.54395867 4.29319602 0.77575013 1.04443797 -2.09443343
O -0.96644831 4.59698184 4.32579549 0.45434485 0.22099618 0.42449780
O 11.60046941 4.66204348 4.38197079 0.07300310 -0.53711376 0.56642727
O -2.42567740 1.59373308 10.09769287 -0.10053176 -0.00396511 -0.49425152
O 10.23756616 1.55819729 10.07823323 -0.10813788 0.42701254 0.64884165
O -2.34317767 4.72276123 10.07247165 0.02785725 0.06665429 -0.17615819
O 10.17644076 4.67062190 10.12581328 0.77493608 -0.35442718 -0.25119668
O 5.95463696 6.27490610 1.42595717 0.13973852 -0.35101936 0.22118069
O 18.57378682 0.05590112 1.50204745 1.38209063 -0.01079821 1.17575035
O 5.97656217 3.07979050 1.50811378 0.80993486 0.14922252 0.55416680
O 18.49116789 3.17177012 1.49782122 1.23026503 -0.67757978 0.56787962
O 4.57714233 6.26631520 7.26568201 1.06970425 -0.58682603 1.08521735
O 17.10403746 -0.00851807 7.25626757 0.60304104 -0.64029847 0.37256566
O 4.54445707 3.17636171 7.21112087 -1.07476488 -0.97786502 -1.22139820
O 17.13459447 3.12210261 7.24375312 0.26864371 -0.30609944 -0.62926294
O 5.33679662 6.31039282 4.34675263 -0.37873148 -0.08252297 -0.29630382
O 17.99544888 -0.02167854 4.31501214 -0.36328207 0.10913896 -0.79913590
O 5.29527545 3.14612659 4.31924426 -0.40012987 0.91241201 0.24770407
O 17.98628039 3.18062091 4.33209578 -1.42112314 1.22699176 -0.72132579
O 3.87125555 6.19351625 10.11597437 1.36741529 0.05726234 0.74670102
O 16.60226512 0.00333357 10.04138110 -1.39511676 -0.65181498 -0.56093985
O 3.99144312 3.14515546 10.10110758 -0.42945992 -0.66717597 -0.55733624
O 16.48735103 3.13162688 10.11747282 -0.08071433 -0.53363205 -0.17326367
159
Lattice="24.799372 0.000000 0.000000 0.000000 6.139986 0.000000 -2.766415 0.000000 11.367850" Properties=species:S:1:pos:R:3:force:R:3 Energy=-628.115336 Virial="-54.264136 -0.820244 0.266232 -0.820244 -42.592381 -2.625859 0.266232 -2.625859 -44.559184" pbc="T T T" defect_vacancy
Ga 12.44165626 6.12699838 4.48757424 1.18152322 0.44811507 1.87805038
Ga 0.05600000 3.07209938 4.55398245 1.28576955 0.34384975 -1.69311247
Ga 12.40990842 3.14201448 4.53445262 -0.70384602 0.03327541 -0.99623924
Ga -1.39534658 6.17531676 10.21374377 0.86927117 -0.28269650 0.05842003
Ga 11.00840232 6.12530003 10.17591931 -0.47121039 1.25778587 -0.66827311
Ga -1.39975656 3.09363373 10.25805245 0.47382153 1.23139867 0.74074398
Ga 11.03838263 3.05948450 10.19418907 -0.84147422 0.40185599 -0.87650519
Ga 11.01443291 0.01891417 1.12243518 0.89416779 -0.26454840 -0.79465877
Ga 23.39036075 0.02141464 1.12882306 0.02270446 0.51356911 -0.10067988
Ga 11.06317762 3.17410288 1.21549373 -0.62862017 0.04205792 0.42438550
Ga 23.36635777 3.09036437 1.18803268 -0.08508160 1.10581943 -0.92331588
Ga 9.58943957 6.11514988 6.81755712 0.04393974 -0.21022037 -0.27757212
Ga 22.00473454 -0.04567991 6.82959134 0.74828703 -1.22700349 0.21400789
Ga 9.64445767 3.03599091 6.88894733 0.21869531 -0.16637414 -1.93350339
Ga 21.97703882 3.09824239 6.87417744 -1.42301482 -0.90760162 0.58065810
Ga 6.21255716 1.52375630 4.52237701 -0.05018702 -0.65045675 -1.20274097
Ga 18.64994242 1.49506193 4.51835180 -1.09311228 -1.69002545 -0.13254511
Ga 6.19421677 4.60785738 4.50530980 -0.08750776 -0.74418495 0.53556947
Ga 18.64725096 4.54930860 4.50724155 0.00528170 -0.63642006 -1.23698669
Ga 4.83219327 1.49017314 10.14413821 0.00861273 -0.61641562 0.92241441
Ga 17.27125190 1.51328663 10.16131492 -0.32246826 -1.48403793 0.05591782
Ga 4.84017273 4.58398166 10.17819320 -0.64374408 -0.92757729 0.66263595
Ga 17.22677901 4.58786276 10.25209285 -1.17338176 -0.39412334 -0.76018588
Ga 4.81746314 1.49857714 1.21774697 -0.53179255 0.31502373 0.88632251
Ga 17.18211995 1.60398422 1.12763219 0.15728564 0.55354919 -0.56607080
Ga 4.77701333 4.54208518 1.14424561 -0.96166701 -1.16192386 0.77927931
Ga 17.33946311 4.59776851 1.19152414 0.06735839 -0.29707129 -0.30223397
Ga 3.39294836 1.53165165 6.85211962 0.76030514 0.13881439 0.00963334
Ga 15.85935093 1.51906152 6.89632845 -0.16460121 -1.19110823 0.90107916
Ga 3.38686091 4.59846046 6.83960561 0.52356404 -0.10939387 0.47955870
Ga 15.83200706 4.62187725 6.91156712 -0.13205579 0.29020955 0.11748576
Ga 1.56792068 1.54117278 1.76266971 0.03591319 0.12627643 0.31091496
Ga 13.92119216 1.50931015 1.78149393 0.44177951 0.41668527 0.77294120
Ga 1.58576155 4.65126331 1.84272168 -0.53288003 -0.28468597 -0.56576801
Ga 13.88968666 4.63579013 1.75135147 1.04009854 0.12726177 -0.28989314
Ga 0.16338282 1.52048455 7.48826340 -0.60961396 0.87802041 0.90595283
Ga 12.59704856 1.52655754 7.44169773 -0.70736481 0.07424474 0.37367637
Ga 0.12508510 4.65154136 7.47926299 -0.24474030 1.73806130 0.24772953
Ga 12.50949789 4.62301636 7.50015310 -0.24576554 0.15855649 0.39791905
Ga 9.59410248 1.49467467 3.90340528 1.15602116 0.45617352 -0.29198533
Ga 21.86043865 1.58667932 3.87637979 0.05056733 0.15858308 0.16161778
Ga 9.46504182 4.62146152 3.87690272 -0.13334831 -0.25047435 0.21169614
Ga 21.94291483 4.69000393 3.85945860 0.36501236 0.97768613 1.23176768
Ga 8.13010926 1.57731807 9.55909772 -0.37233687 -0.96802184 -0.17742609
Ga 20.52736757 1.58962974 9.54982405 -1.39680214 0.57418563 0.03530758
Ga 8.07162876 4.59526437 9.58255259 1.40908028 -0.02133899 -0.10005676
Ga 20.48428221 4.68745124 9.59341066 -0.60877741 0.02879163 0.25052306
Ga 7.70629531 0.02926878 1.76050358 -1.97227196 -0.29458216 0.04404911
Ga 20.10141752 0.02035291 1.72942660 0.23160332 -0.99889025 -0.20503456
Ga 7.72325546 3.02893804 1.80542766 0.36456766 0.00140397 -0.41940482
Ga 20.11534771 3.06554736 1.72883426 1.51238986 -0.03079847 0.04577091
Ga 6.39585917 -0.01056223 7.45364058 0.84990201 -0.04341820 0.47050624
Ga 18.67820671 0.05242408 7.45592039 0.08943409 -0.15813245 0.79030441
Ga 6.33825071 3.13474196 7.44408850 -1.15577842 -0.20393810 0.77782227
Ga 18.74767586 3.11188724 7.47087621 0.08185202 -0.32204844 -0.09757443
Ga 3.28814639 0.02033227 3.92051118 -0.71524524 0.16409102 -0.91637096
Ga 15.67702069 6.15827296 3.94169301 -0.70409918 -0.13903772 -0.04248365
Ga 3.27380538 3.10310122 3.98941339 -0.08844707 -0.29904541 0.02483495
Ga 15.72246318 3.06778746 3.85683188 0.18724702 0.35514665 0.30167837
Ga 1.88304571 -0.02889902 9.56529158 0.31460637 -0.66468376 -0.06635830
Ga 14.35521321 6.18869441 9.66407432 0.75086594 -0.65928959 -0.56920506
Ga 1.87695863 3.05881966 9.50907853 -0.80676436 0.83415616 0.42150843
Ga 14.34274886 3.14610672 9.54111374 0.44138614 -1.31184167 0.24088848
O 1.95497652 6.15210942 0.65431134 -0.79787496 0.93342404 -0.32706191
O 14.23231785 6.15958505 0.66034119 0.92689612 0.33126504 -1.14193691
O 1.85452125 3.10334412 0.62614447 -0.21339233 -0.33333153 -0.57453603
O 14.26070180 3.13018665 0.62592723 0.02980220 -0.91288810 0.26787822
O 0.51647188 0.05124068 6.23587198 -0.41237390 -0.35701694 0.05090738
O 12.87126175 6.11571537 6.28110170 0.14097349 0.34945551 -0.35317857
O 0.47101307 3.04982550 6.23968219 -0.42158948 -0.78334046 1.77410274
O 12.85418647 3.01935183 6.26830228 0.75563643 -0.16271083 1.11125031
O 9.17799793 0.05561463 5.08840788 -0.51177288 -0.88080559 0.50615947
O 21.56945241 -0.03071526 5.03357838 1.11417367 -0.36700314 1.63949692
O 9.14226076 3.07288807 5.09992957 0.38169889 -0.81181288 -0.46318497
O 21.56213715 3.08603736 5.14089208 0.30940798 0.74194604 0.21837595
O 7.76653397 6.16246199 10.82064338 -0.65658301 -1.28050876 0.29762200
O 20.17763709 6.12480783 10.69563491 0.04877125 -0.22412915 -0.95906100
O 7.71921593 3.09904892 10.75857251 -1.49303775 0.05410522 0.37983296
O 20.20038453 3.04822403 10.72064450 -0.71637790 -0.35512924 0.17812128
O 8.02244515 1.53718621 0.59420397 1.70301540 -0.43173326 -1.14858103
O 20.45402027 1.62121596 0.66845332 0.14671167 -0.57132409 -0.12349259
O 8.05803772 4.64983746 0.59589594 1.08150622 0.38342292 -0.25865837
O 20.49854628 4.63654188 0.53160993 0.48348686 -0.57395612 0.99355100
O 6.68327525 1.54787404 6.27238147 -0.18659224 1.41573428 -0.09577527
O 19.07217977 1.51984518 6.29595867 -1.51950486 -1.30144923 -1.54676551
O 6.64673534 4.59932178 6.26858294 -0.26718651 0.26840270 0.09283295
O 19.10123456 4.55563622 6.24753724 0.89888852 0.83144743 -0.63584785
O 3.01195451 1.57896833 5.11559047 -0.21662576 0.58987585 -0.34522024
O 15.36408369 1.57344343 5.17167831 -0.00373077 0.33695869 -0.62674622
O 2.88089896 4.61945869 5.12441678 0.04911093 1.30677502 0.47060114
O 15.30097593 4.57730790 5.01499767 -0.40545629 -0.39951183 0.85551746
O 1.51233335 1.45733802 10.76026960 0.76253248 1.99183211 0.40403899
O 14.00106863 1.55444706 10.73491358 0.28243560 -0.47378321 1.06085399
O 1.56326091 4.59232537 10.80730580 -1.28381724 0.51242562 1.43697437
O 13.94241467 4.64314172 10.88805375 -0.56447779 -0.37281445 -0.26055568
O 1.37655224 6.07501473 3.31081856 -0.21050959 -1.72861898 -0.46631620
O 13.72063448 0.04589333 3.24466770 1.23507015 0.83540612 0.55926925
O 1.35532494 3.02496263 3.28011630 0.20556079 0.66560232 0.04356910
O 13.78128379 3.00659585 3.24473417 -0.38536941 -0.27796839 0.58922741
O 0.01021686 -0.06812761 8.94029498 0.34514654 -0.68349490 -0.97795592
O 12.40510351 0.03500593 8.98751773 0.76468009 -0.38197678 0.31768173
O -0.04989240 3.08791257 8.88334988 -0.39497370 -1.23798773 -0.40137019
O 12.42271467 3.04086767 8.90502809 -1.06085839 0.15479632 -0.45736337
O 9.70087093 6.20332228 2.48731532 0.75588268 0.08185949 -0.59932890
O 21.97586185 6.18109633 2.41578529 -0.11717770 0.29213936 0.27923640
O 9.56415716 3.03521871 2.42316644 0.21756064 -0.04806958 -0.99540216
O 22.04881741 3.10882779 2.48692602 -0.02977815 0.03153285 -0.34467166
O 8.18638654 -0.05699630 8.15325680 -0.11590582 -0.16733421 0.42541037
O 20.65010269 6.16588416 8.18253713 0.31380055 -0.03833774 -0.26856718
O 8.28039528 3.04823132 8.05384003 1.60399526 -0.56210941 1.01092099
O 20.60337897 3.12844488 8.25445033 0.62472744 -0.38707042 -0.32225471
O 7.50080727 1.48524303 3.26285807 -0.43586355 0.39778950 -0.42385466
O 19.98061309 1.56202520 3.16119706 0.65348797 0.57830675 0.21099519
O 7.56970758 4.66893932 3.19594443 1.25314078 -1.41176257 -1.59998719
O 19.97040054 4.65399494 3.27667002 0.25934516 0.68712626 0.01347881
O 6.20480701 1.57033522 8.86050233 0.58142730 0.76724039 0.47216632
O 18.62120792 1.55934083 8.92978496 0.41763626 -0.16002618 -0.85449175
O 6.23923967 4.64413689 8.91126963 -0.23450169 -0.02488692 0.04185032
O 18.56060800 4.63775121 8.93444925 -0.64128189 0.53103842 1.49165502
O 3.45370518 1.52540266 2.49022265 -0.68294353 0.61931969 -0.54949092
O 15.81816338 1.48886127 2.49672275 -1.04062475 0.46589332 0.48346752
O 3.44764376 4.56497413 2.50985622 -0.02666639 -0.41563659 0.65003721
O 15.85576411 4.56150486 2.49755580 0.32260284 -0.32130814 -0.50100567
O 2.03861031 1.58625689 8.11163633 1.13058983 0.20248382 -0.23456781
O 14.44482628 1.54251327 8.16564173 -0.58231963 1.17351437 0.63982562
O 2.13481480 4.64379941 8.16432461 0.04688974 0.71891342 2.05512009
O 14.45581007 4.64183636 8.10703794 -1.13113309 0.70404637 -1.27911379
O 12.02919825 1.51192855 1.41609019 -1.12701909 -0.89743053 0.48749912
O 24.39611480 1.52793799 1.49970898 -1.03114987 -0.49582923 -1.11134199
O 11.98992586 4.63026978 1.48537073 -0.72764115 0.93253679 0.16393240
O 24.38513660 4.57653686 1.47754430 -1.74273490 -0.01234996 -0.15202830
O 10.62999289 1.52497103 7.16486923 1.08862970 -0.96529817 -0.56058472
O 22.98662794 1.53674855 7.11954374 -0.08459897 0.92141626 0.53911593
O 10.60446466 4.61810252 7.10376924 -1.03169270 -1.00530951 -0.75813643
O 23.03798264 4.62273183 7.18937106 -0.11140476 -0.23469725 0.78794521
O -0.92895563 1.56808410 4.25648190 0.72179514 -0.89234041 -0.77106154
O 11.37941790 1.55999647 4.29255937 0.04464679 -0.28247097 -0.35990806
O -0.93167013 4.63070890 4.26530887 0.46855899 0.09440570 -0.53510282
O 11.49865733 4.59173324 4.27306274 -0.13385154 0.56702170 0.08483103
O -2.32285812 1.49725903 9.92436381 0.10286888 0.05674334 -0.82226296
O 10.06538997 1.51921533 9.86981683 0.04864631 0.98474220 -0.03881768
O -2.33068844 4.60626608 9.89139777 -0.37330401 -0.84515454 1.31265612
O 9.97334776 4.61752703 9.88795671 0.29464295 -0.31206225 0.47205370
O 5.75339169 6.16104164 1.48251776 -1.10763376 0.87211584 -0.37952792
O 18.16903698 -0.03316942 1.43027986 -0.44963480 1.21006221 -0.55058841
O 5.80813099 3.10875661 1.36933316 0.18397343 -0.15840485 -1.42379331
O 18.17862413 3.06988570 1.58538021 1.24143087 0.80312881 -0.82518214
O 4.42373229 6.11004909 7.19599891 2.09991947 1.41682829 -0.19555798
O 16.76297872 -0.05726005 7.17281359 0.72937613 -0.99706471 -0.21384863
O 4.42921341 3.03438148 7.16122587 0.74846481 1.94727051 1.03416180
O 16.80957138 3.02477254 7.19602270 0.17663466 1.01633919 -0.36773466
O 5.19788842 6.14819342 4.29333499 0.79443837 -0.08975466 -2.13041519
O 17.65123522 -0.02033438 4.29248008 -1.30538349 0.43116764 -0.33839869
O 5.21771108 3.04510990 4.22903827 -0.48486947 0.43013759 -0.07673037
O 17.58811575 3.03270805 4.19424742 -0.58193273 2.94959740 0.99483764
O 3.93823252 6.16483075 9.84567728 0.52305708 -0.83814185 -0.43627740
O 16.27637518 0.04498323 9.87886726 1.90400133 -0.19377750 1.23846951
O 3.82184253 2.98506564 9.89598870 -0.25363076 -1.06776404 0.98584360
O 16.15824837 3.08177799 9.96796305 -0.58196006 0.39190617 -0.36204908
159
Lattice="25.341789 0.000000 0.000000 0.000000 6.274281 0.000000 -2.826922 0.000000 11.616490" Properties=species:S:1:pos:R:3:force:R:3 Energy=-624.727139 Virial="-52.481189 -0.506957 -1.797972 -0.506957 -45.123801 -3.296203 -1.797972 -3.296203 -42.168491" pbc="T T T" defect_vacancy
Ga 12.73699592 6.24751539 4.60327292 0.54238358 1.17152909 -0.15842850
Ga 0.08931707 3.09330639 4.62206229 0.72907187 1.59038148 0.73138283
Ga 12.65918557 3.12079302 4.63120695 -0.19940271 -1.97858616 -0.58741915
Ga -1.37081995 6.25070481 10.45935480 0.21708319 -0.23593140 0.18414766
Ga 11.30081015 6.30358279 10.43923837 -0.09812186 1.57462031 -0.04837570
Ga -1.33934329 3.09421070 10.42956290 0.40691735 -0.53172073 -0.76872285
Ga 11.24838517 3.14633748 10.47046197 0.50091471 -0.28676144 -1.08497187
Ga 11.19356891 0.00322298 1.16746535 -0.18902273 -0.93399317 -0.08471130
Ga 23.95970830 0.06955488 1.14568007 0.60795774 0.37911085 0.62479387
Ga 11.26737451 3.26728890 1.20658766 -0.99121199 -0.51594348 1.26254933
Ga 23.91358904 3.15118948 1.22498891 -1.33559197 0.42194297 0.31364026
Ga 9.88481679 6.33711033 6.96050536 -0.71191773 -0.74178257 0.31511491
Ga 22.54974541 0.00012804 6.99345744 0.19231341 -0.67717598 -0.84155946
Ga 9.81813747 3.16646590 6.98038677 1.23477683 0.90768643 0.77230109
Ga 22.55529637 3.13208679 7.03480509 0.42768552 -0.42080727 -0.53413438
Ga 6.37189564 1.52944929 4.58236256 1.95015756 0.45152629 1.55766631
Ga 19.05160982 1.51260475 4.62237126 0.35702168 1.36663930 1.30247892
Ga 6.32875273 4.68844514 4.63260100 0.55873683 -0.92371911 -0.40662740
Ga 19.07400383 4.72771214 4.56098963 0.30591206 0.55590603 0.49175301
Ga 4.93831198 1.59369433 10.41693751 -0.27651009 0.80390541 -0.35297247
Ga 17.60790114 1.54075196 10.46427651 0.04071521 -0.39472240 -1.09180335
Ga 4.90044344 4.69311222 10.38672569 0.27452910 -0.33593196 -1.02722097
Ga 17.64231644 4.66234670 10.39408603 0.29231409 -0.10971187 0.09608684
Ga 4.89539594 1.57110670 1.17579134 0.73479779 -0.10200398 -1.10255933
Ga 17.56953019 1.49566646 1.21829219 -1.26934739 0.18503887 1.40373096
Ga 4.91844625 4.70669890 1.09357114 -0.08444891 -0.08835650 0.63438531
Ga 17.57464509 4.68081083 1.16935796 -0.02767464 -0.23387193 -0.36725524
Ga 3.49313548 1.61973579 7.07144493 -0.92893051 0.33309602 -0.13637759
Ga 16.21966985 1.55964067 7.06908282 -0.01316115 -0.91726568 -0.23480351
Ga 3.55012508 4.70723823 6.93014064 1.43397815 0.32828590 -2.74747015
Ga 16.12840105 4.62348372 6.97893576 0.25373441 0.11961081 -0.29383444
Ga 1.56607534 1.50402774 1.85743300 -0.29556493 -0.62279914 0.22606614
Ga 14.24538488 1.49345164 1.83255684 -0.70827615 -1.41383508 0.62439310
Ga 1.49578673 4.79091335 1.77202621 -0.90665748 0.41614811 0.56678344
Ga 14.19783695 4.68114592 1.82876640 0.88944668 -0.33517994 0.14976686
Ga 0.13346899 1.50183322 7.63511326 0.48928569 -0.05921967 0.48350553
Ga 12.79697463 1.54424894 7.69526769 0.22479533 1.17291299 -0.20995534
Ga 0.13521155 4.69084441 7.63443590 0.66025052 -0.46745346 0.01717401
Ga 12.84140862 4.71875208 7.53704820 -0.74660144 -0.74366867 0.48552338
Ga 9.67864293 1.55635222 3.93571503 -0.63788327 0.67136854 0.15383758
Ga 22.31562403 1.61420339 3.98994561 0.06580891 -0.47137849 -0.70300640
Ga 9.67250562 4.72013318 4.02805088 0.36223216 0.07191943 -0.44628192
Ga 22.38798111 4.76253296 4.00033975 -0.44184057 0.65592782 0.25861796
Ga 8.30249722 1.55581300 9.83851478 -0.57055900 0.44709293 0.95747093
Ga 21.01496451 1.58154389 9.73642280 0.23674632 0.72265141 -0.86137570
Ga 8.28196112 4.70141585 9.81967509 -0.42833170 0.06478754 0.02518432
Ga 20.93857560 4.71263475 9.81811186 0.72912927 -0.90430684 -0.63595057
Ga 7.87091390 0.01624394 1.83136948 0.13411591 -0.00997424 0.32122336
Ga 20.48488068 0.00078753 1.76927299 0.30416615 0.79444176 0.31171210
Ga 7.95575881 3.11357977 1.80790115 0.01288166 -0.03421753 -1.00197931
Ga 20.59453749 3.04370277 1.77662090 -0.51495447 -0.60002443 -0.49347967
Ga 6.54094452 -0.00145879 7.56981953 -0.14668282 -2.26367586 1.44156467
Ga 19.12538961 -0.05168107 7.60413131 -0.17257259 0.97405161 -0.49292507
Ga 6.47455615 3.20906770 7.59731781 -1.62653116 -0.63574716 -1.67349129
Ga 19.09895254 3.12929155 7.62876448 -0.48974229 0.48423968 -0.06843127
Ga 3.34695850 0.00029243 4.05330018 -1.60040770 0.33100651 0.89555768
Ga 15.98339782 6.26056512 4.04316047 1.18846721 0.54980756 -0.21858243
Ga 3.42439269 3.15417607 3.91536351 1.04681338 0.78403429 -1.20544550
Ga 16.06321382 3.17078781 3.99397485 0.46208745 0.12100670 -0.60333147
Ga 1.92678962 -0.02577417 9.82692827 1.04127388 -1.03451911 -0.04520502
Ga 14.63255916 6.31735527 9.78761588 0.65920764 0.65966899 0.80614487
Ga 1.96803001 3.09064602 9.84926176 -0.62975530 0.84808191 1.12271858
Ga 14.68764230 3.13920391 9.71952645 0.18229834 0.28706001 -0.12192084
O 1.96171379 6.35733848 0.62070733 -0.48273277 -0.46582999 -0.30152675
O 14.57628326 6.25377045 0.61224944 -0.88705248 -1.77822035 0.49715358
O 1.96754249 3.17265391 0.58385940 -0.23215378 1.64005651 1.46001461
O 14.55869614 3.15192399 0.61277873 -0.87142635 -0.55942459 0.38529538
O 0.51136079 0.01091967 6.49040067 0.43640970 1.05637264 0.80203111
O 13.18419084 6.25255689 6.43519927 -0.31342498 1.71653790 0.92526381
O 0.47833051 3.21816410 6.47724441 -0.41170810 -0.48619240 0.60423551
O 13.10449610 3.12258820 6.37189786 0.65119242 0.40241827 -1.78477681
O 9.33255697 0.00588077 5.21552297 -0.70556327 -0.12320413 -0.13484150
O 22.06102751 -0.05338806 5.18195954 0.61172604 -0.22237990 -0.53089950
O 9.35664738 3.14494694 5.12632204 0.37979767 -1.10274253 1.30834959
O 21.98288044 3.12875139 5.20849875 -0.19048558 -0.56232436 -0.22094591
O 7.89840497 6.24796131 10.98311712 0.78314301 -1.16986370 -2.14939603
O 20.54155993 6.24857360 10.99217302 0.41940262 0.00388691 0.17175003
O 7.89883665 3.11465855 10.96041665 0.18284075 -0.51761316 0.87904159
O 20.63517085 3.05518768 10.95959977 0.18561601 0.67024000 -0.93050407
O 8.30137025 1.60675337 0.66918500 -0.65933400 -0.09335228 0.22278747
O 20.97767927 1.53577386 0.68329098 -1.13366600 -0.73494040 -1.71212858
O 8.17069885 4.68664909 0.65228227 0.33950127 -1.57519767 -1.97216885
O 20.92236546 4.71450656 0.59685064 -1.11711386 -0.24236068 0.08352091
O 6.72235292 1.58689830 6.47282603 0.22608213 -0.01817669 0.74764034
O 19.51109301 1.57137692 6.45657884 0.09545050 -1.16661451 0.20278544
O 6.79925487 4.70083489 6.39895120 -0.01491665 0.08216965 0.52374168
O 19.54809161 4.61589342 6.42438242 1.23076092 -1.68361154 -0.18377823
O 3.08046446 1.57936374 5.12678993 -0.35740096 -0.88102780 0.39815747
O 15.69694496 1.60848360 5.18656134 0.56134366 -0.01955047 0.19987661
O 3.04357064 4.65204130 5.14867596 -0.54948861 -0.77803459 1.31775987
O 15.69417452 4.68102037 5.14530931 -0.46183720 -0.43600236 0.42250123
O 1.55048192 1.61459905 10.98555439 0.01251402 -0.45941184 -1.71053550
O 14.30345996 1.48480840 11.01879560 0.52559807 -1.14568118 0.28899806
O 1.55200289 4.68663275 10.99147505 0.01748117 0.08009761 0.06932383
O 14.34444734 4.78556890 10.97858920 1.03961178 0.55172762 -0.31812531
O 1.41592241 6.24929279 3.28614880 0.08507790 -0.61678865 -0.76592531
O 14.06551571 0.01449170 3.25820308 0.17960111 1.46461056 0.46519070
O 1.41956947 3.14566175 3.24586472 0.13290742 -0.36271043 0.10144431
O 14.08772080 3.10560768 3.35835690 -0.83941698 -0.10136291 -0.02719229
O 0.04141958 0.04136873 9.07908180 1.25702440 0.70404795 0.40653736
O 12.73885100 -0.01109683 9.05576243 -1.79417276 -0.65909204 0.21720883
O 0.08025839 3.17173612 9.04783982 -0.41207855 -0.26215652 -1.23935390
O 12.64688036 3.16324499 9.07116385 -0.12072023 0.20522270 -1.22634545
O 9.85173523 6.32661511 2.49457695 0.85680288 -0.14345561 0.16147023
O 22.48620298 6.38226567 2.55424294 0.74257167 -0.03852620 0.54012951
O 9.87413258 3.19367484 2.53876219 -0.03063152 1.59932930 0.75887313
O 22.57438818 3.07804779 2.54151923 -0.43064145 -0.29784152 -0.44993024
O 8.43276599 0.02264192 8.25053031 -0.25189468 0.27311909 0.46286274
O 21.04645744 6.26442270 8.35870547 0.40497830 1.76654069 -0.22240225
O 8.38827758 3.13138766 8.35967754 0.78819126 -0.78843776 0.43535423
O 21.10097302 3.18587753 8.37450594 -0.74146715 0.21721441 1.25353419
O 7.69720703 1.57215595 3.24851195 -1.83292789 0.24226258 -1.02328785
O 20.46564034 1.59564288 3.24399620 1.68731588 1.73193242 0.61180280
O 7.79322024 4.64271563 3.25395976 0.11230443 0.06800463 0.02217549
O 20.36615721 4.70605838 3.19504519 0.07917302 -0.89640909 0.40148324
O 6.31811293 1.51789712 9.06262344 -0.13891467 0.98952981 -0.85775538
O 19.04301064 1.57505744 9.18095202 -0.34615745 1.92907092 0.43008617
O 6.37629374 4.74355511 9.06258976 0.39731109 -0.50475224 -0.55245369
O 18.98346806 4.72553298 9.06249573 0.59993020 -0.32656218 -0.86518979
O 3.51511902 1.61800566 2.53058833 0.39886149 0.08911236 -0.29456542
O 16.12898980 1.58038706 2.52877089 0.77824316 -0.32371663 0.75306428
O 3.49730320 4.79384293 2.54443725 0.13820658 -0.13363440 -0.24893823
O 16.26893825 4.67070047 2.49945688 -0.20920181 0.84020144 -0.17596305
O 2.08056756 1.56757059 8.31980970 -0.46530645 0.25856571 -0.22213586
O 14.72274186 1.60938379 8.34383160 0.85675814 -0.16432790 -0.05367734
O 2.13665296 4.72042420 8.43083647 0.24482167 -0.05893863 -0.25265065
O 14.77361294 4.74098468 8.38843545 -1.11367902 -0.22092150 0.74876222
O 12.20766441 1.51844473 1.45199774 0.65437974 -0.54528065 -0.65880888
O 24.90674381 1.56253590 1.50448082 -1.19260933 -0.12385610 1.84523125
O 12.32394320 4.62929456 1.43163708 -0.56408067 -1.02439765 1.06290475
O 24.91366837 4.66713091 1.41695545 -0.29764509 0.33705467 -0.08538376
O 10.82943791 1.57940731 7.28382101 -0.10047243 -0.36918096 -0.47377256
O 23.49295594 1.56877738 7.23799166 0.84848957 1.18963698 -0.27676463
O 10.87498905 4.70235700 7.32696947 0.42072911 0.08007081 -0.10212959
O 23.51963102 4.63695434 7.28498675 -0.43921626 -0.81496401 -0.98510856
O -0.94713132 1.59587917 4.30893036 -0.74112698 0.77533554 -1.06934087
O 11.70903473 1.60595944 4.38681128 -0.83670635 -0.06713311 0.94890407
O -0.97315186 4.76990549 4.31317319 0.12727668 0.05300038 0.54332237
O 11.70438790 4.66597436 4.34967306 -0.28952171 0.01936403 -1.66813812
O -2.40362154 1.58539765 10.16970710 0.44492484 0.84718378 0.05497603
O 10.21943823 1.63182661 10.15050679 -0.19671943 -0.29343706 -0.06176027
O -2.39981061 4.65311089 10.10134069 -0.73443441 1.36210598 1.22528564
O 10.28931307 4.70969280 10.16657648 0.22710681 1.03582601 0.34161925
O 5.96012641 6.24356765 1.49469895 -1.53282514 -0.25367428 -0.08749572
O 18.59993803 0.04022813 1.50373732 -0.96686436 0.48034555 -1.16394648
O 5.91491067 3.16144916 1.47579199 -0.57981857 0.66746403 -0.29230334
O 18.62513781 3.14730657 1.52876123 -0.56756901 1.64995560 0.00923627
O 4.55205809 6.27556053 7.36501335 -2.17975655 -0.60300247 -1.11989728
O 17.15702013 0.00942461 7.30665590 -0.11099441 0.02314986 0.57597373
O 4.52263302 3.11471685 7.30100927 0.17121830 -0.35562104 1.44795108
O 17.16632294 3.07415326 7.29368306 1.02037501 -0.40886107 -0.34948907
O 5.34830947 6.23210723 4.31193526 0.51303503 -1.63569389 1.49647534
O 18.02200613 0.03487810 4.35881749 0.25397489 0.47817431 0.01151826
O 5.30352541 3.23755742 4.25960516 -0.37864281 0.72578340 -0.70131237
O 17.99888875 3.04639947 4.27917300 0.46589212 -0.30936190 -0.39411168
O 3.88337810 6.31861051 10.19549431 -1.05177861 0.43327905 -0.49183393
O 16.60516384 -0.01445113 10.03225240 0.70047161 -1.21035500 1.42099376
O 3.88859989 3.06267636 10.10014351 0.12324276 -0.71127938 0.57372780
O 16.57459046 3.14961947 10.11491700 1.89458140 0.50843950 2.86030566
159
Lattice="24.736261 0.000000 0.000000 0.000000 6.124361 0.000000 -2.759375 0.000000 11.338920" Properties=species:S:1:pos:R:3:force:R:3 Energy=-627.291675 Virial="-56.564782 -0.320467 -0.649557 -0.320467 -45.487206 -5.408607 -0.649557 -5.408607 -42.508470" pbc="T T T" defect_vacancy
Ga 12.36136101 6.11075919 4.40760675 0.40462831 -0.28042056 -1.00112326
Ga 0.00537137 3.06713327 4.48496700 -0.59380074 0.12148666 -0.59338423
Ga 12.45276914 3.01806230 4.48226771 -0.18389026 0.90875685 0.59511691
Ga -1.39723999 6.09764352 10.21669355 0.42716148 0.28865473 -0.00146508
Ga 11.06132477 6.09471214 10.15244842 -1.52490777 0.80572364 -1.06657251
Ga -1.41212121 3.11151550 10.21830328 0.14215459 -0.07415659 0.24857350
Ga 10.98927500 3.00164458 10.12450962 0.17115597 -0.25451727 0.85954237
Ga 10.98367517 0.02488977 1.07824940 -1.05879450 0.64608045 -1.21480199
Ga 23.32762311 0.07103054 1.15449608 0.91835245 -0.39461743 0.43799749
Ga 11.03426321 3.08492836 1.12600493 1.17573076 -1.71758915 -0.11294699
Ga 23.33153612 3.05447341 1.12168377 0.42808515 0.73197929 1.22537838
Ga 9.55508872 6.18458182 6.79364690 0.45420314 0.42386562 0.22382593
Ga 22.00785767 -0.01537634 6.83208277 0.18173912 0.06934140 0.93220355
Ga 9.61618859 3.03766268 6.85635023 0.09675363 0.54765437 1.43166654
Ga 21.88128589 3.08065144 6.73613275 0.90543429 -0.26274310 0.05601428
Ga 6.18847076 1.56620221 4.53284716 0.55714551 -0.50128601 -1.32597933
Ga 18.51834949 1.48297442 4.47873212 -0.83986105 0.44348217 -0.03009290
Ga 6.20326732 4.51122940 4.50654359 -0.31624448 0.61021182 -0.70260245
Ga 18.57913249 4.58232595 4.52626024 1.78089050 0.03098683 -0.12058766
Ga 4.82734595 1.50096291 10.10335575 1.59887865 -0.85865839 -0.25907070
Ga 17.19650454 1.48721401 10.14766113 -0.10227037 -0.75567354 -0.13333544
Ga 4.84192640 4.65387201 10.17816997 0.43538491 0.14806263 0.09993289
Ga 17.21209071 4.53341822 10.18463306 0.75988696 1.52181392 1.38952944
Ga 4.78843525 1.57800761 1.14125077 -1.70540001 1.10939622 0.75933494
Ga 17.13990133 1.57729140 1.15900922 0.29568205 -0.77398272 -0.22280498
Ga 4.74411706 4.69367933 1.12175884 -0.19842250 -1.10155248 1.12609790
Ga 17.15089692 4.60966743 1.17732328 0.68181500 0.00187740 -0.61965775
Ga 3.40298314 1.52692350 6.82125110 1.04598076 0.52535077 0.98931450
Ga 15.74050194 1.61353794 6.82814744 -0.36558387 1.92919494 0.02767625
Ga 3.43137517 4.57852546 6.82269701 1.53309016 -1.59137407 0.38539634
Ga 15.75805377 4.53597838 6.82408466 0.03532025 -2.00481546 -0.37733474
Ga 1.50954276 1.58170061 1.73035938 -1.01100591 -1.11279119 -0.46428904
Ga 13.87472459 1.49335717 1.83796204 -0.96703949 0.27297412 0.51061000
Ga 1.49488546 4.61759755 1.81853164 0.18419864 -0.65056577 -0.24703701
Ga 13.88957503 4.53175058 1.72612119 1.31198858 -0.26321224 0.12212757
Ga 0.18089735 1.47722444 7.46536773 -0.50091461 0.43451485 0.84702013
Ga 12.51881283 1.54621514 7.46828224 0.60575314 0.35318102 0.70709953
Ga 0.11070735 4.55320786 7.47506993 -0.20126880 0.50948376 -0.65271236
Ga 12.49040417 4.48573445 7.47560712 0.05004619 0.70451209 -0.67361777
Ga 9.41823595 1.55346555 3.94468944 0.59240671 0.26660753 -0.84138696
Ga 21.83355446 1.57260707 3.89616999 -1.39316949 -1.30933479 -0.69810382
Ga 9.52640732 4.55227410 3.88435295 0.22435511 0.21062291 1.12136397
Ga 21.85999889 4.58843141 3.94080855 1.78448611 -0.37035367 -1.49271201
Ga 8.06032108 1.61051232 9.64156437 -1.22262874 -1.61216252 -0.41369766
Ga 20.45828404 1.55851091 9.60165522 -0.46353464 1.03368032 -1.06862150
Ga 8.03176136 4.54017551 9.60899643 -0.23028033 -0.19137232 0.03214762
Ga 20.46302942 4.58693808 9.56058321 -0.49105250 1.70056829 -0.01226807
Ga 7.61297778 -0.00417061 1.74830390 -0.00351081 0.57500945 0.31238545
Ga 20.11866720 0.04604042 1.80760321 1.38658311 -0.95428428 -0.02233107
Ga 7.72742186 3.00280227 1.80626715 -0.44071673 -0.05405986 0.85145204
Ga 20.09650670 3.11435873 1.86493962 -0.51951944 -1.56157623 0.19123351
Ga 6.26716380 -0.01445788 7.41707976 -0.87285305 0.50185681 0.31642962
Ga 18.70573921 0.00290677 7.43952985 1.64266331 0.44149156 -0.52704556
Ga 6.37624814 3.02027624 7.41702862 0.25965596 0.86276443 0.20261442
Ga 18.65629275 3.05185395 7.39649602 -0.05760753 -0.20444476 -0.19125675
Ga 3.27864865 -0.00354465 3.86215815 -0.76840878 0.97780348 0.45632388
Ga 15.68009016 6.11675323 3.93420033 -1.17626610 0.87155404 0.15649539
Ga 3.26754225 3.06464459 3.86995683 0.15065018 0.13632207 1.09011731
Ga 15.64839881 3.09049104 3.86816866 -1.81207531 -0.00148877 0.58379223
Ga 1.91792499 -0.02971266 9.58606641 -0.13342270 -1.30465192 -0.87403231
Ga 14.24320232 6.15710861 9.56624745 0.14345612 1.15420890 -1.40741048
Ga 1.96305570 3.01133576 9.49394937 -0.49549492 0.27279714 0.33963216
Ga 14.24180937 3.00942449 9.50180352 0.41793420 0.95790676 0.77502873
O 1.89177710 6.12411417 0.59963283 -1.18765579 -0.20516486 -0.71520554
O 14.22592363 6.09371618 0.67455853 -0.01445489 1.24620542 0.98786169
O 1.84769179 3.02403493 0.64349051 1.85364558 1.14880254 1.04871421
O 14.21289380 3.14637971 0.60175937 0.82721578 -0.48897368 0.06965353
O 0.51582389 0.04912039 6.27085430 0.48763950 0.66596923 0.66809246
O 12.81005079 6.15039482 6.30276067 -0.73413315 -0.79132431 -0.72228586
O 0.44038934 3.01554511 6.19448603 1.49440758 -0.02957939 0.85145981
O 12.86960406 3.04670797 6.27664159 -0.02939890 -0.07613264 -0.00353646
O 9.05851491 -0.04117647 5.03813329 -0.29210628 0.11413171 0.82606012
O 21.46780526 0.00608229 5.07461901 -1.01354911 0.08774648 -0.05467109
O 9.21134290 3.06565484 5.10718446 -0.33789631 0.57765525 1.45367578
O 21.45621243 2.99425008 5.03973746 -1.06808348 0.17367863 1.03854978
O 7.68206472 6.12098983 10.69977419 0.68460297 -1.24282474 0.57290836
O 20.03639778 6.18414036 10.69321246 -0.31469112 -0.30373583 0.77578385
O 7.68276015 3.09511161 10.69250388 -0.81340874 0.23604651 0.85566421
O 20.16086338 3.01784671 10.69808822 -0.51083938 -0.74723415 1.88629738
O 8.05752182 1.54854008 0.64321113 -0.79865832 1.09713615 -0.37179657
O 20.41976411 1.55812685 0.64722677 0.15152372 -0.35290619 0.28880095
O 8.06545967 4.59079784 0.55455087 0.12809153 -0.82764320 0.04611321
O 20.43898858 4.59494753 0.60396171 0.74102787 -0.58235185 -1.61531721
O 6.72339878 1.47706170 6.34469323 0.21112185 -0.63695868 0.45102259
O 19.03999224 1.53720454 6.27235489 -0.32686498 -0.59665309 -0.05561670
O 6.60340314 4.58929302 6.30620848 0.26712758 0.28392322 -0.89350154
O 19.06839839 4.58866219 6.19413652 -1.12286866 -0.97788190 1.05994537
O 2.87782313 1.60566211 5.00544621 0.10771237 -0.72173386 -0.08465259
O 15.36262729 1.50166207 5.04922931 1.01835728 -0.90788979 -0.21116265
O 2.97388149 4.55643553 5.11672459 0.55814965 0.57863029 0.63994838
O 15.30937790 4.60052558 5.02913915 -0.77004657 -0.00409988 -1.79838754
O 1.57973737 1.58487814 10.71419496 -0.35270957 -0.50089083 -0.34753284
O 13.99297741 1.51040556 10.74966306 0.88754870 -0.17136688 -0.05287021
O 1.57897410 4.54274064 10.73011157 0.50082366 1.42318073 -0.55302398
O 13.92488700 4.56631441 10.73337964 0.52316856 -0.25122267 -1.13068672
O 1.37154878 6.12058430 3.20331543 -0.50677081 0.25062959 -0.07999125
O 13.72667455 -0.01313083 3.20784292 -0.40825242 -0.01664438 -0.10708406
O 1.34069449 3.16247143 3.15381160 -0.27791758 -0.82993882 0.58529313
O 13.73194145 3.03190249 3.28016942 -1.87607611 0.14105025 -0.49546280
O -0.06234767 0.01900090 8.89149070 0.56896146 -0.92480749 -1.75927435
O 12.37581898 0.05203272 8.91572590 0.34439633 0.80935849 -1.34597359
O -0.02820547 3.07763834 8.78773767 0.28149753 0.21926537 -0.66312501
O 12.36373067 3.02543139 8.85870503 0.45116682 -0.68947866 0.92551694
O 9.55237756 6.12596440 2.39286606 0.91199920 -0.33273926 -0.14311160
O 21.97298263 6.07148155 2.44054079 0.01863079 -1.52643891 -0.40006586
O 9.66464262 3.08058866 2.50142983 -0.04415979 1.78646637 1.08781419
O 22.04552930 3.02833070 2.52133242 0.16432589 -0.69401091 0.42928778
O 8.17885041 0.03165923 8.11934844 0.02686072 -1.07804741 -0.08227134
O 20.56206893 6.14090490 8.16732781 -1.12337043 -0.40413376 -2.49281793
O 8.27520224 3.08640741 8.15102595 1.09547768 -0.42095898 -0.74500277
O 20.62141695 3.08129419 8.15131293 -0.57062216 -1.33865027 -0.02799866
O 7.56238524 1.57141764 3.12606164 1.01914930 0.21575690 -0.17952886
O 19.92169576 1.46679910 3.21382352 -0.17304690 0.06399113 -0.20177615
O 7.61870225 4.56424903 3.19907693 -0.53357777 -0.00148968 0.31999787
O 19.95195891 4.52831698 3.18493605 -0.49873645 0.21354982 -0.85326671
O 6.18179230 1.43266820 8.82578857 -1.50269662 -1.54632084 0.38543677
O 18.58686384 1.57121004 8.88935608 -0.67895883 -0.07435832 -0.52246767
O 6.21702131 4.59763917 8.88968545 -0.37146122 0.10667461 -1.03691178
O 18.52798147 4.59653416 8.84018108 -0.59332782 1.13797157 1.64926599
O 3.48108951 1.59600950 2.51974422 0.05747762 0.13185038 -0.37536006
O 15.78381280 1.47740572 2.53589160 -0.92262184 0.60306307 1.07851555
O 3.45602617 4.59765521 2.45241481 0.31164614 0.41869697 -0.46166853
O 15.81524929 4.54485018 2.49114018 0.87939145 0.21787198 -0.36781422
O 2.10445512 1.59917880 8.16102502 0.80637348 -0.65947995 -0.65451159
O 14.35430154 1.54197898 8.22608767 0.06166457 -0.81491291 -0.70832287
O 2.01780869 4.59256967 8.18596161 0.45789942 0.14424494 -0.24391226
O 14.43931664 4.68842972 8.10786269 0.46879494 0.12422455 0.76755056
O 11.92166238 1.57193135 1.40809714 0.62258098 0.66276622 -0.72925158
O 24.31783070 1.53412818 1.50039722 0.66735845 0.04035378 0.50629256
O 11.99140785 4.59900530 1.44127334 0.00776027 0.62518915 0.01867048
O 24.38925976 4.75441258 1.46929990 -0.42512355 0.46514616 -0.15552350
O 10.58757973 1.48044531 7.08698374 -0.97343661 -0.16959657 -0.13281102
O 22.94465124 1.50926971 7.13160888 -0.34468411 -0.15920800 -0.44246559
O 10.65858198 4.63962594 7.13122530 -0.65059359 2.26920780 -0.62857821
O 22.90627698 4.64209326 7.12587577 0.18323569 0.09890758 -0.42106097
O -1.04757062 1.56247386 4.25465990 -0.52280787 -0.90273215 -0.91042721
O 11.29985268 1.49434860 4.22283335 1.22165492 -0.91152821 -0.63471073
O -0.95210593 4.57705469 4.17397862 0.66170130 -1.13997873 1.15974822
O 11.41681044 4.57457729 4.23603872 -0.14612244 1.04358508 -0.63054743
O -2.39900425 1.46913091 9.90746631 -0.63503023 0.55610678 -0.22293185
O 10.02026389 1.57258099 9.85969137 -0.69100589 0.66028821 0.00105359
O -2.38621888 4.64275949 9.82214985 -0.80942709 -0.08902919 0.42596473
O 10.05633319 4.64943347 9.91168888 -0.33570902 1.72300565 0.48792372
O 5.75741288 6.09032095 1.45129936 -0.18788287 0.04816531 0.78841991
O 18.10710477 -0.03478773 1.48987525 -0.55373551 -0.33401215 0.03914570
O 5.80098985 3.02565291 1.47704547 -0.37442934 -0.39159290 -2.25157741
O 18.16566147 3.12489688 1.46550519 -0.69390768 -0.19795131 0.79705225
O 4.45396318 6.13581590 7.16996127 -0.88482921 -0.09878509 -0.22566615
O 16.71692644 -0.00341165 7.12416584 -0.08859161 1.35128547 1.21938663
O 4.38765571 3.07824954 7.14550590 1.20470009 -0.91262129 -0.63735517
O 16.79328660 3.04780204 7.09463943 0.37811350 -0.95766031 0.75029902
O 5.25279395 6.13623719 4.18089269 2.55131273 -0.98221612 0.82703888
O 17.56158062 -0.06281830 4.22547235 -0.00967992 0.32871961 -0.10818659
O 5.20746840 3.04849596 4.28011124 -1.48471370 -0.47225736 -0.64988760
O 17.52927155 3.09143790 4.30269775 -1.16727153 -0.16609898 0.26349037
O 3.86772134 6.11672107 9.84036381 -0.87640807 0.42628484 0.14687104
O 16.14455584 -0.01222656 9.86539828 0.30328920 0.28699045 -0.36349175
O 3.79818968 3.04767959 9.88074394 1.83139303 0.43640808 0.86757471
O 16.21044200 3.01650722 9.85336808 -0.30435533 0.00713725 0.78848143
159
Lattice="25.175448 0.000000 0.000000 0.000000 6.233098 0.000000 -2.808367 0.000000 11.540241" Properties=species:S:1:pos:R:3:force:R:3 Energy=-629.010670 Virial="-52.912132 2.358748 -3.521351 2.358748 -43.240489 -6.067574 -3.521351 -6.067574 -38.918220" pbc="T T T" defect_vacancy
Ga 12.56662195 6.25440250 4.58180772 -1.26481824 0.79899897 -0.48547251
Ga 0.04083309 3.11056492 4.54980523 1.56527486 0.56829909 -0.44014514
Ga 12.60693564 3.06846466 4.60637056 0.05119710 0.15733027 0.25466089
Ga -1.42269615 6.26558680 10.34256175 1.00461526 0.41162315 1.31955644
Ga 11.24004688 6.18654707 10.33502620 0.39738296 -0.15684493 -1.22847990
Ga -1.37484883 3.16040062 10.42075537 -1.35842489 0.14917792 0.54382927
Ga 11.19035667 3.18528350 10.34587627 1.04465134 -0.50529342 0.05326557
Ga 11.21569258 -0.03471921 1.19831468 -0.76037581 -0.35251876 -1.83251267
Ga 23.66121350 -0.03845311 1.20251585 0.48108083 -0.59273632 -0.06710981
Ga 11.11703345 3.13035586 1.22639649 0.24659324 0.25661872 -1.06033908
Ga 23.73764501 3.07518605 1.16140852 1.10454107 0.59119918 0.39115441
Ga 9.72558853 6.22899851 6.95813898 -0.63767112 -1.29807249 -1.31307998
Ga 22.34245926 0.06909439 6.92565273 -0.27672803 0.11388507 -0.57164201
Ga 9.81970673 3.07431367 6.95787503 1.35356296 0.22626103 0.78986215
Ga 22.40041872 3.16270154 6.93941553 0.61526218 -0.87102939 0.78615009
Ga 6.32978365 1.57608060 4.56639567 0.25016884 -1.02955588 0.56979815
Ga 18.92463580 1.63142130 4.60515515 0.74758722 0.76662388 0.83252936
Ga 6.32847853 4.70093201 4.52865569 -1.23808622 -0.21264942 -0.44552736
Ga 18.91473209 4.63453639 4.56164173 -0.06656052 0.07034793 0.89190875
Ga 4.99042438 1.53953260 10.33195459 0.49172749 -0.67781103 0.71221731
Ga 17.54249724 1.51451201 10.33347860 1.19090883 0.23043272 -1.21344731
Ga 4.95835073 4.68051141 10.29796700 -0.62575682 -0.15825867 -1.30763537
Ga 17.51689160 4.65685459 10.41705804 -0.22062958 -1.03278355 0.62514034
Ga 4.85164431 1.59803178 1.25454355 0.43750855 -0.07582701 -1.01278333
Ga 17.42001640 1.55446285 1.19887893 0.12137517 -0.52462883 -0.55915000
Ga 4.83919527 4.68394903 1.17658836 0.77803352 -0.62037161 -1.11040253
Ga 17.44823908 4.67935499 1.19018226 0.52230342 1.40777125 1.27847297
Ga 3.47768219 1.53760231 6.92971837 0.51482558 1.65902422 -0.29337517
Ga 16.06065794 1.55285985 6.94078180 1.63029156 1.66411833 -0.28281338
Ga 3.48095499 4.60084962 6.92905655 0.22052349 -1.04410985 -0.82992730
Ga 16.04517911 4.64536373 7.01695182 0.34267135 -0.94553306 0.16294487
Ga 1.55366824 1.56916120 1.79047024 0.26017979 0.09739795 0.77368612
Ga 14.14393231 1.50783699 1.80507633 1.45583450 0.14178920 0.80879351
Ga 1.51934032 4.66559464 1.70892720 1.10137194 -0.36435566 -0.52834561
Ga 14.09701036 4.72681824 1.84551902 -2.04074635 0.34698771 0.85249472
Ga 0.20186956 1.61028016 7.60887394 0.25870081 1.68713523 1.23725560
Ga 12.71831205 1.51682473 7.62755165 0.56637295 -0.02179114 -0.68972833
Ga 0.15326558 4.77352405 7.56407964 0.00150576 0.41072491 -0.03814876
Ga 12.81670550 4.67106521 7.63536610 -0.33006851 -0.29872759 0.57563555
Ga 9.69550900 1.52111185 3.93862468 -1.45401999 -0.24511423 0.07255174
Ga 22.17920350 1.51079281 3.98576729 0.47114361 0.57227004 -0.16699759
Ga 9.62305718 4.67843210 3.97590289 -0.55371407 -0.92840980 0.94985683
Ga 22.14641900 4.72912048 3.94990603 0.38364329 0.17504100 -0.56586323
Ga 8.24231501 1.57969068 9.78118531 -0.98788737 0.94638412 0.00738006
Ga 20.80583949 1.47873998 9.72590272 0.29413201 1.45409334 -1.21040951
Ga 8.23072306 4.63282680 9.73435290 -0.70509045 0.30618826 0.51749002
Ga 20.80075176 4.62388921 9.75673611 -0.91890034 -0.05322640 -0.46804941
Ga 7.82273196 -0.01274199 1.79149822 -0.54881351 0.31873827 0.17425404
Ga 20.48791459 0.00471331 1.81938409 0.85888577 0.49622003 1.21401950
Ga 7.83089612 3.13558840 1.86826461 -0.74230425 0.33781183 -1.12918526
Ga 20.45360787 3.14643623 1.83606774 -1.42794972 -1.11907147 0.57321044
Ga 6.39213087 -0.03394436 7.57078692 0.06018101 -1.31966047 1.04501467
Ga 19.00179869 -0.04016870 7.50625978 0.66979441 -0.15878465 -0.20264305
Ga 6.39376207 3.10847843 7.58832375 -0.11948262 -0.99342755 1.87201800
Ga 18.99750594 3.12386505 7.56048220 -0.48646612 -0.17186673 -0.27181470
Ga 3.38246073 -0.00333548 3.99060245 -0.64897693 -0.74555227 0.25593621
Ga 15.93104454 6.17169445 3.95716440 -1.10528804 -0.85687589 -0.66247979
Ga 3.28407239 3.11571692 3.93177293 0.53034410 -0.81856367 -0.81342761
Ga 15.94179854 3.06267288 3.95418083 0.14544006 -0.93003291 -0.27759268
Ga 1.95376936 0.03915071 9.69479739 0.59682852 0.30790118 0.00809512
Ga 14.52040578 6.23912073 9.79549704 1.10490124 -0.35847927 -0.50488911
Ga 1.87673786 3.07533967 9.83478658 -1.52750441 0.00245300 0.48738303
Ga 14.50883242 3.04358428 9.70349564 -0.65604920 1.48405439 0.79840103
O 1.78930686 6.24265360 0.66219850 0.62042231 -0.99175676 0.21556450
O 14.45778902 6.20739366 0.65629451 0.17390442 -1.66263424 -0.03907471
O 1.84043117 3.07868757 0.61338358 -0.31444800 -1.41878413 0.37456299
O 14.44393109 3.10748954 0.58331541 1.52344688 0.57648649 -0.70300769
O 0.49911460 -0.00003327 6.42538342 -0.32732646 0.87554365 -0.68739897
O 13.07575123 6.23768034 6.33340874 0.16557121 0.00307831 0.12754576
O 0.52533824 3.10178972 6.40106258 1.21030199 -1.24440924 0.92384134
O 13.11579369 3.08268330 6.44873072 0.09720145 -0.09471554 -1.35123345
O 9.34598515 0.03290778 5.10781736 0.13164535 -0.34885310 -2.37493582
O 21.78888084 0.04454655 5.14542021 -1.21762463 -0.98523577 -0.82955594
O 9.25268428 3.16784235 5.11799093 -0.60970439 -0.69135388 1.23513336
O 21.85398555 3.13659542 5.09901519 0.74067887 -0.08654649 1.10058604
O 7.87912264 6.27263498 10.92996352 1.59949546 0.37365203 -1.07403623
O 20.52159603 6.26860878 10.90526219 0.18759076 1.12992896 -0.81448906
O 7.79236424 3.06926909 10.94254265 -0.11934724 0.73493557 0.93970167
O 20.41242475 3.08821693 10.92359002 0.57094778 0.28329906 -0.12301938
O 8.24532625 1.52888325 0.59760659 -0.56847007 0.78910218 0.73305921
O 20.78386869 1.57830753 0.62219360 -0.50056048 -0.57017623 0.99880191
O 8.24246589 4.64614847 0.62804149 0.69133589 -0.63151857 -1.33695113
O 20.79529495 4.65880374 0.66511171 -0.01823184 0.63178186 0.76014457
O 6.79671167 1.59296786 6.39817719 0.54260996 -1.25823718 0.02507128
O 19.39400661 1.52627542 6.37457081 -0.42174937 -0.61008665 2.09922287
O 6.83748803 4.70187901 6.36362787 -0.11457615 0.18369104 -0.25532967
O 19.38665945 4.58324395 6.37041335 0.43401566 0.91602113 -0.24086753
O 3.03012077 1.54562640 5.14351082 -0.13876829 -0.37851072 -0.83488447
O 15.45663710 1.55066050 5.15983612 -0.26317786 0.25811987 -0.00094586
O 3.01984143 4.70921867 5.13434137 -0.31342220 -1.52627585 0.25130412
O 15.57148384 4.61016102 5.12114403 0.01463369 1.20445853 -0.53699358
O 1.53050568 1.47482959 10.86636095 -1.23387829 -1.57890690 -0.54499453
O 14.23135052 1.55129825 10.91820988 -0.18565476 0.16758071 -1.29822511
O 1.56655669 4.59527628 10.94936296 -0.58408468 0.77538964 0.02069182
O 14.08493292 4.65993036 10.90718981 -0.40372929 -0.33126872 -1.29576204
O 1.39916448 6.20315036 3.18946303 -1.25719258 -0.45828227 0.95001864
O 13.94200965 -0.02834516 3.22818115 0.79079154 -0.16117116 0.46925941
O 1.42951448 3.06191717 3.27922032 0.20619900 0.89255380 -0.59165962
O 14.00588606 3.14474040 3.25001405 0.08291570 0.72744543 -1.03677908
O 0.02193353 -0.00488993 9.05662096 -0.18406776 0.16952269 0.31063713
O 12.52185064 -0.10290634 9.03962815 0.29293019 0.44565888 0.78166552
O 0.00689961 3.14340283 8.99865293 0.99432673 0.27803011 1.74303652
O 12.63880115 3.09307570 9.04041247 -0.49607827 -0.17455149 0.24802016
O 9.81437547 6.28699691 2.49173739 -0.73736181 -1.19760820 -1.06520561
O 22.33094435 6.16928502 2.58055586 0.81852710 -0.53980012 -1.08330579
O 9.80608358 3.12947212 2.62372613 1.39917798 0.28279808 0.14456583
O 22.38644848 3.06146769 2.49723863 -0.88220346 0.19972079 -0.42195247
O 8.34473406 -0.01398729 8.26748622 0.07950924 -0.04267426 -0.20241935
O 20.94153628 6.16918902 8.33756807 0.05093521 -0.74936439 -0.36032218
O 8.39682005 3.12344012 8.32067938 -0.75715946 0.28216780 0.54317330
O 20.98494014 3.13466332 8.30139916 0.51838828 -1.57244854 1.35785967
O 7.69370649 1.59181682 3.27793271 -0.30000122 -0.12757542 -0.06347112
O 20.28725460 1.54036271 3.32083566 -0.17426522 0.97269491 0.07890418
O 7.66801150 4.68023903 3.26725182 0.11375042 0.72965544 1.02861194
O 20.25102311 4.66058089 3.24858512 -0.93457314 -1.00253006 -1.55895881
O 6.25702067 1.51771694 8.99619502 -1.64502939 0.21928076 0.05442702
O 18.88270286 1.60891213 9.05412199 -0.14328307 0.24628936 0.22680914
O 6.18750753 4.69616459 9.00258383 0.83963428 1.34374190 -0.65301975
O 18.88791579 4.67286458 9.01517323 1.08543451 0.83965035 -0.64280392
O 3.48736952 1.56150640 2.56208148 0.04197752 -0.35021026 -1.35445787
O 16.07987917 1.58588655 2.56652627 -0.06743751 -1.30334358 0.03754598
O 3.52192652 4.59444422 2.56641756 -0.93100631 -0.26862097 0.64528243
O 16.06040113 4.69835410 2.47065579 -0.00502876 -0.64355620 0.18446493
O 2.03828162 1.64022729 8.23879899 0.45153228 0.76864781 -0.66111836
O 14.71126606 1.56605998 8.26822863 0.80304759 -0.14034783 -0.43642701
O 2.08720269 4.62447538 8.27320678 0.84166264 0.49632567 0.54679159
O 14.62725071 4.65488650 8.31866348 0.00978389 -1.43446006 0.37463131
O 12.18379000 1.49071949 1.51584161 0.35290500 -0.09085274 1.35906633
O 24.75731564 1.54235140 1.51472821 0.01206618 1.36133004 0.96037114
O 12.17261777 4.61542611 1.55715830 -0.62170954 -0.64904047 -0.23271457
O 24.77213188 4.67167879 1.45104061 -0.11903449 0.56707063 -0.45719993
O 10.81870115 1.53857144 7.17696459 -0.91515392 1.72945407 0.05532707
O 23.33358224 1.61090117 7.29216905 0.15910695 1.42170440 0.12694445
O 10.76523907 4.72615942 7.29422265 -1.91652100 0.41324612 -0.45843220
O 23.35149930 4.66343186 7.26756406 0.73264836 -1.40301118 0.19092819
O -1.02915935 1.56139233 4.30078521 0.58288371 1.16797480 0.81937418
O 11.53175997 1.54687544 4.29018331 0.69226494 0.03602419 0.02845062
O -0.95778975 4.60553569 4.26670324 -0.85419576 0.80957475 1.28534801
O 11.57064035 4.71326637 4.28743977 0.43241586 -0.65192241 -1.07162894
O -2.32450431 1.57675732 10.03621542 -0.46619683 1.29558002 0.18325516
O 10.19747798 1.54878577 10.09080612 -0.82523855 -0.23956469 0.70412089
O -2.44950477 4.63684784 10.07676780 -0.57297495 -0.33447457 -0.37906825
O 10.23296452 4.59014653 10.10763347 -0.76212258 1.59094997 -0.58818514
O 5.88203002 6.15633928 1.36554920 0.16705399 0.98707164 -0.03597710
O 18.42013884 0.00295717 1.48744452 -0.37240445 -0.07592788 0.05109030
O 5.90287821 3.10012171 1.43142346 -0.21385634 -0.30530610 -0.25379494
O 18.45317111 3.12025548 1.47758621 0.04021110 1.44793606 -0.27494708
O 4.45838083 6.26139209 7.23251360 0.58789850 -0.10054850 -0.71219264
O 17.03134238 -0.02021165 7.29523465 -0.96135531 0.30652539 -0.98165947
O 4.47016895 3.08705202 7.28359159 0.30183216 -0.22093519 1.39779823
O 17.16118929 3.11750591 7.29990882 -0.87198693 0.91936364 1.16067269
O 5.34283277 6.20672164 4.29765697 0.61246390 -0.36985260 0.33719280
O 17.82996642 -0.00116125 4.27400725 0.06877118 -0.06266925 0.77890256
O 5.29188666 3.09601229 4.28011055 -0.10062533 0.24967082 0.92514526
O 17.90885700 3.11278872 4.21549510 -0.11974361 -0.23234728 0.22285933
O 3.86269139 6.16583026 10.07100816 -0.43548902 -1.78236309 -0.34346291
O 16.50678187 0.01457263 10.03702830 -0.17346265 -0.87918014 -1.42863281
O 3.90479287 3.09627028 10.01480815 0.32093617 -0.47306641 0.56607268
O 16.50817944 3.15317677 10.09404286 0.32395848 1.26536875 0.51919153
159
Lattice="25.314617 0.000000 0.000000 0.000000 6.267554 0.000000 -2.823891 0.000000 11.604034" Properties=species:S:1:pos:R:3:force:R:3 Energy=-627.727929 Virial="-58.563516 -1.836688 -0.784011 -1.836688 -47.908384 -5.202387 -0.784011 -5.202387 -43.319548" pbc="T T T" defect_vacancy
Ga 12.70495101 6.26859784 4.58953174 -0.55875280 -0.42002823 -0.16739779
Ga 0.01219354 3.12377513 4.62934155 -0.67144818 -0.05090826 0.45961365
Ga 12.67630225 3.10444257 4.60125902 0.24628131 0.65034256 1.44965038
Ga -1.45390422 6.25590616 10.41340018 -0.47510014 1.22741021 -0.86256598
Ga 11.33178289 6.31983721 10.37805534 -0.02124163 0.75267351 1.07767603
Ga -1.38969977 3.13956486 10.40211037 0.58000271 0.51384976 1.04641990
Ga 11.24388503 3.11481740 10.48962669 0.10562258 0.50140695 -0.56758559
Ga 11.21685129 0.01662192 1.08687676 -1.21213107 -1.77201547 1.19951099
Ga 23.91913966 0.05381616 1.14831183 0.55704530 -0.47988852 -0.53333762
Ga 11.21080010 3.14854805 1.19749562 -0.43671880 -1.02858779 -0.73424638
Ga 23.90768387 3.11966824 1.26143166 -0.34151738 0.76560824 0.22247204
Ga 9.79140750 6.37516599 7.04217395 -1.23919330 0.85185075 0.66474721
Ga 22.51155985 -0.03948737 7.02925988 0.14422665 -0.02588771 0.36170270
Ga 9.84218208 3.04840370 6.93722658 0.13752539 -0.66505696 1.45644790
Ga 22.49096633 3.12934834 6.97402036 0.73768630 0.25275061 -0.67210591
Ga 6.38560679 1.53250163 4.59514578 -0.86154766 0.68288848 0.22763245
Ga 18.97859478 1.58593496 4.54286155 0.44109841 -0.88400499 0.01835455
Ga 6.32077566 4.63097307 4.59993695 -0.94577236 -0.39474300 -0.05890453
Ga 19.02970292 4.73068692 4.58148022 1.12565314 -0.64458100 -0.91416644
Ga 4.95238834 1.55082299 10.47328311 0.47203639 0.53219387 -1.21739598
Ga 17.58791454 1.44207889 10.44438445 0.49829391 0.82977311 -0.27586334
Ga 4.91715799 4.69369687 10.43113972 0.17235167 0.61015783 0.53403108
Ga 17.53485585 4.70152988 10.43408830 -0.05004438 -0.27769134 0.19038842
Ga 4.91740802 1.54062688 1.22973532 0.45423475 -0.25727518 -0.62679782
Ga 17.51063936 1.54580621 1.18443527 0.49832310 0.56075222 0.74087991
Ga 4.91224822 4.68598835 1.24128250 -0.30741400 1.16844010 1.83316419
Ga 17.56636035 4.70628018 1.20430062 -0.59259824 0.16494401 0.43821742
Ga 3.51963140 1.57981855 6.91797443 -1.57345145 -0.39211028 -1.00672707
Ga 16.19779047 1.56803119 7.02419519 -0.42229781 -1.15756518 -0.49271838
Ga 3.47093057 4.62620595 6.90558378 -0.16181068 -0.39333329 0.83252517
Ga 16.10736029 4.72616873 7.04212863 -0.15340381 0.39810535 0.28894675
Ga 1.57357704 1.52863647 1.78843898 -0.11618806 -0.22970464 0.59904785
Ga 14.27718517 1.51261985 1.90595584 0.53121974 0.84417677 -0.67969536
Ga 1.64046818 4.78793216 1.83656482 0.32187845 -0.16454587 0.05040886
Ga 14.20664643 4.70832093 1.85866482 0.61130637 1.21197374 -1.19690653
Ga 0.12390121 1.51931787 7.61250962 -0.62658678 0.72328655 0.30888462
Ga 12.77594076 1.61656450 7.59893581 1.31551807 0.65223792 0.14030813
Ga 0.15534148 4.73892107 7.67177180 0.46682638 1.61639950 -0.33038590
Ga 12.81654585 4.71856480 7.58315700 0.06693590 -1.17714058 -0.31244108
Ga 9.72178468 1.62120559 3.90509023 0.20966873 -0.21148470 0.17447236
Ga 22.41387435 1.54058775 4.00475546 -1.02976717 -0.30513954 -0.03014930
Ga 9.68726400 4.69977296 3.96724819 0.02080309 1.13107995 -1.40374966
Ga 22.30384686 4.72446076 3.97434007 0.79190142 0.48361954 -1.51492129
Ga 8.21408742 1.52205717 9.72842235 -0.78242163 0.33178074 1.30268965
Ga 20.90408691 1.59173342 9.74892453 -0.62084954 -0.25410273 0.07170546
Ga 8.30716706 4.69526737 9.77065544 -0.87091156 0.23909225 1.11138539
Ga 20.93092837 4.75926308 9.72880940 -0.36760383 -1.09184482 0.20186053
Ga 7.95490393 0.04193900 1.81914071 0.01944254 -1.51634160 0.82765028
Ga 20.59879937 -0.00651385 1.83768720 0.79914068 0.10147470 0.11610969
Ga 7.87025119 3.17296375 1.79603097 0.09885485 -0.10965895 0.21692824
Ga 20.53856192 3.16336855 1.86376176 -0.86663657 -0.18917318 -0.22857414
Ga 6.45013492 0.03123200 7.58160324 0.61399978 0.20455464 -0.09156790
Ga 19.05002144 -0.02749642 7.65644138 -0.04750770 1.20223796 0.31533718
Ga 6.48277668 3.11457976 7.63528314 0.02598333 -1.94233338 0.37903788
Ga 19.13531663 3.16283509 7.55525702 -0.91269041 0.33219552 0.62223705
Ga 3.35320058 0.00811794 3.93004028 -2.16602569 0.38071558 1.56076124
Ga 15.95577371 6.24761578 3.98302673 -0.12627449 1.28742676 -1.05695751
Ga 3.35240659 3.11503523 3.95958417 -0.74507123 0.35169517 -0.67863314
Ga 15.99875391 3.14553503 4.02523284 1.28820569 0.89670855 -0.57875849
Ga 1.85273062 0.02778270 9.77467933 0.36507611 0.87347244 0.63488824
Ga 14.62098873 6.31362539 9.75721383 0.85383740 -0.16436644 -0.45843440
Ga 1.98446531 3.07882383 9.78145810 0.60844401 -1.15214245 0.11028998
Ga 14.59032007 3.13831811 9.74100548 0.55150043 -0.69906279 -0.41660397
O 1.92804057 6.33092404 0.59441437 1.17602598 -0.65736844 0.03499767
O 14.58196480 6.29487576 0.61090244 0.05726475 0.29164219 -0.55225973
O 1.97541632 3.13167393 0.62129759 0.38070901 -1.07068561 -1.32653155
O 14.51430994 3.14155085 0.63749032 1.89505407 1.42474100 -1.22364361
O 0.51868980 -0.01947937 6.41153372 -0.10889632 -0.67754902 -0.03835821
O 13.15847267 6.31973622 6.45175199 0.16494083 -0.39104891 1.14389144
O 0.58232619 3.15445636 6.46391979 -0.76759884 -1.13762529 0.12907689
O 13.17330644 3.18818754 6.47953561 1.04624634 -2.31058816 0.49277449
O 9.29615571 0.03483514 5.18610902 0.07779324 0.58053580 0.85082361
O 21.98950235 -0.06951631 5.10777734 -0.38438564 0.67694256 0.10042674
O 9.31922661 3.07956836 5.16718550 -0.02674428 -0.52028738 -0.74438471
O 22.02042685 3.10958442 5.17533113 1.23502426 -0.65794503 -0.16260694
O 7.88428337 6.27545415 11.00221807 0.48751642 -1.16865967 -0.44203237
O 20.52794805 6.22759110 10.91454784 -0.61287814 0.09455679 -0.41207764
O 7.94979495 3.13727150 10.97034182 -0.37190036 -1.02528772 -0.24887364
O 20.58248512 3.13134178 10.98407503 -0.00395705 0.10725664 -0.68953734
O 8.21197509 1.53503890 0.62443211 -0.30227186 0.23945723 0.01711894
O 20.89328083 1.65534550 0.61648125 -1.23645686 -0.72381157 0.08670805
O 8.25741367 4.72261165 0.68270123 0.09179206 1.13183448 -0.00384665
O 20.85989589 4.75424108 0.62911852 -0.88305074 -0.67824091 0.06990247
O 6.92834606 1.58454953 6.37658172 -0.60901353 -0.26711672 -0.50643077
O 19.47818988 1.61359886 6.43844108 0.05944815 0.19382025 -0.03892407
O 6.82365368 4.73106969 6.42615056 1.02872934 -1.52691918 0.11423037
O 19.47812400 4.66626882 6.49786599 0.04678949 -0.03499299 -0.85015396
O 2.95931305 1.56598270 5.18639667 -0.53512554 1.19254600 0.60399895
O 15.66285674 1.52485484 5.13480317 0.41227936 0.68159249 -1.10619914
O 3.03872115 4.66534879 5.08829984 0.92106226 -1.15024095 -0.93734672
O 15.67970416 4.65432518 5.18292829 -0.24460074 0.67632375 -0.85902518
O 1.58164334 1.54731328 10.97216626 0.69407322 1.25543508 0.85389167
O 14.20379994 1.53773790 10.95932449 0.29050755 -1.03454792 -0.47900990
O 1.55009621 4.72124939 10.95994377 -0.75060676 -0.27481776 -0.19207030
O 14.19218445 4.68564343 10.97372895 -0.46798729 1.21303349 1.23639958
O 1.37978481 6.28265310 3.30398053 0.26097747 -0.02177080 0.55664988
O 14.14736921 0.04763980 3.21166623 0.11693586 -1.95036443 -0.24502905
O 1.38399062 3.11699009 3.30824479 0.06734374 0.62458536 0.66516382
O 14.03959952 3.10224369 3.22355820 -1.08320673 -1.10389839 -0.73045268
O -0.03385602 -0.02058870 9.07669349 0.03295121 -2.02652204 0.54414061
O 12.60406021 0.04192032 9.09330192 -0.56043654 -1.11950978 -0.71313270
O -0.06835810 3.14269308 9.00690018 0.78284566 -0.74602312 -0.62141438
O 12.70243969 3.19323519 9.07122967 -0.73848188 0.03567927 0.23605526
O 9.81060606 6.22605067 2.50011319 -0.33215870 0.55067283 0.86256412
O 22.47638767 6.31846436 2.57060717 0.57883176 0.26413850 -0.20472998
O 9.88218165 3.13537218 2.46672815 -0.36293424 1.09014818 -0.27390145
O 22.46632363 3.13320099 2.47087869 -0.04160618 1.65160635 -0.15702466
O 8.44222946 0.03406260 8.35119486 0.22647444 -0.20075482 0.86500469
O 21.10111832 6.18468004 8.37293973 -0.55691344 -0.06516329 0.65956416
O 8.36852180 3.14366510 8.36094434 -1.28842274 0.49034451 -1.07146692
O 21.09634081 3.08978952 8.27580444 0.17982610 1.15329840 -0.39997180
O 7.74233274 1.59409305 3.22147377 0.99897253 1.35009648 -0.17167178
O 20.40856043 1.49713133 3.30261432 0.97420106 0.00417122 0.25881521
O 7.69426792 4.69359261 3.26516924 -0.49595546 -0.76934245 -0.09497239
O 20.43391307 4.72852105 3.25681138 0.59967067 -1.04219052 -0.84346493
O 6.32579037 1.67045097 9.10173428 0.57061276 0.43077688 0.15275169
O 18.97401095 1.53354392 9.05721479 -0.66951181 0.44575490 0.20716501
O 6.35346764 4.66089868 9.07490666 -1.23548317 -1.08555878 0.60314996
O 19.03160854 4.70528016 9.02959346 -0.42252376 0.92372689 1.39582096
O 3.59787346 1.64153819 2.54221812 -0.73554443 1.51571967 -0.45109488
O 16.22058885 1.54031258 2.57188800 0.03514371 0.67407433 1.22713014
O 3.49762463 4.63748527 2.63936927 0.14165153 0.20042578 -0.63925785
O 16.11133794 4.70744132 2.53486486 0.95367638 0.69299538 0.74361196
O 2.11785436 1.56621444 8.31966357 -1.10955826 0.57605045 0.55998337
O 14.75202793 1.58914882 8.33076000 1.01981999 -1.84161348 0.63740571
O 2.09780926 4.64952631 8.40004113 -0.59631007 -0.02384720 -0.12116340
O 14.77308635 4.70487993 8.30245333 -0.95483340 0.48894746 1.82208220
O 12.20077294 1.59297412 1.48357880 1.30499663 0.82040000 0.60754579
O 24.91930089 1.51859873 1.55494359 0.09857473 -0.47853078 -0.27230455
O 12.28268769 4.68458163 1.51015023 0.21693061 -0.83190769 -0.96370921
O 24.93940639 4.64729776 1.54246874 -1.23520504 -0.69939462 0.34181737
O 10.85037725 1.54002369 7.23491561 1.34741784 -0.78102006 -1.23206095
O 23.52935011 1.57488816 7.31831452 0.05192510 -0.04390261 1.07522093
O 10.83607233 4.65694177 7.32480636 -0.15634887 0.80243032 0.61868730
O 23.48340625 4.69501649 7.38957334 0.53524802 0.21863942 0.97529412
O -0.96662630 1.60691302 4.42097189 -0.54816810 1.09139623 -0.06301081
O 11.67874154 1.56782946 4.29892018 0.09076717 -0.08682033 -0.70305301
O -1.02253648 4.62329842 4.33725087 0.30721205 -1.25403056 -0.48375713
O 11.60330210 4.73681536 4.31117096 -0.71770633 0.21729690 0.52387480
O -2.40447263 1.55714387 10.16363768 -0.74244917 1.81525547 -1.15250453
O 10.29258744 1.57043276 10.07606152 0.09492588 -0.51044073 0.43459501
O -2.37250745 4.65662706 10.05194882 0.34701456 -0.24738746 -1.20978116
O 10.26016450 4.75282585 10.09202175 -0.28768952 0.19392969 -0.30581694
O 5.93636266 6.24951580 1.52271046 -0.07928120 -1.98279627 0.16254271
O 18.62727918 -0.00674854 1.45721340 0.81259881 -0.86508559 -0.58037752
O 5.85175975 3.17638754 1.43844026 0.15021989 -0.71439917 0.50263896
O 18.58667501 3.16724853 1.45642021 0.83964787 0.08036536 0.27363452
O 4.50811917 6.29970928 7.26516006 0.64904376 0.09147615 -1.01961913
O 17.12408326 -0.00788343 7.34344755 0.31983822 -0.96022658 -0.34154464
O 4.56465027 3.12809987 7.25812093 0.60582756 0.88034622 0.81345817
O 17.21243626 3.05953382 7.30054023 0.10513086 -0.23994942 -0.07414757
O 5.32893891 6.31714468 4.37614367 0.23447305 0.87074438 0.41260821
O 17.94241375 0.01378246 4.29999564 0.66298703 0.32782454 0.31045859
O 5.32561135 3.16798400 4.30192236 -0.41239841 0.65328030 -0.29703546
O 17.99420622 3.17309303 4.37439177 0.17060286 -0.31805042 -1.70079437
O 3.92560115 6.26573720 10.07257217 -0.04128429 0.38045526 -1.10200548
O 16.64121842 0.02416258 10.12963175 0.61695694 1.23850141 0.20570237
O 3.91985158 3.14672095 10.14682179 1.41327339 1.32816777 -0.30675507
O 16.60541654 3.20213744 10.12138408 -0.77533800 -0.70877573 0.34735719
159
Lattice="24.613766 0.000000 0.000000 0.000000 6.094033 0.000000 -2.745710 0.000000 11.282770" Properties=species:S:1:pos:R:3:force:R:3 Energy=-629.032643 Virial="-55.111893 -1.316058 -5.211901 -1.316058 -47.056017 -5.731138 -5.211901 -5.731138 -41.052896" pbc="T T T" defect_vacancy
Ga 12.22882757 6.01900250 4.52624696 0.27248725 0.60668483 -0.69315139
Ga 0.05282644 3.06273290 4.39940124 -0.80438281 0.62219957 -0.82571353
Ga 12.34275605 3.01019877 4.47855011 -0.82495829 0.32277812 -0.42868500
Ga -1.33803019 6.11015079 10.09902053 0.41856368 -0.72814962 0.65320307
Ga 10.99911758 6.12493993 10.09254436 -1.88436057 -0.72434940 -1.13549050
Ga -1.37826318 3.01376801 10.12057875 0.06608092 -1.21331852 0.74451864
Ga 10.96424126 2.96831978 10.04701366 -0.87367639 0.75937132 -0.09103526
Ga 10.88920982 0.05700961 1.16464877 0.75095838 0.90362601 -0.53062328
Ga 23.28798005 0.00003747 1.12375477 0.03461617 0.58921157 0.07193999
Ga 10.85327351 3.01065188 1.13877879 0.95731578 1.03656060 -0.28078834
Ga 23.13063877 3.01082662 1.12004647 -1.53093373 -0.03799252 1.03585811
Ga 9.54724431 6.09229749 6.81170642 -0.32541722 -0.36292879 -0.35049510
Ga 21.79104268 -0.04332788 6.83630814 0.38410939 1.11350012 -1.58171143
Ga 9.53584398 3.08032130 6.79414548 0.50601212 -0.45045413 -1.24288849
Ga 21.86186813 3.06904240 6.77876829 0.70488690 -0.22720566 -0.52154020
Ga 6.14016957 1.49724673 4.48251350 -0.13031626 -0.78177592 0.44776810
Ga 18.50129336 1.50592062 4.53016698 -0.60048750 1.55967773 0.41057959
Ga 6.23512196 4.53462502 4.53229095 -0.39288248 -0.12864145 -0.88287034
Ga 18.47401702 4.58612971 4.47758034 0.38762593 0.50971817 -1.54735600
Ga 4.84330105 1.52898404 10.11647977 0.04475825 0.55768302 0.68462700
Ga 17.08934116 1.46973248 10.09756453 -0.37756769 -0.48472336 -0.04876123
Ga 4.84769197 4.61773332 10.10367920 0.54012452 0.37825027 0.16259707
Ga 17.06088281 4.60653268 10.14159162 -0.25193954 -0.65014596 -1.23057790
Ga 4.68806514 1.63645677 1.15757670 0.27180602 -0.35952111 0.17127018
Ga 17.13270850 1.53430569 1.11530333 1.99561475 -1.10849985 0.99362116
Ga 4.77251985 4.51017379 1.15409690 -0.76906185 -0.22357652 -0.52679935
Ga 17.02501942 4.56486476 1.17076169 0.00608212 0.46162421 0.27924884
Ga 3.40550435 1.46832325 6.77103058 1.42495013 -0.28816023 0.85159781
Ga 15.62796077 1.54479905 6.81120283 -0.28316273 -0.55976672 0.06397574
Ga 3.34362919 4.62540829 6.82169378 -1.12607097 1.10714059 1.21284117
Ga 15.69393788 4.55627045 6.77118269 -0.23555781 -0.97360902 0.56835410
Ga 1.48669801 1.57419743 1.78040027 0.16328658 0.70410835 -0.55205990
Ga 13.78702952 1.57359635 1.76782920 0.31076286 0.66405959 1.81710567
Ga 1.48532647 4.65136933 1.72711215 -0.54279712 0.86245644 -0.26016319
Ga 13.79360015 4.56411731 1.78475843 0.23494444 1.48941463 -1.03665960
Ga 0.11566667 1.43164969 7.41409493 -1.07794115 0.04006520 -0.17123837
Ga 12.41042912 1.50918523 7.38011971 1.65715681 -0.61092007 1.66043262
Ga 0.10397626 4.55882971 7.38431350 -0.01936861 0.84426940 -0.40084803
Ga 12.41999835 4.61160679 7.37296905 -1.21245541 -0.10879582 0.76207811
Ga 9.40274197 1.52568037 3.80209379 -0.43687174 -0.68827868 0.77266403
Ga 21.68005911 1.52360398 3.86767463 -2.39325253 -0.12188671 0.32112780
Ga 9.38452309 4.57096371 3.87615226 -0.85685208 -0.35489042 0.59808578
Ga 21.74842787 4.59994580 3.92379611 -0.07988561 -1.16030411 -0.02581306
Ga 8.04190781 1.46461403 9.49752212 -1.20980083 0.66652387 0.75365508
Ga 20.29498496 1.56260025 9.56160156 0.45169115 0.77582435 0.07559268
Ga 8.03899571 4.61640571 9.55516482 -1.37032634 -0.56451078 0.03665756
Ga 20.36293785 4.59430556 9.55074504 0.88131112 0.06198981 1.16115072
Ga 7.61440687 0.01334758 1.79178247 -0.81307382 0.82477445 -2.06851151
Ga 19.92511829 0.08269714 1.81939966 0.40180556 -0.72268289 0.47033098
Ga 7.71744408 3.06388540 1.73587056 -0.25871080 -0.48966217 0.26630708
Ga 19.92119821 3.04540652 1.79926852 0.81592529 0.45091207 1.64253890
Ga 6.32519550 0.06948492 7.39746547 -0.37522162 0.11031043 -0.59161578
Ga 18.59184096 0.00266970 7.36575819 0.14863633 0.78852340 1.19638634
Ga 6.36384759 3.03915629 7.43186755 -0.03219861 -1.22416494 -0.44208539
Ga 18.63724520 3.02097749 7.41986407 0.06193899 0.21764423 0.75821474
Ga 3.26403914 0.04207519 3.87467412 1.01744489 -0.41727124 -0.91155000
Ga 15.45338893 6.05145326 3.81243281 -1.37493635 0.07968806 1.37137288
Ga 3.33621254 3.10701455 3.78717724 -0.02775010 1.09745556 -0.90510533
Ga 15.53076649 2.99144136 3.87404297 -0.46147722 -0.17305216 -0.72099138
Ga 1.84955771 -0.00783599 9.45329665 -0.40074503 0.27991905 -0.05120795
Ga 14.21296381 6.02554921 9.61657168 0.51093277 0.26553347 0.31948805
Ga 1.95297145 3.14162472 9.52994544 -0.86815600 -0.32907238 -0.22726933
Ga 14.25809001 3.08534338 9.46960677 0.91728619 -0.16837527 -0.36612812
O 1.84277970 6.11091570 0.66184448 -0.57980093 0.77827488 -0.29289337
O 14.17061472 6.10949516 0.59222401 -0.81825338 -0.92361467 -0.90790716
O 1.85132052 3.00282175 0.62632752 0.71582348 -0.92424151 0.70464786
O 14.13141213 2.99825621 0.59600666 1.37937559 -0.17796584 0.68832227
O 0.49100929 0.03252756 6.25317280 1.37896922 -0.89569493 -0.09838768
O 12.81891224 6.15004020 6.23719751 2.20442986 0.27925914 0.45812667
O 0.53330297 3.01883028 6.21275137 0.98737886 -0.37331573 -0.02899606
O 12.74438508 3.00745938 6.23450368 -0.00742591 2.18250757 0.53444420
O 9.16026958 -0.01821027 5.01715029 -1.12660627 0.99142161 -0.07681590
O 21.39440062 -0.05146570 5.03210269 0.09698822 0.07753926 -0.50183873
O 9.10166156 3.11057420 5.09005247 0.73473495 -1.04691307 0.31687910
O 21.39751976 3.03715401 5.02218137 0.52308492 0.60503196 0.09248434
O 7.72391609 6.08822960 10.67422292 0.87694478 0.87181838 0.20274268
O 19.97757973 6.11124607 10.67356559 0.85213325 -0.57126393 0.87391877
O 7.67964382 3.10359630 10.67689611 0.79767541 -0.89349528 -0.11365073
O 19.96067218 3.06988854 10.63973361 0.55742814 -1.35965602 -0.49981702
O 7.98750405 1.50978349 0.64396742 0.12593136 0.63678683 1.37929413
O 20.31990762 1.55410511 0.55140066 0.63777319 -1.12335051 -1.26212272
O 7.97340302 4.57502101 0.58032356 -1.16651377 -0.17705256 -0.02329844
O 20.30575204 4.60035021 0.58530702 -0.68567411 -0.56709914 0.24507788
O 6.60983314 1.53096668 6.16278558 0.63844592 1.06425643 -0.59650376
O 18.98689548 1.52215994 6.26073991 0.53183750 -1.39734014 -0.50561515
O 6.61548295 4.59968608 6.25519978 0.15424346 -0.20880624 -0.69693646
O 18.99610171 4.50538469 6.25326092 -0.50027068 -0.18332304 0.20773937
O 2.92662847 1.52848744 5.08029047 0.64527694 -0.67755733 -0.52738293
O 15.17520001 1.47562157 5.01736486 0.35763290 -0.18184654 -0.48953388
O 2.85856975 4.65877928 5.06535001 -0.22392960 0.19274269 -1.17652688
O 15.25124162 4.59071666 5.06572696 0.20151080 -1.22826233 -1.21332431
O 1.52111007 1.49975020 10.68005447 -0.35018843 0.18754484 -0.46860555
O 13.83466874 1.49016692 10.64483731 0.03293497 0.20698008 0.65334289
O 1.56695580 4.59923481 10.61763377 1.75966330 -0.10010857 -0.27271412
O 13.84804745 4.57549965 10.61035151 -0.56500281 0.80274941 -0.78673420
O 1.37688782 6.08888102 3.15264025 -0.56199235 -2.13361319 -0.01645602
O 13.64298902 0.02297971 3.22550679 -0.69667866 -0.21001678 1.14201850
O 1.37326753 3.11730879 3.23890345 0.17026063 -0.19515567 -1.07337896
O 13.70926807 3.00890806 3.22795676 0.70599755 -0.75503895 -0.74821556
O -0.04023968 0.03182629 8.73981250 -0.62023441 -0.95531691 -1.63514794
O 12.28150406 -0.05334263 8.81173283 -0.30879296 -0.13670759 -0.03758732
O -0.07168346 3.05581796 8.83709852 0.16132107 0.78379288 0.19487669
O 12.27255704 3.02925021 8.83103425 -0.27877890 -0.12133183 -0.23504415
O 9.57027118 6.13343073 2.42112774 0.50562197 0.62259669 0.37039390
O 21.87975938 6.10064187 2.39872272 -1.02010941 0.93368721 -0.01498674
O 9.57431344 3.03845850 2.42360636 -0.44133438 0.72733436 0.89913826
O 21.94525264 3.09549507 2.41867967 0.42486460 -0.18048645 -0.30947801
O 8.22209111 0.03156131 8.10461223 0.49852988 -0.03460649 -0.47633613
O 20.45334865 6.04794373 8.11038735 0.29669221 0.63101852 0.39194382
O 8.21806774 3.05115684 8.15804085 -0.19698254 0.42354915 0.01764170
O 20.55806589 3.11320985 8.14883542 0.28423845 1.49987970 0.01909041
O 7.51618328 1.47669755 3.16245113 0.02585307 0.83810615 0.63633833
O 19.82367518 1.48942576 3.17166248 -1.56045356 -1.71736261 -0.24178272
O 7.46940383 4.58909393 3.24330221 0.52374293 -0.28566793 0.83551372
O 19.91832670 4.59812138 3.18308075 -0.39466693 0.49781793 -0.20736735
O 6.13519334 1.59532714 8.87473368 -0.32064814 -2.05678779 -0.26395045
O 18.44138151 1.57164606 8.83690188 0.24782475 1.07034912 0.89867691
O 6.12170037 4.56012504 8.89168122 -0.14447143 0.60892648 0.36825485
O 18.47766196 4.54889197 8.85906709 -1.70176626 -0.00866206 0.85527585
O 3.44211891 1.51514675 2.42247869 1.22207536 -0.63681964 -0.50537166
O 15.67744357 1.44228055 2.44633737 0.25551670 0.57998260 0.32073538
O 3.41015573 4.61221559 2.49846106 0.43439481 0.06274232 -0.68880055
O 15.72785001 4.49058785 2.46537789 -1.13699733 -1.07139527 -0.08406253
O 1.97333368 1.56126881 8.12846976 -0.95562117 -0.51926094 -1.06540329
O 14.34026196 1.55916293 8.14075678 -0.17557827 -0.54622840 0.94100309
O 2.04677168 4.56638720 8.03601390 -0.99256874 -0.26347149 0.40774010
O 14.32904718 4.52663393 8.05661572 2.11623894 -0.47894747 -0.66840553
O 11.87270339 1.43696307 1.48789649 0.25947722 0.16532495 -0.06501641
O 24.21400025 1.57557909 1.48381108 -0.18014985 0.65315299 -1.40609032
O 11.92753129 4.58980788 1.45618616 -1.24212084 -0.73399000 0.02856521
O 24.27232691 4.55024290 1.43370409 1.03499699 -0.11231490 -0.48729260
O 10.52001515 1.60545366 7.05198819 1.17104286 -1.13220919 -0.61722047
O 22.89104503 1.46853992 7.10094399 0.99756294 -0.34232264 -1.33511851
O 10.52776835 4.52617579 7.07565495 0.00650267 -0.06836433 1.10270103
O 22.86105929 4.55241717 7.05393361 -0.77999383 0.04762864 0.50103548
O -0.93775399 1.52553290 4.20601502 -1.30068087 0.46757590 -0.23303720
O 11.38417862 1.58159995 4.11487521 1.21432558 -0.70523109 0.32159051
O -0.98092332 4.50783996 4.29547217 0.55283172 0.87495910 0.76002063
O 11.33736152 4.60949048 4.16840273 -0.91960607 0.27910537 -0.30174760
O -2.35710103 1.55965603 9.84894744 -0.43750211 -0.58302357 -0.57268135
O 10.02770174 1.49470256 9.82334224 0.78135419 0.15740918 1.12551629
O -2.32223005 4.59223669 9.85089821 -0.04759059 0.95907138 -0.73587072
O 9.90379873 4.53614523 9.84203739 0.49291861 -0.13827063 0.59272362
O 5.69454498 6.05721950 1.45396599 0.92000000 -0.06197021 -0.27792739
O 18.03793946 0.01283309 1.45325140 -0.87112697 0.66870091 0.10338078
O 5.71489110 3.02186505 1.49393578 -0.95051269 0.95658766 0.04496334
O 18.07298767 3.05921899 1.43778971 -1.01184843 0.32093037 0.72756482
O 4.35347652 6.06386784 6.99942354 0.44471099 -0.07689348 0.40305951
O 16.65991340 -0.02333573 7.11238245 0.34477995 1.08264131 0.94413308
O 4.35150436 3.07677433 7.07448246 -0.54701823 0.60792674 1.84617046
O 16.70045485 3.03850460 7.11678167 2.97329612 0.75947100 -1.05571220
O 5.23136026 6.05245005 4.27110886 -0.19644712 -0.51630443 -0.47029327
O 17.44805377 -0.00049106 4.18198234 -0.18308000 0.50445334 -0.14413260
O 5.24988701 3.01382987 4.22454761 0.12016629 -0.84421403 -0.95625667
O 17.40014887 3.08056691 4.18670390 0.94290697 -1.37576959 -0.32226169
O 3.79071145 6.06001801 9.83410839 0.61304604 -0.42017250 -1.08422814
O 16.10462199 -0.05542142 9.81249378 0.28233879 0.31373233 1.11281147
O 3.83995683 3.02946870 9.80426060 -0.92284195 0.28377297 0.40148566
O 16.11271535 3.07038011 9.85773432 -1.60254492 0.73782836 0.62602358
159
Lattice="24.807685 0.000000 0.000000 0.000000 6.142044 0.000000 -2.767342 0.000000 11.371661" Properties=species:S:1:pos:R:3:force:R:3 Energy=-627.086763 Virial="-57.899778 -0.564533 -2.409614 -0.564533 -46.476221 -1.988565 -2.409614 -1.988565 -45.052782" pbc="T T T" defect_vacancy
Ga 12.46132172 6.04903780 4.57180950 0.68081947 -0.15302172 0.57688021
Ga -0.01567142 3.06645901 4.48333253 -1.06992589 0.09160003 -0.06232161
Ga 12.36507844 3.04305454 4.48472675 -0.61221834 -0.25698857 -1.10411936
Ga -1.41421399 6.19956590 10.16603663 -0.61796060 0.03457655 -0.58563878
Ga 10.95848970 6.05784522 10.22819276 -0.77716058 -1.15264263 0.56904757
Ga -1.43914226 3.06097025 10.28162095 0.64267245 -0.06893059 -0.11347734
Ga 11.03253388 3.07928035 10.18497460 -1.81912113 0.65823006 0.85624170
Ga 11.00800949 -0.00570701 1.17659606 0.48992696 0.60399081 -1.42434280
Ga 23.47415543 -0.01076464 1.13503892 0.15069619 -1.11619838 1.23583728
Ga 11.00334508 3.10620487 1.15921607 -0.81206981 0.17240499 0.05680071
Ga 23.42130682 3.08890990 1.24923732 -0.53752110 -0.61898918 0.42471305
Ga 9.65848602 6.10708580 6.76482193 0.73372672 0.37552431 0.71284110
Ga 22.03415711 -0.02611684 6.83340704 -0.21771543 -0.65250626 -0.68833581
Ga 9.58157633 3.05023468 6.83235673 -0.06488043 -0.11623297 1.68893915
Ga 22.02193233 3.04499711 6.82592442 -0.28899415 1.04142865 1.47604950
Ga 6.23664036 1.53635409 4.52115065 -0.10772022 0.06587801 -0.72919733
Ga 18.62193088 1.49837629 4.57676287 0.61806257 -0.05278538 1.04272977
Ga 6.29500134 4.65530759 4.44951766 -0.18384123 -1.34151845 0.51941424
Ga 18.59382022 4.63523115 4.48825162 0.40698631 -0.12274336 -0.67365311
Ga 4.80426741 1.47217242 10.19570722 0.44433354 0.32732862 0.71887032
Ga 17.20794418 1.43410163 10.24622018 -0.94226499 1.51653004 0.28767219
Ga 4.85335459 4.55702775 10.24380266 0.11439770 1.14121951 0.90597433
Ga 17.24463856 4.65082419 10.23356187 -2.26248046 0.22037319 -1.09580307
Ga 4.77365181 1.56000873 1.19467567 0.31019093 -1.52337315 -0.04619934
Ga 17.24130672 1.57926828 1.24917961 0.58275868 0.39071147 0.67190914
Ga 4.84040111 4.57349116 1.17535813 0.55775224 0.14414330 -1.52253957
Ga 17.16105235 4.65744555 1.13573588 0.93825317 0.53422806 -0.32326519
Ga 3.50966667 1.52704727 6.84861418 -0.55079534 0.85164426 -0.40496222
Ga 15.81213039 1.50326329 6.83547448 -0.35614728 0.02202269 -0.61611737
Ga 3.42660384 4.60587630 6.83954930 1.52973546 -0.91769651 1.07427168
Ga 15.83408409 4.58953511 6.85003271 0.75552725 0.45641510 -0.18229552
Ga 1.60086127 1.51634823 1.77122661 -0.95360016 -0.18208160 -1.10833185
Ga 13.89174632 1.52017683 1.80038442 0.76203473 -0.67543403 0.20062576
Ga 1.51293445 4.56300590 1.79932369 0.63712994 0.85521965 -0.48394490
Ga 13.95423332 4.62462643 1.73626464 0.43713872 -1.20338740 -0.73048856
Ga 0.20175139 1.51254415 7.43088917 1.00755618 0.58526194 -0.19059178
Ga 12.59135453 1.58896184 7.45831524 -0.13041333 -0.52493175 0.03505584
Ga 0.11517288 4.62318098 7.41467569 0.66881197 -0.89659022 0.85766242
Ga 12.65377898 4.56772531 7.48541373 -1.07111196 0.94868931 0.58399210
Ga 9.48057107 1.50242164 3.86277390 0.31999115 -0.87357529 0.19661067
Ga 21.94103420 1.55189257 3.87340579 -1.43657498 -1.08934006 1.60635879
Ga 9.46783649 4.57547946 3.93113991 0.59775796 0.34397114 0.15823608
Ga 21.93300672 4.63041231 3.91611562 -0.22173876 1.10429676 0.34378739
Ga 8.12599178 1.46619015 9.59527667 -0.85691240 0.56334748 -1.38912812
Ga 20.54877848 1.55008290 9.58369348 -0.99133310 0.33321887 0.13535760
Ga 8.07713775 4.58314024 9.56540824 0.73007068 0.60202025 0.90696498
Ga 20.52004451 4.58986548 9.51480655 1.23612499 -0.94082324 -0.03596576
Ga 7.76258675 0.02435047 1.79777145 1.12546038 -1.00797539 -0.92473113
Ga 20.10245577 -0.01343358 1.81044831 -0.47618203 -0.24276256 0.13925447
Ga 7.73492760 3.04362186 1.83977430 -0.72288526 -0.17249357 0.03707613
Ga 20.09540099 2.95399769 1.78884407 0.46940966 -0.17979852 -0.58837113
Ga 6.35835386 0.00340332 7.48434475 -0.37234294 -0.61425002 0.06036891
Ga 18.73055139 0.04342202 7.41575414 0.61218812 0.43014586 0.76455834
Ga 6.35257967 3.04814868 7.52047993 -1.49855312 0.05642014 -0.12940281
Ga 18.71946871 3.07795837 7.47054388 -0.80925520 -1.21193359 0.20612029
Ga 3.29789677 -0.02611183 3.91948864 0.00268781 0.49352326 -0.29172602
Ga 15.69145830 6.15053783 3.96590796 -0.14357411 0.66827694 -0.72957422
Ga 3.28944305 3.03466101 3.98214845 0.97768643 -1.49584224 1.52151427
Ga 15.73302930 3.09700427 3.88853275 -0.06392095 -0.39167614 0.12911212
Ga 1.93225443 -0.07949010 9.64514570 0.92402473 0.63694022 0.36942074
Ga 14.34344498 6.13363870 9.62626076 0.18074884 -0.32356373 1.19340782
Ga 1.93246347 3.02595190 9.58773699 -0.90902653 -0.38809559 0.21358726
Ga 14.32265247 3.06830444 9.57593891 -0.60888880 -0.00101721 1.45556415
O 1.90835571 6.14900461 0.69571990 0.42291468 1.81174802 -0.94830763
O 14.25639520 6.15164814 0.57348243 0.50591424 1.28614795 -0.66046461
O 1.90963157 3.04123036 0.62494277 0.35081395 -0.53441894 -0.54307956
O 14.30981281 3.07575731 0.58497933 0.63585574 0.33478231 -1.74909907
O 0.52117941 0.02025732 6.30646575 -1.09131447 0.59608111 -0.99551365
O 12.83813089 6.07399878 6.38796134 -0.35202924 -0.53166078 0.36816546
O 0.47532079 3.02980234 6.32670884 0.07212154 1.81962934 0.18254510
O 12.84215605 3.08593435 6.35531219 -0.04271665 1.01595905 0.78722156
O 9.11020903 -0.00919438 5.08908791 -0.18230137 0.65979458 -0.75255096
O 21.50803773 -0.03506241 5.06119531 0.56855455 -0.01610404 0.53623149
O 9.22532332 3.04119791 5.06587424 -0.42728235 0.28913838 -0.79909609
O 21.65064369 3.10189310 5.00065175 -0.70159409 0.88622907 1.00543910
O 7.75899810 6.16147378 10.81984455 -0.47332226 1.04431933 1.05380083
O 20.22836276 6.15475812 10.77432987 -0.85842415 -0.85867482 -0.11057247
O 7.71867616 3.04031554 10.70071510 -0.10382764 -0.62842179 0.79529654
O 20.21656409 3.07104590 10.75492905 -0.66607997 -0.99797969 0.14529509
O 8.12869581 1.55074094 0.65976475 -0.50178959 -0.53655395 -0.46980330
O 20.51257847 1.57557434 0.57747826 -0.73950300 -1.35362622 1.27739710
O 8.11967163 4.62870197 0.59777486 -1.04351062 0.67536168 -0.38211093
O 20.50134779 4.65795708 0.61837087 0.68505429 0.28511360 -0.21865886
O 6.66157130 1.51046796 6.24125219 0.80982410 -0.07008203 0.00226373
O 19.08911808 1.55251429 6.37566188 -0.49990706 -0.67839259 -0.87514843
O 6.65711429 4.62251453 6.31189475 0.03245623 0.28387683 0.63762764
O 19.09598596 4.54866383 6.25954265 0.07712350 0.35442197 1.81762001
O 3.02056281 1.56835124 5.07504115 -0.00129751 -0.23385894 0.80911111
O 15.36821343 1.57320698 5.05319856 0.03069453 -0.17972471 1.35823733
O 2.94110356 4.57786035 5.07438192 0.52761424 1.48444867 1.22588329
O 15.30452073 4.56876173 5.07463794 -1.01777214 0.36346225 -0.31961541
O 1.54375652 1.45609712 10.73522936 -1.13124075 -0.64788367 -1.32242455
O 13.98581258 1.54394149 10.68245927 -0.73467942 -1.40078258 -1.78793320
O 1.60520416 4.58886497 10.76607910 -1.55031221 -1.36138085 1.02293243
O 14.00658749 4.60877400 10.67364757 -0.84442475 0.53997322 -1.35427405
O 1.43986152 6.05286211 3.20201363 -0.12339341 0.88776055 0.33407030
O 13.82174715 -0.02630936 3.18597058 0.23441842 0.49509272 -0.65357681
O 1.36172767 3.05779745 3.18504329 1.80725529 -0.60757205 -0.45678212
O 13.76961398 3.10393422 3.18653743 1.38223043 0.65336358 -0.33215610
O 0.01052933 -0.03454353 8.96257768 -0.30039552 0.82502002 -0.74722002
O 12.43567617 -0.00099807 8.91834946 0.61549098 -0.04278296 0.55596644
O 0.05067859 3.03866867 8.84565496 0.02948085 0.25663974 -0.21349804
O 12.41041261 3.01430674 8.82967208 0.38840996 -0.15263558 -0.10496701
O 9.58344014 6.13334908 2.38641480 0.16539266 1.04818330 -1.23674209
O 22.01434461 6.00100180 2.49918610 -0.94609515 0.53719812 0.54915084
O 9.66642133 3.05740151 2.50981738 -0.98274374 -0.23052448 -0.10716087
O 22.07843500 3.03642204 2.43338301 -0.24382134 -0.06427686 0.83222546
O 8.29660124 0.02921106 8.15182088 0.60653041 -0.52914441 0.02782281
O 20.58837869 6.17115729 8.15567336 0.06794302 0.93195190 -1.30041855
O 8.26006202 2.97313349 8.19058039 0.93678153 0.89267780 0.53002020
O 20.65738300 3.05639916 8.11967148 -0.13975604 -1.07972571 0.70376091
O 7.58047152 1.56086495 3.18507883 -0.06381528 0.53670646 0.70311084
O 20.00685689 1.48045618 3.18590962 2.21254534 -0.40078084 0.01532017
O 7.60228492 4.58026765 3.27188146 1.45089290 -0.62589159 -0.25971387
O 19.99029973 4.57761926 3.15231626 0.83888040 0.29964336 0.07222110
O 6.21639505 1.52873325 8.92712813 -1.31226280 0.66601599 -0.92252878
O 18.57475974 1.54519025 8.88659048 -0.48944922 0.51215586 -1.55123021
O 6.20980185 4.63145958 8.89383919 -1.13424474 -1.34425405 -0.56011938
O 18.62058254 4.53721568 8.90769924 1.20047195 -0.37893848 -0.05949382
O 3.44137620 1.52909521 2.37601991 -0.74791203 -0.90182412 -1.31079364
O 15.77901399 1.52902686 2.50612778 -0.33857320 -0.13731103 0.28196421
O 3.46056020 4.59746007 2.43697169 0.43923719 0.23547905 -1.86944993
O 15.80271736 4.51714401 2.47788216 1.38043771 -1.03271221 -0.21723424
O 2.13144405 1.53469024 8.12575738 1.01890281 -0.05002110 0.63563480
O 14.45221382 1.53308835 8.09455359 -0.76807353 -0.05294854 -0.50478318
O 2.06864630 4.60386029 8.14607081 -0.42762418 0.34776176 0.48969011
O 14.53578435 4.59842361 8.23357668 0.35287623 1.05566425 0.07915821
O 11.96270468 1.46695961 1.42774265 0.37784576 1.04208666 -0.48750399
O 24.44287145 1.51084842 1.40612693 0.44303119 -0.11157295 0.41027916
O 12.01500162 4.57860983 1.48455700 0.68285730 0.12175218 -1.51687214
O 24.38407736 4.56971011 1.51218665 1.34637390 0.24453042 0.54782897
O 10.58084604 1.50336550 7.15148683 0.71167949 -1.03089417 0.16072632
O 22.90801102 1.56438498 7.22438473 0.25440364 0.40246708 1.69543044
O 10.65264190 4.56134820 7.12925626 1.37018567 0.45880756 -0.74724023
O 23.02346185 4.61645418 7.21297785 -0.24544839 1.46617615 -0.15169868
O -0.91857995 1.52979624 4.20454717 0.29329059 -0.22341812 0.86557772
O 11.39853200 1.55751984 4.28265357 0.34610144 1.24539060 0.16158903
O -0.98158931 4.61091135 4.30393511 -0.21020426 0.32089666 -0.03912854
O 11.44780468 4.52445703 4.22515425 -0.27899672 -0.62964346 -0.36759094
O -2.35328345 1.51684489 9.95624568 -0.59264982 -0.09712096 1.46394841
O 10.02587565 1.50073011 9.88111874 -0.55716492 -0.83232304 0.45517452
O -2.33423293 4.54738351 9.89188642 -0.52585966 -0.72194395 0.51831251
O 10.06905502 4.55547165 9.86431450 -0.91313071 -0.60386750 -1.56472183
O 5.73382496 6.10483950 1.44301823 -0.64210059 -1.18664051 -0.05306297
O 18.20184856 -0.03297848 1.45302513 -0.81901600 0.54423103 -0.63169967
O 5.83087784 3.08985046 1.53956388 -1.56996030 -0.49778829 0.07060861
O 18.17296864 3.05538223 1.45307247 0.16012252 0.35487247 -0.30453678
O 4.40377932 6.13333092 7.07464645 0.43312565 -0.00675310 0.63433711
O 16.80200100 0.03657133 7.22244714 1.15860943 -0.44313534 -1.31261341
O 4.46805449 3.07436622 7.15993713 0.25379134 -1.00348898 0.00159630
O 16.83926055 3.04152867 7.10627269 0.74321930 0.38816844 0.29192704
O 5.23387810 6.13552067 4.26739850 -0.06777826 0.88697113 0.22099187
O 17.52483567 -0.00000772 4.28462313 1.15109566 -1.47052907 -0.09268728
O 5.25351849 3.04102271 4.17654130 -0.27611789 -0.75412488 1.45641556
O 17.62442015 3.10343428 4.24805230 0.34019468 -0.20713690 1.46609249
O 3.84029257 6.16132996 9.92456936 -0.27544033 0.73994419 0.52393210
O 16.26978593 0.04174426 9.90364849 2.43335738 -1.78777443 -1.61858472
O 3.80258912 3.09872603 9.89294537 -2.17322725 -0.14556817 -1.68693393
O 16.15992691 3.13196754 9.91934949 0.76059747 1.40518656 -1.46041806
159
Lattice="25.313489 0.000000 0.000000 0.000000 6.267275 0.000000 -2.823765 0.000000 11.603517" Properties=species:S:1:pos:R:3:force:R:3 Energy=-626.845216 Virial="-50.835697 0.857708 -1.462391 0.857708 -46.833334 -4.926203 -1.462391 -4.926203 -45.071020" pbc="T T T" defect_vacancy
Ga 12.64274993 6.21071455 4.65827968 -0.26990461 0.07577702 0.03880791
Ga 0.01322226 3.09478568 4.55691628 -1.25869678 0.28565426 -0.40988086
Ga 12.71105244 3.16642393 4.55837035 1.22009709 0.12989296 0.25649317
Ga -1.36961895 6.23806588 10.44394234 0.03500187 -1.70688010 -0.13653302
Ga 11.19679851 6.26580424 10.43242079 -0.07157801 -0.28133230 -0.60753943
Ga -1.33644060 3.10185977 10.37105713 0.06885820 0.59624864 0.13000505
Ga 11.20156044 3.09253972 10.46573209 -0.05741882 -0.02723864 -0.15033179
Ga 11.19234880 0.01313122 1.19758856 0.78712858 -0.80415141 0.52780643
Ga 23.83820635 0.02695663 1.22632835 -0.73804406 -0.88125026 0.20001202
Ga 11.20829470 3.12194732 1.18089650 -1.17562088 -2.18505290 -0.26437916
Ga 23.84025516 3.14708280 1.18446589 -0.36437577 0.50464198 0.04465960
Ga 9.82548021 6.17953767 7.00573762 0.32912035 0.27305791 -0.69482521
Ga 22.52824926 -0.02243108 6.95666688 -0.61034909 0.56516963 -1.02518291
Ga 9.84596336 3.08286419 6.89395325 -1.65124355 -0.06024763 1.15944139
Ga 22.48179632 3.11011185 7.01914480 -0.24426722 0.63333776 -0.60076446
Ga 6.34429243 1.59360864 4.61808842 -0.49335112 -0.46291087 -0.30364319
Ga 19.03679133 1.69073445 4.59433414 0.52596552 -0.52569636 0.07449014
Ga 6.33245942 4.65465552 4.60179266 -0.59147706 0.55298199 -0.51143702
Ga 18.99966049 4.68430039 4.61362473 0.11644914 0.83621236 -1.02385488
Ga 4.93535535 1.56739911 10.40130140 0.74452328 0.37037818 0.70334767
Ga 17.52761741 1.58778423 10.39471844 0.58570999 0.37456840 0.96597609
Ga 4.96558510 4.68878819 10.36060083 0.47532542 -0.75484754 -0.90331879
Ga 17.57780996 4.62201764 10.37309822 0.16002328 -1.30505683 -0.57054362
Ga 4.88978889 1.51482609 1.18025027 -0.08143673 -0.60374886 -0.91449377
Ga 17.51097489 1.59285781 1.10904673 -1.28211892 -0.88278806 -0.07605487
Ga 4.91004698 4.69278578 1.16257062 0.67859836 -0.44847798 0.59683099
Ga 17.54563720 4.71703382 1.09686714 1.78035526 -0.62470510 -1.76382602
Ga 3.51350077 1.63368061 6.93475196 -0.14389818 0.29588746 0.98001603
Ga 16.22394344 1.59900644 6.96604344 -0.44864909 -0.14557555 0.16708597
Ga 3.49089532 4.67470168 7.00180131 0.04249191 -1.19711027 -0.34707689
Ga 16.21150559 4.72683205 6.97723668 -1.03768858 -0.27641187 -0.07065521
Ga 1.57692223 1.51444882 1.88321364 -1.54316130 -0.33599340 -0.36301498
Ga 14.21296478 1.55530711 1.83031247 -1.39808946 -1.31390744 0.35883363
Ga 1.54551705 4.66831117 1.83436569 -0.10026938 0.82074986 -0.71207340
Ga 14.20579474 4.64769563 1.86178812 -0.80503927 -1.02134902 -0.13039860
Ga 0.05095685 1.51502443 7.65536948 -0.45395710 -0.73696120 -0.38218535
Ga 12.79451248 1.61575324 7.66866997 -0.87028310 1.41830571 0.65929997
Ga 0.18944733 4.75956564 7.61013121 -0.99262737 -0.69624264 -0.81437313
Ga 12.80248424 4.70441568 7.66371753 0.67149407 1.07521859 -0.26146970
Ga 9.65775067 1.60675701 3.98287421 -0.50241555 -0.34280724 0.18587991
Ga 22.38255105 1.60487036 3.97513070 -1.22784913 -0.13777970 -0.39476961
Ga 9.74956419 4.73933640 3.90347584 -0.27766822 -0.32826966 -0.35036703
Ga 22.25959604 4.66283219 3.98456931 0.01476104 0.97135113 0.39079827
Ga 8.31141410 1.54980808 9.76657548 1.20415769 1.41294868 -1.36841792
Ga 20.93546124 1.63143985 9.79167096 1.46245316 0.82013162 0.12272082
Ga 8.25789524 4.65488840 9.73099443 -0.22485998 0.73414011 -0.13363448
Ga 20.86956077 4.72306784 9.79612144 0.51289459 1.85161231 0.08440800
Ga 7.91209908 0.03882795 1.82666331 0.29980324 -0.37120199 1.03507465
Ga 20.51270388 -0.02019828 1.83072228 -0.19161992 -0.25659861 -1.24446739
Ga 7.87593936 3.06082939 1.79579500 1.95540708 -0.08033521 -0.06774503
Ga 20.59590822 3.14491642 1.82619564 1.23869522 -1.27411396 -0.19431154
Ga 6.45035290 -0.05643714 7.62311329 1.81917559 1.21913472 1.39893125
Ga 19.14994880 -0.05514572 7.65678617 0.63111738 1.08234478 1.30388874
Ga 6.46350045 3.14975550 7.63444194 -0.14585383 -0.07689767 -0.58667779
Ga 19.12995746 3.24394099 7.64173222 -0.32044379 -0.31506347 -0.12838012
Ga 3.35836677 0.02846980 3.96848740 0.44981611 1.74979325 0.19808356
Ga 16.04265108 6.27285228 3.97666419 -1.01796756 -0.66079352 0.76211126
Ga 3.34043168 3.13085343 3.98372633 -0.45320830 1.24247513 -0.55260374
Ga 16.06205227 3.15059846 3.89125274 0.39369130 -0.47269503 0.21959068
Ga 2.00763445 0.02487526 9.87902705 -0.73452063 1.03679467 1.00653126
Ga 14.59703730 6.31217841 9.81741517 1.44574094 0.46910692 -0.50346200
Ga 1.95426791 3.18236815 9.76875021 0.26620815 1.03580380 -0.74399769
Ga 14.60479935 3.09300594 9.77147606 0.81626202 -0.00452225 -0.09937793
O 1.87485858 6.26914756 0.65814869 -0.98298554 0.11989120 0.35259788
O 14.58973553 6.26932294 0.65206725 -0.19166692 -1.12792058 -0.37759225
O 2.01903756 3.13113160 0.72343293 0.20110511 0.09136096 -0.33365999
O 14.49772658 3.04319336 0.68622287 -0.27235310 0.18257837 0.16640947
O 0.49666380 -0.05575681 6.44056484 0.54982736 -0.83159235 0.55145709
O 13.12304427 6.27976400 6.41641255 0.35225943 -0.65863755 -0.01179985
O 0.56053110 3.13902935 6.45422995 0.10417549 0.52894227 -0.19678495
O 13.13816501 3.15641669 6.42531476 -0.31502178 -0.11695540 -0.16981588
O 9.37957166 -0.05267966 5.18023783 1.22553430 -0.72189646 -0.29172717
O 21.97307748 -0.03791802 5.11629095 1.00269855 0.02218555 -1.90231221
O 9.29901022 3.15254259 5.19890072 -0.17971607 0.39990722 0.69456816
O 22.02309482 3.11488297 5.21285599 0.62536934 1.19241269 -0.04161301
O 7.92431713 6.29004438 10.98591994 0.78933052 -0.93399079 -0.47211493
O 20.55465827 6.20110211 10.91700316 0.73986825 0.01760382 -0.31684173
O 7.89058894 3.11091835 10.99768699 0.11024067 -0.13248357 0.13203527
O 20.62647284 3.16093673 10.84476440 -1.80969267 0.03239868 0.81808790
O 8.21287162 1.54981722 0.61010153 1.97259174 0.80569118 -0.42930741
O 20.83128895 1.61389119 0.70461534 -0.48579615 0.41109974 1.52746614
O 8.23177576 4.79228446 0.53387221 0.33003321 -0.08848027 0.40704446
O 20.84725323 4.68980980 0.66090349 -0.55392248 -0.22520701 0.75092188
O 6.83126286 1.52623289 6.45497992 0.33545984 -0.25155795 -0.14608624
O 19.50850238 1.53845754 6.41985081 -0.03598021 1.23310164 -0.12553307
O 6.78064185 4.72347855 6.39213301 0.14670777 -0.45682644 0.51026225
O 19.43355345 4.76882746 6.43213898 0.52391357 -0.52351333 -0.13530019
O 2.97926518 1.48212170 5.17153089 0.22651480 0.94421393 0.20192152
O 15.66331682 1.61937671 5.08037410 -0.05952537 1.03177299 0.27765642
O 2.98758359 4.71831111 5.16435969 -0.95990028 0.00674934 1.06255371
O 15.69208099 4.69973236 5.16607712 -0.72778128 0.25012021 0.65049532
O 1.61410621 1.50824087 10.98317218 1.29049461 -0.72419891 -0.14752156
O 14.26424536 1.65488016 10.88572002 -0.92342515 -0.22245926 -0.53559651
O 1.57999412 4.71419345 11.00713238 -1.20012057 0.79050759 0.30246151
O 14.24103997 4.69430339 10.96011343 0.56302141 -1.86026845 -0.24167401
O 1.45419735 6.26455233 3.25234681 0.23585089 -1.11106851 -0.69297776
O 14.02625885 -0.02817168 3.31041455 -1.65521010 0.04666010 -1.50270883
O 1.44200869 3.05959367 3.26476398 -0.65784498 -0.88653818 0.05187834
O 14.09891144 3.13361523 3.26129232 1.25221469 0.27251225 -0.16729785
O 0.02388562 0.05803531 9.06030215 0.38573957 -0.27071322 0.25973155
O 12.58738712 -0.00106614 9.03059775 -0.58624144 -0.19320609 -0.09861273
O 0.01823713 3.10024870 9.14784389 0.34924052 -0.06834938 0.60856474
O 12.60210327 3.12379257 9.08114109 -0.84463215 0.37252540 -1.06366548
O 9.81827755 6.24522365 2.52614968 -1.08590367 -1.36373125 -0.56012603
O 22.55701194 6.27747103 2.53509033 -0.35968052 -0.39436723 1.95370393
O 9.89308403 3.15582359 2.56246323 0.80567158 0.36330254 -0.61799025
O 22.46260531 3.07317097 2.58776256 0.57257505 0.84931768 -1.79204557
O 8.44994895 -0.01978108 8.28546934 -1.13358175 0.28691589 0.66958569
O 21.06331698 6.33466694 8.27008382 -0.49601421 -1.79526227 0.97838407
O 8.50508243 3.12610980 8.33551628 1.09697190 -0.35129884 0.54995996
O 21.08187793 3.14674673 8.25896102 -0.95117565 1.17929225 0.78916222
O 7.83026282 1.60288229 3.29891138 -1.17330632 0.26222667 1.55285673
O 20.39630574 1.56838169 3.29639707 -0.35964811 0.68817787 -1.48202726
O 7.74362566 4.65503512 3.24264650 0.29122108 -0.20181124 0.59436877
O 20.42607601 4.77535357 3.24910832 1.23771661 -0.65039198 0.56666016
O 6.30207210 1.57430040 9.10747749 -0.81263522 2.19371960 1.83616255
O 18.97048964 1.55401608 9.05016646 -0.37388887 0.19498511 -0.02396476
O 6.36409918 4.69385305 9.06199194 0.85105124 -0.43951263 0.46883299
O 18.97042798 4.76372091 9.08403153 1.13925849 0.44920383 0.63732003
O 3.57147951 1.53356562 2.52840309 0.13429023 0.68551909 0.04260841
O 16.16516045 1.65830718 2.54399605 0.72361371 -0.19924581 -0.01370696
O 3.48067049 4.70639059 2.55831166 -0.37677498 -0.04635437 0.09579599
O 16.22984427 4.68067201 2.57754111 0.67525235 -0.64798527 0.80447997
O 2.10493638 1.59148069 8.35096785 0.38474689 -0.64517789 -0.89010920
O 14.74444155 1.51379959 8.34045898 0.16592257 0.15711788 -1.08926096
O 2.08209358 4.65771683 8.32786679 0.62066443 0.49364855 -0.97597637
O 14.71463862 4.70446689 8.33058196 0.48955523 0.48603869 -0.06255897
O 12.23464183 1.52178920 1.43533407 0.30917219 -0.86247473 -0.11608372
O 24.90226630 1.62370962 1.52551085 1.45958765 0.76060291 0.23639585
O 12.19646615 4.67290216 1.48183180 0.97542690 0.51058120 1.75031941
O 24.85949932 4.67816127 1.43774831 -0.80324185 0.43909808 1.65857175
O 10.89437337 1.57681753 7.33828117 -0.08738326 -0.73550071 -0.16996909
O 23.50046111 1.62442374 7.24382662 0.59651393 1.53713853 1.18210634
O 10.88636316 4.69357310 7.30003342 0.26782852 1.00144510 -1.02275304
O 23.53170710 4.69379139 7.31464960 -1.14587723 -0.82654626 -0.51494524
O -1.03690003 1.64700316 4.28054659 0.63570316 1.19667442 0.82666180
O 11.62051358 1.52817559 4.27676107 -1.46322741 1.01739592 -0.12312561
O -1.07669134 4.70883274 4.25718627 -0.03390485 -0.76090607 0.11411934
O 11.62595548 4.61595975 4.37593598 0.16080038 0.70109135 -0.40814279
O -2.38891391 1.47548645 10.10070199 -0.45059939 -0.93753353 0.12961695
O 10.23616296 1.56529450 10.12608008 0.95543823 -0.01352897 -0.96488398
O -2.46988676 4.65619269 10.09309490 -0.04177621 -0.28200794 -0.29812698
O 10.26063215 4.68954511 10.11602485 -1.90569147 -1.20664730 -0.14584856
O 5.86980856 6.23642404 1.52209195 1.26440603 -0.30714769 -0.50877763
O 18.60418208 0.01566850 1.52955789 -0.64260518 -0.44334344 0.76880994
O 5.93310523 3.11854395 1.50616183 0.21935046 -0.13529855 -0.35270233
O 18.57598407 3.12553029 1.46096101 -0.01022930 0.22748416 0.33228636
O 4.55688888 6.28925678 7.27848202 0.93972897 -0.08778371 1.28138371
O 17.13268110 -0.01957293 7.32200562 0.97106467 0.92690244 0.00940934
O 4.46060520 3.12766755 7.31210457 -0.92539149 -0.26156533 -0.24848766
O 17.18614446 3.14483811 7.23038792 -0.44824481 0.57193139 0.27445776
O 5.34628705 6.23512749 4.30215365 -0.25492479 -0.44482473 0.26661311
O 17.91659474 0.04655404 4.34489773 -1.44569099 -1.45567324 -1.02794861
O 5.31053824 3.15916428 4.34677884 0.36145312 0.38857506 0.44043712
O 18.03602522 3.15678489 4.29497704 0.54754092 0.21624759 0.02783520
O 3.87117253 6.34726209 10.10292768 0.55113687 -0.41474570 0.12086431
O 16.57642023 0.02131325 10.15958763 -0.31838963 1.09317281 -1.18958888
O 3.90992159 3.17154486 10.21896621 -0.87427848 -0.22829515 -1.00091794
O 16.55918888 3.16192629 10.07622483 -0.65013825 -0.57507389 0.55012282
159
Lattice="24.826084 0.000000 0.000000 0.000000 6.146600 0.000000 -2.769395 0.000000 11.380095" Properties=species:S:1:pos:R:3:force:R:3 Energy=-626.811589 Virial="-53.384401 -3.188343 -1.296186 -3.188343 -45.243812 -7.221824 -1.296186 -7.221824 -44.593834" pbc="T T T" defect_vacancy
Ga 12.43460585 6.12255173 4.44540741 -0.18609062 0.37223841 -0.22684414
Ga -0.00816241 3.02782152 4.54205847 0.67033116 0.12307238 0.09290486
Ga 12.48187962 3.08803078 4.54793705 -0.45559706 -0.34612807 -1.37139083
Ga -1.40551650 6.16775211 10.19242280 -0.01519655 -0.21682557 1.29115594
Ga 10.97175828 6.13852630 10.22915229 -0.63145286 0.68670477 0.09215996
Ga -1.32584028 3.05592961 10.16701099 0.79967991 0.26144676 -1.75857002
Ga 11.04752182 3.06486939 10.18954401 -0.84402296 -1.01796585 -0.34265081
Ga 11.02493987 0.04480215 1.15927514 0.54595027 0.26499206 -0.79602369
Ga 23.53833596 -0.04157439 1.17292634 -1.43204608 -0.66064091 -0.33584616
Ga 11.03475574 3.00293673 1.17678035 0.55031488 -0.67001804 -0.23306252
Ga 23.37012732 3.04278926 1.13239724 0.94614644 -0.27201519 0.10133490
Ga 9.59643742 6.25449732 6.84731807 0.12000718 -0.12625071 0.47768693
Ga 22.06993620 -0.03823385 6.87145426 -0.56717947 -0.87288934 -1.10415296
Ga 9.57356547 3.15883207 6.88318548 -0.31772672 0.58465268 -1.27242017
Ga 22.06041428 3.05833953 6.86915969 -0.47622664 0.18645025 -0.02087614
Ga 6.29175804 1.52965836 4.53628096 -0.08220280 -0.13005258 -0.59299909
Ga 18.58821605 1.58598823 4.52892060 0.13086548 0.25837308 -1.36582338
Ga 6.23594925 4.57000542 4.47715695 -1.65368156 -0.28348744 -1.31583335
Ga 18.61918698 4.63462241 4.53922386 0.11562559 0.78013071 -0.30659651
Ga 4.84371506 1.47577274 10.17022402 0.85234687 -0.15833779 -1.30652592
Ga 17.25580291 1.42966502 10.17376495 0.42411080 -0.12897402 0.23735622
Ga 4.85688335 4.67720444 10.21795082 0.16774682 0.47850603 -0.11495305
Ga 17.28769582 4.64045551 10.18385857 -1.82165498 -0.60423226 1.20422830
Ga 4.87872870 1.55958058 1.17584223 -2.08664931 -0.13329363 -0.75376222
Ga 17.26780204 1.58059064 1.19654363 -0.13747685 0.67318942 -1.00310639
Ga 4.74552067 4.62374476 1.17441507 -0.14319658 -0.63502555 -0.73234429
Ga 17.21581849 4.64239063 1.14430755 0.40605419 0.11824346 -0.42201083
Ga 3.46119506 1.53545530 6.88375249 -0.10350154 0.56950733 0.69740740
Ga 15.78341780 1.54165711 6.78191106 -1.28897052 0.03988251 0.06720292
Ga 3.47319567 4.61843091 6.84881737 -0.25942963 -0.30721338 -0.98965646
Ga 15.85320566 4.61071809 6.80890387 0.26729502 -0.48411640 -0.39839980
Ga 1.52271296 1.52156671 1.75085062 0.06312432 -0.76774234 0.07227520
Ga 13.92362582 1.52291333 1.82502378 0.13891001 -0.35014554 -0.09143504
Ga 1.57743748 4.63154315 1.83999797 0.92349853 0.19819245 0.74791553
Ga 14.00977775 4.70374277 1.74673757 -0.26827406 0.12184348 1.11224373
Ga 0.17962994 1.56464498 7.49091062 0.59582570 0.43432293 -1.18661857
Ga 12.53709237 1.56987541 7.55066080 0.46961120 0.12654870 -0.62761951
Ga 0.21238530 4.66938302 7.47889893 0.81180387 0.46131274 -0.22152823
Ga 12.46863275 4.61571323 7.45586416 -1.06515029 0.03635975 -0.45820743
Ga 9.58655016 1.54607256 3.89283064 0.22341063 0.37248677 -0.19522592
Ga 21.91628100 1.56200451 3.90331018 -0.17323546 1.31603125 1.17808167
Ga 9.49782076 4.65502861 3.83278804 -0.02603984 0.13561380 -0.11069238
Ga 21.94036355 4.59683388 3.95543875 -0.16377797 -0.24465575 -0.40446957
Ga 8.10389110 1.50659719 9.60209627 -0.49937468 1.30207693 0.09476618
Ga 20.49847440 1.60062563 9.60398784 -0.97966189 -0.30486524 1.18695499
Ga 8.06835327 4.58457940 9.59005709 -0.07389885 0.04821596 1.94544970
Ga 20.52150826 4.62237238 9.53876869 -0.04808358 0.57382062 -0.10321677
Ga 7.81215819 -0.01605510 1.75313933 -0.61400476 0.27411011 -0.55076519
Ga 20.11333083 -0.03392923 1.82237100 0.58968309 1.09413715 -0.60792768
Ga 7.72156279 3.01609344 1.76953684 -1.04510277 -0.15451756 0.14860018
Ga 20.15636513 3.10539521 1.73395772 0.77824416 0.32331794 -0.03439742
Ga 6.26178638 -0.04519795 7.55194688 0.33269709 -0.37459803 -0.61451447
Ga 18.67443801 -0.04325331 7.48418697 -0.91419251 0.02065114 0.39793405
Ga 6.45353471 3.05688951 7.49844071 -0.80580458 0.25600098 -0.14286006
Ga 18.81580073 3.03730378 7.53942016 1.22945701 -0.48857066 -0.46576935
Ga 3.25565304 0.03186244 4.01300111 1.16289138 0.33230564 0.04278005
Ga 15.67529486 6.13754358 3.88825772 0.30054249 0.39295956 1.15658439
Ga 3.28272935 3.05830313 3.93512248 0.89986882 0.84146198 0.55883610
Ga 15.70987383 3.08654783 3.89546848 -0.85805247 0.26270263 -0.93850755
Ga 1.90082645 0.00670728 9.59210841 -0.65529159 0.69279037 1.06478398
Ga 14.30465990 6.17476998 9.59191478 0.04803838 -0.67714041 -0.50542332
Ga 1.93121980 3.08413142 9.65204444 1.05344133 -0.39675475 -0.08855670
Ga 14.27065468 3.07827411 9.60802548 1.01661566 0.01617037 -0.62119530
O 1.90560685 6.12963816 0.66878207 0.10038445 -0.08714579 -0.95649884
O 14.21395756 6.14544710 0.67584243 0.16137172 -0.08011059 -0.04753614
O 1.88362142 3.07163468 0.65560850 0.11931354 0.70147425 1.19508427
O 14.26767569 3.01509406 0.65109776 0.72483472 0.18335127 0.84487226
O 0.45130821 0.03389948 6.35086617 -0.58845983 1.50212672 0.35841613
O 12.93921600 6.16477750 6.33278790 -0.57257273 0.35131516 2.09807000
O 0.49338478 3.11798822 6.36176404 1.63572574 1.46203873 0.18456039
O 12.93230656 3.10187939 6.27536712 0.15355561 0.87560668 1.49582922
O 9.21209791 0.03213269 4.96700085 0.86048888 -0.40480809 1.95670483
O 21.62971587 -0.00425138 5.07983740 -0.91159305 0.42277413 0.30829565
O 9.14386024 3.10905265 5.09563603 -0.32097604 -0.86102096 -0.68866481
O 21.56168866 3.00103358 5.14088279 -0.63886155 -0.17243702 0.99558723
O 7.76615678 6.09863394 10.87653213 -0.59279698 0.92355362 -0.36266587
O 20.23428684 6.11636712 10.69873458 -0.10184744 -0.66825025 -0.83267266
O 7.77367415 3.12686890 10.70944794 1.47740147 -1.10613834 0.48746626
O 20.18182615 3.11125273 10.68150081 0.90770200 -0.46103858 -0.16593363
O 8.03087845 1.51955319 0.60031889 -0.86360535 0.27162008 -0.33567810
O 20.51491828 1.45728242 0.64205420 0.15422938 -0.73532768 1.78240842
O 8.07750477 4.62916563 0.57106151 0.39494482 -0.07404747 0.18236190
O 20.42547840 4.58433399 0.62013775 0.89804040 -1.21687978 0.11562315
O 6.67969230 1.48849530 6.25877414 -0.07855132 0.51968098 0.64608838
O 19.08552780 1.61301142 6.35136845 1.45979991 -2.49217753 0.62969987
O 6.69705084 4.60815451 6.36331717 -1.10380809 -0.16099628 -0.36794751
O 19.11211736 4.61365722 6.25873107 -0.73025525 1.05897250 1.35264672
O 2.99609430 1.50881155 5.03424513 -0.71881668 0.67190307 -0.96520446
O 15.36084434 1.61219204 5.08365272 0.40170438 -0.68138543 -0.93074663
O 2.92022857 4.59494757 5.10276262 0.31678955 0.72867818 -0.61105846
O 15.39088921 4.58381823 4.98672349 -0.48498262 -0.58446422 0.08645227
O 1.56430427 1.54682921 10.76987564 -0.28193951 0.15379272 0.54669399
O 14.03363103 1.60829134 10.81988286 0.30729681 -0.88457120 0.18598920
O 1.53434096 4.61440748 10.73465246 -1.15069280 0.21801098 1.12374053
O 13.96709897 4.63747894 10.71961921 1.09608692 1.06884538 -1.57212679
O 1.37913786 6.09512887 3.22235377 0.39459818 -0.16071933 -0.62169500
O 13.75855540 -0.01713526 3.21288710 -0.84996778 0.56480607 0.71003396
O 1.38299057 3.02819291 3.23480758 -1.61568466 0.78820686 1.19138821
O 13.79875796 3.03555386 3.22323259 -0.70054388 0.84586265 -0.10356861
O 0.02657174 0.08341912 8.86211070 0.82152152 1.56841540 0.39947064
O 12.45588798 -0.01599716 8.91202711 0.99945058 -1.12540029 1.22358535
O -0.05832567 3.10170594 8.86456931 -1.69563040 -1.79705791 0.69659835
O 12.40499806 3.03886663 8.87211763 -0.83533997 -0.68705899 -0.80068513
O 9.62407911 6.20612849 2.43344386 -0.33572744 -0.17623844 -0.65957538
O 22.08206211 6.13059398 2.45535176 0.19583308 -0.10907546 -1.14599665
O 9.66475882 3.10617397 2.42637404 -0.75062858 0.61656773 0.67807729
O 22.15360776 3.14198366 2.46914681 -0.27899627 -0.94963141 -0.26784203
O 8.28629819 0.01543598 8.17125109 -0.82558411 1.73077577 0.45104736
O 20.70320024 6.11127635 8.20935597 0.14048576 -0.06743191 -0.17249150
O 8.25489049 3.11236149 8.17137266 0.06864015 0.37991053 0.45738614
O 20.64858170 3.03504729 8.14765000 2.23608324 -0.01030657 -0.46236414
O 7.57317179 1.58681128 3.17923863 0.68790058 -0.26766558 0.80362500
O 20.04049202 1.47118223 3.19058078 -0.93617199 -1.39178717 -0.23706254
O 7.61937037 4.62445785 3.21003058 -0.61832831 -0.16388943 -1.33800407
O 19.93348213 4.65882818 3.19498701 1.60204039 0.14209525 -0.33294988
O 6.20923741 1.54047592 8.88546917 -0.63292346 0.10962876 0.64926767
O 18.59170149 1.61229608 8.88510703 -0.02126363 0.08829497 -0.47175089
O 6.15992237 4.62478130 8.82175742 0.84473782 -0.00918553 -1.19728335
O 18.57196618 4.66534185 8.88822328 0.06818192 0.25936224 1.03247323
O 3.42462169 1.62214516 2.47494791 0.60987832 0.52771654 -0.68982435
O 15.82830759 1.54455419 2.47834604 -0.35231269 0.22388261 -0.61462634
O 3.44406258 4.59512132 2.41629464 -0.00263871 -0.54191510 0.68752190
O 15.88221655 4.69108295 2.39008003 0.88500209 -0.70840728 0.58520002
O 2.11091729 1.53145855 8.13401475 -0.21706661 0.52686859 0.64381545
O 14.47459259 1.56658316 8.17754489 0.19683035 -0.85148314 0.94854104
O 2.02726823 4.59925319 8.16264240 -0.13784922 0.06525903 0.57361713
O 14.48080338 4.64934061 8.10600898 0.22381779 -1.27391646 -1.44980535
O 12.01240172 1.52351179 1.46162428 -0.43085194 -0.28854609 -0.26991193
O 24.45051813 1.51323488 1.43257752 1.97104883 1.06095558 0.78593794
O 11.96009291 4.60096541 1.42568026 -0.28415688 0.84305506 0.78968106
O 24.39331980 4.62063539 1.42755601 0.63945700 -0.78458725 -1.12178441
O 10.60299254 1.55659197 7.10836115 0.20869520 0.58980139 -0.63181824
O 23.05266519 1.58020328 7.13294032 -1.94781738 1.47610694 0.21684319
O 10.66526307 4.56519060 7.24232131 -0.19634783 1.00412051 -0.28187329
O 23.05619308 4.58370607 7.19514108 -0.28183218 1.04110280 -0.36262090
O -1.01863044 1.47484537 4.18852353 -0.22019743 -0.09261858 0.74841926
O 11.38421661 1.47630101 4.27096620 0.27427207 -1.69206605 0.04245479
O -0.95743577 4.58856771 4.28037080 -0.86574209 0.81237413 -1.33633623
O 11.38092629 4.65715122 4.19211611 -0.34404909 -1.14038612 1.54053888
O -2.35381336 1.51008614 9.90813173 -1.15902815 1.68114862 -0.46708986
O 10.05304304 1.51996703 9.91302641 0.56041702 0.01352223 0.49403675
O -2.39356700 4.55353875 9.84718899 0.93878256 -0.93440803 -0.59763021
O 10.04636865 4.68364367 9.88138535 0.33593658 -1.98158357 -0.60320579
O 5.83218537 6.18839737 1.44899426 -1.13670693 0.06341465 0.27138343
O 18.19705027 0.01751073 1.50037336 1.05146715 -0.37707062 -0.60799830
O 5.82739753 3.03870876 1.53453800 -0.69618159 -0.27746191 -0.51000851
O 18.20729983 3.07126391 1.45566508 0.56544646 0.69506561 1.24643120
O 4.47189725 6.23729802 7.16147124 0.24729601 0.41708864 -0.75023929
O 16.79197664 0.01451856 7.17614642 -0.89426887 -0.49049951 0.00820617
O 4.39241719 3.02202643 7.19948900 0.34395179 -0.03513983 -0.26674747
O 16.88894806 3.07404319 7.20386597 0.87570594 -0.38201694 -0.03605377
O 5.22205600 6.09496690 4.28140021 0.54874024 -1.54149245 0.55230448
O 17.63164628 0.09429977 4.17320046 0.05953936 -0.31415334 1.66895258
O 5.25548813 3.03690891 4.27036361 1.83440877 -0.75855386 -1.20787210
O 17.68358245 3.04343634 4.30198180 0.07578839 -1.08534194 -0.94260845
O 3.76859957 6.16119526 9.94040364 -0.13485125 -0.63181262 -0.16422878
O 16.27964370 0.04549121 9.94258223 0.34150812 0.91495084 0.43258422
O 3.85827993 3.02791879 9.88930683 0.56746065 -0.49045659 1.36610841
O 16.23846268 3.12250134 9.93843592 0.04592395 -0.06753260 0.27884544
159
Lattice="24.971923 0.000000 0.000000 0.000000 6.182708 0.000000 -2.785663 0.000000 11.446946" Properties=species:S:1:pos:R:3:force:R:3 Energy=-628.465771 Virial="-55.208253 2.998735 -3.170552 2.998735 -45.882935 -6.346072 -3.170552 -6.346072 -43.333405" pbc="T T T" defect_vacancy
Ga 12.50025295 6.13344557 4.50802466 1.44521717 0.02518128 -0.45038058
Ga -0.00490988 3.11176038 4.53137271 0.44779821 0.34547176 -0.32286851
Ga 12.47455341 3.09581926 4.50184986 -0.21443278 0.57533881 0.52605577
Ga -1.35685966 6.22375728 10.26921045 -0.41173711 -0.29438471 -1.48282933
Ga 11.09891574 6.19601295 10.19722803 1.32677625 -0.17964643 1.03242492
Ga -1.35737571 3.21248519 10.26547883 0.31738275 1.55495649 1.19229096
Ga 11.09348468 3.11636158 10.33954377 0.23804902 1.18439701 -0.79749584
Ga 11.12042536 -0.08328024 1.19449101 0.99030479 -1.18455263 0.23719207
Ga 23.66571786 0.03125635 1.12809416 0.83531145 0.17869198 -0.33110702
Ga 11.09050683 3.03688185 1.22982893 -0.66103776 -0.27445374 0.80350309
Ga 23.52739918 3.09173999 1.13652232 0.69608183 -0.20991890 -1.03420050
Ga 9.66342663 6.24210353 6.90197527 0.52260807 -1.16011288 -0.46208094
Ga 22.15161043 -0.04370624 6.82333943 -0.60445243 0.59439844 0.15136277
Ga 9.63506309 3.09525136 6.93794757 0.35289406 0.21771260 -0.57974111
Ga 22.14997229 3.15506675 6.87128991 0.41179106 1.12975457 -0.06681402
Ga 6.24706829 1.50344513 4.59053319 0.49028584 -0.10093628 0.78544732
Ga 18.83110579 1.47386238 4.53536392 0.51671959 0.70044185 0.24134138
Ga 6.30543756 4.57838180 4.57267886 1.29541338 -0.28913419 -0.30472988
Ga 18.79241926 4.64054035 4.57017950 -0.49007771 0.48855643 -0.53531724
Ga 4.93473803 1.61507226 10.27531734 -0.53221584 0.58176613 0.89227960
Ga 17.33365348 1.50306973 10.30677076 0.44289146 -2.14669657 -0.80030298
Ga 4.81383695 4.63087312 10.28078208 -0.87538131 -0.96622267 -0.36361114
Ga 17.33357678 4.64613062 10.37432828 1.43744486 -0.24613257 -0.62575364
Ga 4.83160988 1.52598755 1.21456106 0.54246847 0.05512365 0.05914788
Ga 17.32253442 1.60713564 1.18035505 -0.56592902 -0.00141730 0.31023272
Ga 4.82415363 4.56400939 1.11121121 -1.54563499 -1.28839319 0.83025143
Ga 17.24347854 4.65475774 1.12324299 0.65781393 -0.40553910 -0.85356014
Ga 3.49328857 1.55014121 6.88595661 -0.16502703 -0.95513556 -0.30947461
Ga 15.90177041 1.56697232 6.86990288 1.30429061 0.10544375 0.89563373
Ga 3.40054610 4.68319280 6.91620756 -0.19468615 0.29531872 1.07126737
Ga 15.91717517 4.66743450 6.89594117 -1.08533977 -0.27819613 -0.16291582
Ga 1.55568014 1.51678816 1.87798453 0.20899522 1.24271965 0.51102458
Ga 14.00703038 1.60610506 1.78966664 -1.21472301 -0.21699136 -0.75231175
Ga 1.57651880 4.66825216 1.84255473 -0.75182735 1.61964844 -0.88777357
Ga 13.99417693 4.67354718 1.87150958 0.17252641 -0.57238352 0.65138773
Ga 0.13755484 1.54359038 7.49972211 0.26637286 0.10172844 -0.09833073
Ga 12.61960480 1.61417386 7.48022022 0.89358381 -0.74557364 -0.61894768
Ga 0.11177995 4.70041528 7.54239747 -0.90987456 1.06742340 -0.27225012
Ga 12.71962891 4.62150655 7.52568118 -0.84651034 -0.33547245 1.96232069
Ga 9.52338193 1.55513404 3.85506305 -0.10256809 0.67980275 0.33474844
Ga 22.06828443 1.56031819 3.92477617 -0.02649635 -0.55437769 -0.30483321
Ga 9.53744889 4.60274258 3.95079950 -0.30015166 -1.76763467 2.03470871
Ga 21.99423291 4.66031035 4.01480291 0.72327928 0.09281548 -0.20007633
Ga 8.21397899 1.48208714 9.62625358 -0.64830523 0.75948364 -0.18688181
Ga 20.65865815 1.54823297 9.58903316 0.36682832 -1.11020986 0.26538421
Ga 8.17163305 4.63600915 9.72637898 1.58365120 -0.23191682 0.60256694
Ga 20.63678798 4.68650458 9.60053436 0.01167718 0.88393870 0.81654259
Ga 7.74073733 0.03235125 1.83871809 0.03272737 -0.44788207 0.19200631
Ga 20.23496968 0.00726172 1.74627414 0.01682550 -0.49453637 0.32778606
Ga 7.77782331 3.12535141 1.78222635 0.32926856 -0.71143501 -0.12658734
Ga 20.25258933 3.04855525 1.77123699 2.32032188 0.65325386 0.04082643
Ga 6.46554305 0.00400849 7.47762363 1.99227617 -0.36453629 -2.01888032
Ga 18.86439223 -0.06150383 7.47929249 -1.54214293 -1.21582254 0.17064702
Ga 6.44991259 3.08782746 7.60536160 0.76449531 -1.73636592 0.85639796
Ga 18.87157701 3.09404029 7.54221014 -0.99878048 0.20493415 0.33373866
Ga 3.20494226 0.01130182 3.92875388 0.32927414 0.00582393 0.09939939
Ga 15.85363260 6.21601752 3.88342301 -0.92844585 0.22235978 0.74632487
Ga 3.35623405 3.08432595 3.89337362 0.72438838 2.09006860 0.82918901
Ga 15.80565007 3.08306276 3.98316951 0.56455216 1.33058674 0.15551309
Ga 1.92888794 0.01105022 9.68276765 -1.04849150 -1.79210162 0.98385971
Ga 14.44602966 6.21271995 9.71170151 0.43783535 0.67762383 -0.30369694
Ga 1.94468731 3.09333337 9.69357490 0.25927379 1.50569155 0.23047034
Ga 14.39873903 3.09533728 9.71702679 -0.90900467 -0.34537350 1.07069147
O 1.94957817 6.18230043 0.60657352 -0.88855858 -2.06535730 -1.87256117
O 14.43560717 6.20790497 0.62696463 -1.08774089 0.63930109 0.03337354
O 1.88212040 3.11950203 0.61660733 -0.62241143 -1.02832295 -0.12858847
O 14.33043922 3.09918914 0.63935806 -0.14426623 -0.45135528 -0.23360034
O 0.47156059 0.04204109 6.40320224 -0.62713515 1.44236382 -1.93095011
O 13.00088823 6.16800263 6.36982529 0.08116136 -0.81173819 0.52781613
O 0.50466535 3.04041188 6.38283398 -0.20467469 0.29260343 0.38787997
O 12.97401591 3.19004879 6.40127792 0.14767126 0.79261864 -1.15057922
O 9.24156390 0.01274062 5.11198107 0.74476940 -0.17536769 0.26711848
O 21.65933110 -0.06817760 5.06450156 1.22863697 0.89931174 1.54972799
O 9.20554145 3.01144813 5.08902666 -1.81706319 -0.76491905 0.73393711
O 21.68423684 3.08179543 5.07550851 -0.92113223 -0.14628798 1.32890367
O 7.80610907 6.24766785 10.85971253 0.68317026 -0.77002867 0.32564813
O 20.28378847 6.17022030 10.81566168 0.49965067 0.05368738 -0.11780209
O 7.79136457 3.05756443 10.86421476 0.09665625 -1.20062469 0.06381291
O 20.29212284 3.03242519 10.82012553 -0.79011859 0.31464313 0.30597655
O 8.12508169 1.46043004 0.61667695 -0.73082434 0.48992319 0.24725292
O 20.65264662 1.56967421 0.71247543 -0.05026676 0.58043165 -0.28763438
O 8.18424463 4.69825251 0.73020009 -0.24391611 0.06201521 -0.08477526
O 20.63984216 4.64354347 0.66536753 0.89714377 -1.89936992 -0.28577586
O 6.71348568 1.55309861 6.31284218 -1.62855461 -0.42120469 0.14838557
O 19.23820540 1.51295142 6.32058690 -0.03430668 0.75125176 0.19190511
O 6.75017102 4.63314444 6.27566964 -2.23808938 -0.92688809 1.17353297
O 19.16453438 4.59448460 6.30636642 1.19614660 0.04166393 -1.31882718
O 2.98407109 1.54685406 5.13986215 1.67845353 -1.72264197 0.16279751
O 15.48147359 1.59656398 5.12903703 -0.10608820 0.14224207 -1.02997091
O 2.98535430 4.67693918 5.13795286 -0.39438394 0.80150572 -0.49050891
O 15.46721645 4.67658810 4.99402658 -1.18573680 -0.07770164 -0.03238195
O 1.55656920 1.52399233 10.86767807 -0.19308995 -0.70212104 0.32666975
O 14.11929690 1.49148494 10.87766697 -0.18715608 -1.01213206 0.06871886
O 1.52740824 4.58352130 10.81433225 -0.11012046 0.04693456 -1.47194296
O 14.04452395 4.58193390 10.84717534 -0.70282056 0.29818614 0.64380048
O 1.40588432 6.22398803 3.21926450 0.19820087 0.06772910 0.48858306
O 13.85950024 0.00037509 3.30027726 0.71922008 1.36691395 0.29553230
O 1.26609947 3.04703774 3.24099005 -0.51090877 0.34641712 -1.63284769
O 13.84295538 3.07087708 3.22397931 -0.00040706 -0.38210913 -0.07867112
O -0.03594064 0.00456147 8.99129565 0.35650027 0.02266019 -1.21518916
O 12.47080176 -0.01552422 8.94493909 -0.31792433 -0.65548375 -0.06556841
O -0.01056151 3.02951165 8.96519522 0.26161693 -0.78123377 0.54149458
O 12.45947862 3.13677829 8.97427054 1.01803782 -0.22332127 0.53977381
O 9.75824303 6.12753725 2.46931675 -1.20819589 -0.43824273 0.72881540
O 22.12663341 6.15064464 2.54818551 -1.43397097 -0.41011980 -0.75908852
O 9.76958814 3.04027139 2.46052383 0.89846516 0.91238317 -0.54073301
O 22.18952617 3.11181395 2.41443070 0.07800083 -2.09508999 0.63866054
O 8.25182916 0.02141756 8.13866159 0.25932473 1.05712748 -1.95228769
O 20.77765877 6.18108013 8.22360657 0.25737152 -0.28700760 -2.13146324
O 8.31141199 3.09250513 8.25713518 -0.57537625 -0.06919343 0.60057241
O 20.80801037 3.07250275 8.20861902 0.13557110 -0.41811855 0.31388112
O 7.64152127 1.62108553 3.25300505 -0.10811471 -0.52541989 -0.85866118
O 20.16537337 1.51223024 3.21230083 0.09768430 0.12050231 1.43122073
O 7.61556765 4.62113387 3.18409502 -0.38234525 1.27919949 0.23945266
O 20.16213118 4.69028929 3.22413527 0.92235904 -0.72837022 -0.74012049
O 6.25163524 1.57221700 8.97810972 -0.26631838 0.71395250 0.10120240
O 18.66571512 1.53985045 8.95660822 0.58404801 0.25255325 0.78442740
O 6.26557258 4.60761732 8.85195298 0.14101323 -0.42140531 0.37384130
O 18.67397634 4.63320687 8.95249282 0.05543724 1.39845559 -0.16517473
O 3.53058302 1.57308236 2.49128871 0.07062983 -0.24536534 0.88749136
O 15.94936969 1.57416275 2.48488110 0.68310295 0.52066565 -1.03475113
O 3.46137689 4.58461824 2.55812201 -1.22982575 0.21168442 0.54023328
O 15.96443266 4.60367282 2.48469100 1.16676872 -1.43676832 -0.17364120
O 2.08920940 1.53852207 8.18878546 -1.36896060 -0.76879626 -0.21427887
O 14.52069181 1.56225951 8.20373292 0.75382620 -0.42150715 -0.61193903
O 2.05395756 4.58527051 8.20997540 -0.27245404 1.00591919 1.89533333
O 14.54471080 4.62007915 8.22265133 -1.25019789 -0.21901196 -0.38163617
O 12.10512778 1.56553828 1.49191212 0.91845162 0.34831924 1.19518640
O 24.54782602 1.52871479 1.43110054 -0.82629174 0.01080428 -0.40184111
O 12.05711915 4.62514933 1.43980352 -0.89372306 -0.12664093 -0.98499653
O 24.57639580 4.59852256 1.38894355 1.72150770 0.33361916 -0.85056487
O 10.71719917 1.52798206 7.14676241 -0.50142847 1.38589546 -0.41989171
O 23.12812132 1.56215773 7.25519739 0.53869465 0.46670981 0.83678831
O 10.67220532 4.62484326 7.24844372 0.49118262 -0.16830514 -0.51059575
O 23.10087932 4.71098896 7.29350900 -1.43721084 -0.03833594 0.07356422
O -1.09608639 1.54469075 4.22501791 -0.30474542 -0.11512362 -1.00855922
O 11.49487652 1.52514629 4.29999498 1.72034642 -0.40102395 -0.86571436
O -0.99533980 4.60505049 4.24045958 -0.49419837 -0.13499046 0.55612239
O 11.51680609 4.58972188 4.18865744 -1.95847349 0.41239094 -0.53007515
O -2.29726569 1.51203895 9.96586222 -0.15997747 0.81375641 0.57595987
O 10.08961828 1.57223675 10.04604311 -0.55913355 -0.07440012 1.46181467
O -2.35364787 4.57130924 9.92185944 1.07388894 0.69639598 -0.02809514
O 10.08564613 4.62967597 9.90250833 0.75603331 0.32013680 -0.47356996
O 5.87281190 6.13786284 1.53334025 -0.81421836 0.42143355 0.27180524
O 18.40473190 -0.00621505 1.49559316 0.95265582 -0.38340910 1.08807959
O 5.78075668 3.12180838 1.44388708 -0.30544166 1.00810224 0.40320992
O 18.27689139 3.08212359 1.43785482 -0.47478367 -0.75468256 -0.13054376
O 4.44064315 6.21299422 7.16728673 -0.22472127 0.75519893 -0.58749169
O 16.99756501 -0.05153037 7.25822927 -1.19600848 -0.01217242 1.50387412
O 4.39863945 3.08961092 7.16835648 1.29717202 -0.49464590 -0.25376540
O 16.92368764 3.11603798 7.25193284 0.24150347 -0.52788789 -0.23063494
O 5.30615285 6.16438040 4.26922706 -0.23406435 -0.83741751 -0.52938579
O 17.70542832 -0.03268245 4.21844817 -0.40178101 0.19047686 -0.98122643
O 5.24758791 3.11072086 4.18042746 0.07026184 -0.78336431 -0.68208059
O 17.74110585 3.15300618 4.30026444 -0.91341076 3.21179439 0.97059343
O 3.83766059 6.12039384 9.99830127 1.06204302 0.65273687 -0.22312325
O 16.26066974 0.04868202 9.97858444 0.03995869 0.23360366 0.32295620
O 3.93668320 3.02081316 10.01573267 0.46165044 1.22352403 -2.40314741
O 16.34126545 3.08198707 9.91999731 -0.45846458 0.54392353 -0.32179272
159
Lattice="25.214284 0.000000 0.000000 0.000000 6.242713 0.000000 -2.812699 0.000000 11.558042" Properties=species:S:1:pos:R:3:force:R:3 Energy=-629.768629 Virial="-54.363948 2.078841 -2.368203 2.078841 -45.259743 -5.697763 -2.368203 -5.697763 -46.179329" pbc="T T T" defect_vacancy
Ga 12.63549659 6.24570036 4.63394483 -0.64695130 0.95685251 0.00202342
Ga 0.02678408 3.06111946 4.66624663 -0.69722138 -0.61844021 0.17876946
Ga 12.58599303 3.11060972 4.58873131 1.50620239 0.68127097 -1.88950391
Ga -1.45399400 6.23031362 10.34726832 0.92811887 -0.06664942 0.99815548
Ga 11.23212804 6.28463878 10.31704825 -0.79964498 -0.26229819 -1.15660237
Ga -1.41798180 3.10615187 10.45307050 0.01380119 -0.91899955 0.90728162
Ga 11.19045048 3.01890519 10.37591880 -0.34698496 0.16277404 -1.05905034
Ga 11.22160909 -0.03349056 1.14207696 1.45594137 -0.03855839 -0.49747448
Ga 23.77860956 0.01702906 1.16525476 -0.63998252 2.18034887 0.10040410
Ga 11.23255808 3.10824150 1.23351565 -0.05617539 -0.12000680 1.48947932
Ga 23.76330849 3.16529089 1.13645251 -0.33601066 -0.62685997 2.63969688
Ga 9.80093999 6.23506809 6.90199463 -0.80930214 0.13733757 0.53179837
Ga 22.41143622 0.02801526 6.95698436 0.41158427 0.14657028 -0.04234039
Ga 9.81301963 3.15740534 6.95496377 0.92703293 -0.11359986 -0.31820952
Ga 22.37585880 3.17144115 6.93725666 -0.36049870 1.08143579 1.20273239
Ga 6.41394201 1.53932116 4.66053986 1.30014250 0.38513481 -0.03817651
Ga 18.90680492 1.51917855 4.62527581 0.22448516 0.06605634 -0.69632624
Ga 6.29935111 4.58347735 4.63358514 -0.51419574 -0.03430159 0.53157192
Ga 18.94886607 4.61266480 4.54327485 1.80236438 0.26405850 -0.13631953
Ga 4.90670707 1.53483056 10.42104240 -2.08451406 0.68016948 0.14052951
Ga 17.54501091 1.53917251 10.32349408 -0.66161500 0.22121762 -0.41902912
Ga 4.85998914 4.72137469 10.33125890 0.95765822 -0.49771891 1.84892247
Ga 17.51339081 4.67772717 10.31640454 -0.04481228 -0.47426989 0.47318284
Ga 4.89496710 1.59568446 1.18379985 -0.55163382 0.01383377 -0.25620645
Ga 17.42873082 1.59533911 1.15800713 1.07152851 -1.83578509 -0.28135383
Ga 4.84427639 4.76668142 1.11560493 -0.02388768 0.41124237 0.41285772
Ga 17.43715181 4.69892420 1.18303215 -0.98460452 -0.28753578 -0.22386757
Ga 3.48531276 1.57196367 6.95679257 0.90398240 -0.92235241 -1.12594385
Ga 16.13307884 1.59058192 6.96085531 1.17025651 -0.16392238 0.26936644
Ga 3.46394438 4.69331707 6.96194877 0.53405007 -0.44056252 -0.89233950
Ga 16.13358958 4.72547272 6.98448598 0.54952503 0.59160958 0.01546386
Ga 1.61076925 1.58662596 1.81855938 1.03918018 -0.47998372 -0.30070039
Ga 14.16630671 1.56721804 1.87677136 -0.16912197 0.02579208 -0.21809913
Ga 1.57213993 4.63221441 1.78763467 -0.20721195 -1.13977106 0.43164769
Ga 14.20357252 4.64666810 1.82464655 -1.30420450 -0.10873516 0.49809963
Ga 0.17375400 1.56542323 7.58948542 -0.68721908 -1.40324753 0.49059108
Ga 12.71960330 1.58875106 7.55274362 0.61439031 1.15335513 -0.44322921
Ga 0.16962557 4.60057947 7.55946266 0.47158303 -0.71919137 0.05687749
Ga 12.76001618 4.68047971 7.62318585 -0.68544065 -0.28673559 -0.02566208
Ga 9.56814377 1.53326648 3.92235149 0.78096405 -0.53147375 -1.76857635
Ga 22.29685143 1.52712332 3.95735421 -1.03552062 -0.43769769 0.47037086
Ga 9.65331772 4.66001639 3.98046535 -0.79742830 0.16342518 1.21401288
Ga 22.23063071 4.61287072 3.93083007 -0.16842525 0.07677713 -1.10317652
Ga 8.15952789 1.56293415 9.73614998 -0.84628751 0.50281611 -1.09576963
Ga 20.83099741 1.58668128 9.76179726 -0.73039973 -0.37327938 -0.21950260
Ga 8.19519286 4.69397206 9.70057551 0.52450652 0.32060936 1.25526882
Ga 20.78265400 4.73164200 9.73939479 1.50879712 -1.02243893 -2.83719752
Ga 7.87735385 -0.04509178 1.82682720 0.22309540 -0.48565881 0.52024092
Ga 20.46023841 0.00364250 1.88401669 0.46630750 0.71842160 0.49365800
Ga 7.78536671 3.14391229 1.86362001 0.91397691 -0.13882492 -1.13955449
Ga 20.47909623 3.16592431 1.78269775 -0.91518244 0.43809120 1.02990703
Ga 6.45598246 0.03481381 7.56679853 1.09453134 0.69514759 -0.03886916
Ga 19.00148392 0.09635544 7.61934769 -1.77581632 1.25244057 -0.41681667
Ga 6.48746454 3.12475421 7.62684462 0.79157562 -1.97835039 0.34089203
Ga 19.03931146 3.13008165 7.59699267 0.55066792 0.57134875 1.18737684
Ga 3.36010905 -0.01277893 3.95757364 1.78813363 -0.23983598 1.05815813
Ga 15.97456826 6.25046375 4.00220362 -0.73359487 -0.05882136 0.21665742
Ga 3.29137757 3.15084541 3.92904442 0.65727647 -0.12177575 0.25750181
Ga 16.00844210 3.12387131 3.95802327 -0.46576244 -0.57031812 -2.47395661
Ga 1.94174906 0.01811088 9.77729162 -0.12452722 1.93427627 1.17138655
Ga 14.59118558 6.17294405 9.73954388 0.40083943 -0.10487129 -0.28222540
Ga 1.92023807 3.08871435 9.68681063 0.29138350 -0.37508139 -0.30374892
Ga 14.54415245 3.07460182 9.78009550 0.00527616 -0.17241291 -0.86996305
O 1.87370826 6.25868102 0.59954222 -0.01094166 0.98314187 0.53042363
O 14.48340255 6.22021457 0.58172044 -0.22149121 -1.83268823 -0.42114376
O 1.95699088 3.14896678 0.65342759 0.09782526 0.41004640 -1.69682862
O 14.48276263 3.16665077 0.65738578 -0.18830498 0.40277882 0.47998934
O 0.45639355 0.01160618 6.44330875 0.77403985 -0.02712062 -0.99766732
O 13.06922886 6.26772249 6.34367696 0.41597074 1.10480250 1.76531278
O 0.50108712 3.10356245 6.47574171 -0.44292756 -0.38982322 -0.53157886
O 13.05784173 3.11969374 6.46044776 1.91488222 -0.07440603 0.17755779
O 9.31289466 -0.03068939 5.18509870 -1.29745443 0.33060114 -0.67041080
O 21.98485667 0.00483172 5.21475052 0.23884599 -1.44916733 -1.04673311
O 9.32001296 3.20486870 5.18313078 1.03284713 -0.98254551 -0.99258034
O 21.99117005 3.10516552 5.15914368 -0.10488959 0.41222975 0.32605988
O 7.85726171 6.27073511 10.94807204 0.17641865 -2.04717600 0.76754631
O 20.53192406 6.25568073 10.94231787 -1.32828565 0.34163689 0.05115818
O 7.93337762 3.15863646 10.94696904 0.55599537 -0.23508836 -0.59314097
O 20.51836393 3.07479758 10.97096230 -0.60791851 -0.66123374 0.79190157
O 8.16613835 1.54749116 0.62791787 -1.30130218 0.48475588 0.20328584
O 20.76651770 1.51805935 0.60077353 -0.12584159 -0.84115264 0.50590611
O 8.23402284 4.70005226 0.60258245 0.13285977 -1.06235188 0.38653484
O 20.86468481 4.66773815 0.69505300 -0.35554178 -0.27968045 1.08645195
O 6.79076263 1.53781081 6.50706944 -0.43950084 -0.97968799 -0.59893911
O 19.32793573 1.56740708 6.38022649 -0.48660071 -1.44341870 1.26231074
O 6.75086558 4.68256560 6.47880435 0.34064806 0.46538931 -0.90775577
O 19.43262367 4.62249856 6.35677606 -1.05979247 1.22832920 -1.03453621
O 2.97511291 1.51547560 5.20290267 0.21705461 0.94507704 -0.06065331
O 15.62422199 1.55047305 5.15232078 0.33761736 1.16691355 0.65024357
O 2.96905426 4.65749817 5.10290446 -0.59329618 0.63331833 -1.46820014
O 15.60657385 4.65501775 5.13783783 0.31795329 0.27524268 -0.72478305
O 1.62654105 1.54542255 10.83002528 -1.32022197 0.00126140 -0.47359035
O 14.26353350 1.57406463 10.87731633 -0.46918746 -1.13950787 -0.04003102
O 1.58372453 4.71132330 10.91550591 -0.37800758 -0.18614018 -0.86955493
O 14.19123761 4.68246889 10.99191798 -0.00088279 0.48138244 -0.41912215
O 1.49005841 6.28047798 3.33637546 -0.06239460 -0.38877702 -0.02651844
O 13.93662092 -0.01283638 3.23083837 -1.02342994 0.08028362 0.66286907
O 1.42064580 3.16383459 3.26436130 -0.04207108 0.54288620 0.03584884
O 14.01028678 3.11541072 3.23091450 0.06913072 -0.46895589 -0.34763457
O -0.07619843 0.04147877 9.03316870 -0.09308362 -0.27896336 0.11947714
O 12.59146835 0.03010563 8.99623887 -0.98925866 0.09109306 -0.21631990
O 0.06446498 3.14887942 9.00596819 -0.54552703 0.59469633 0.97490015
O 12.64444410 3.18166452 8.96667055 -0.79127330 -0.19680483 0.88481420
O 9.67513896 6.21978739 2.50938859 -1.06183368 0.52668838 0.80901622
O 22.40227056 6.30000755 2.53437323 0.33037649 1.96638458 1.08205356
O 9.79567944 3.15182172 2.56232149 0.58961510 2.17674790 -0.66819973
O 22.33904735 3.16874400 2.49632400 -1.03235465 0.65640681 -0.99297891
O 8.44117361 -0.03098905 8.26158594 -1.27533955 0.52184280 -0.66665840
O 21.02901010 6.28110937 8.34591585 -0.00856726 -0.17445360 0.10925263
O 8.33782034 3.15325090 8.33806447 1.17578446 -0.52289358 1.35232288
O 20.93669434 3.06430061 8.29878715 0.06603499 -1.70177746 0.17070454
O 7.70827999 1.57906902 3.23547880 -0.60369914 1.50754277 0.22063834
O 20.29079601 1.62685024 3.24950679 -1.18038748 -0.32402450 -1.44264243
O 7.70735589 4.62868323 3.29710282 0.18837008 0.18389088 0.81386282
O 20.30738190 4.72344579 3.32773962 0.05978914 -0.43325301 1.33777255
O 6.28550510 1.68037742 9.09597862 0.12477711 -0.67722722 -1.17469550
O 18.89979751 1.53523484 9.00574210 0.68201507 0.40825238 -0.42252389
O 6.27671097 4.61946056 9.07835242 -0.19176470 0.01347637 1.27486903
O 18.92736296 4.68459820 9.07102333 1.13350536 -0.22088501 0.12914478
O 3.49463367 1.54899438 2.54293776 0.05657533 -0.36957333 -1.10744181
O 16.08684660 1.59087170 2.54018912 -0.17969291 -1.18769313 0.55467286
O 3.59007457 4.68741258 2.48906053 1.88536523 -0.72351553 0.70855237
O 16.11272691 4.69186441 2.50982845 -0.30695988 0.01512558 2.39077238
O 2.12236196 1.61485648 8.29877340 0.35362080 0.55993585 -0.22979549
O 14.72588660 1.56994119 8.27210282 -0.53516059 1.05231555 -0.73827556
O 2.01835163 4.75129177 8.35335921 -1.59225642 0.42334150 -0.08987473
O 14.65724118 4.61144831 8.28402659 -0.13279386 -0.59256146 -0.68482772
O 12.18857085 1.50636649 1.46923175 0.82341539 -0.14788764 0.32277781
O 24.85159232 1.57126619 1.45770808 -0.40624094 0.40680081 1.80048117
O 12.21828355 4.65629663 1.44793449 0.80071899 -0.25318524 -0.26748994
O 24.74715006 4.70769667 1.41548948 0.69739201 -0.71546876 0.80057256
O 10.80138926 1.64568483 7.28403527 -0.12704636 0.56111608 -0.22171130
O 23.40399948 1.61778708 7.31980258 -0.72222899 0.84844021 0.07508907
O 10.86493724 4.65496993 7.23815576 0.87879782 0.67734931 -1.22929765
O 23.33966712 4.71412080 7.31130587 -0.29006114 0.65026818 0.98885329
O -1.09531207 1.61012922 4.31253196 -2.14048902 0.09268506 -0.43036546
O 11.58858479 1.59910450 4.32312265 1.15534315 1.07722659 -1.24807532
O -0.97536097 4.64788609 4.25068144 -0.18689043 0.99687994 0.05751381
O 11.60739375 4.67258993 4.28689253 0.61378464 -0.05507910 0.87613724
O -2.34360404 1.56956037 10.04176826 0.16106703 0.33564501 -0.47109515
O 10.20805943 1.64368944 10.04538917 -0.39809145 1.45364039 0.55891029
O -2.45232612 4.67026360 10.04873244 1.38535107 -0.54617287 -0.36785224
O 10.21210111 4.68365816 10.08715386 -0.29436186 -1.28040472 0.26752840
O 5.88270052 6.21991260 1.48598958 -0.38248814 -0.22706500 -0.71490363
O 18.45858131 0.03875212 1.60775941 1.16385070 -1.78398422 0.90471537
O 5.87634715 3.18661167 1.52843443 0.01802137 0.08636417 -1.55422365
O 18.51411946 3.06478057 1.41593995 0.45162660 -0.94702163 0.03390416
O 4.44842020 6.17555186 7.22597150 -1.32646843 0.95069090 -0.23677361
O 17.03737898 -0.01107479 7.32849558 0.47989819 0.47088556 -1.21302410
O 4.43379475 3.10072137 7.24534537 0.91371171 0.36795774 -0.09949545
O 17.07733112 3.09866848 7.28941415 -0.46130664 0.20582518 -1.07718474
O 5.28227895 6.20930317 4.31654820 -1.74979161 -0.23845696 0.29259197
O 17.93149080 0.01752128 4.27969782 0.99643138 -0.29342928 0.93824496
O 5.25653644 3.07043377 4.25951718 0.31419857 0.64676690 -0.89228470
O 17.93499317 3.14684817 4.30446331 -0.33315814 -0.45588773 0.29382538
O 3.88556729 6.20530718 10.03598925 -0.54763287 -1.07946461 0.02208468
O 16.50534567 0.00761997 10.08843857 0.41845733 0.72487520 0.49561930
O 3.88099551 3.10863412 10.08227590 0.32745296 0.65160899 0.21868355
O 16.50676073 3.10928021 10.07108898 0.00724646 -0.25076265 -0.01713129
159
Lattice="24.480121 0.000000 0.000000 0.000000 6.060944 0.000000 -2.730802 0.000000 11.221508" Properties=species:S:1:pos:R:3:force:R:3 Energy=-629.142827 Virial="-55.854198 0.797801 -3.331705 0.797801 -42.911473 -4.638209 -3.331705 -4.638209 -40.563987" pbc="T T T" defect_vacancy
Ga 12.22504248 6.06566936 4.51264026 1.45348372 0.91027921 0.51913772
Ga -0.01196631 3.03366931 4.47411162 0.63536780 -0.62921302 0.72423989
Ga 12.25351017 2.96241991 4.47732550 -1.23360197 -0.20403251 -0.39680857
Ga -1.40720793 5.99711777 10.01788412 -1.29764668 -0.02663017 1.26779057
Ga 10.88180574 6.02079943 10.01852471 -0.18693359 -0.90444173 -0.11981647
Ga -1.33649378 3.02650772 10.09842494 0.76830774 0.21621543 -0.04910607
Ga 10.85049795 3.02328583 10.10341042 -1.04220952 0.46245354 0.34161138
Ga 10.81065216 -0.02357752 1.18858594 1.15818125 1.25288356 0.50389289
Ga 23.09957132 0.00021100 1.14960818 -1.22876522 -1.08667386 -0.92535626
Ga 10.90995771 3.02632861 1.15908997 0.32110825 -0.56815594 1.00065663
Ga 23.10085791 2.96330212 1.16787944 0.28025249 0.35345486 0.55343299
Ga 9.46169439 6.01040657 6.69213126 0.35736661 -1.06681267 1.91456985
Ga 21.67572856 -0.08871200 6.72134985 1.25555941 1.28014388 -0.64495960
Ga 9.47698768 3.07235288 6.76530176 -1.39282994 -1.14366683 -0.88974407
Ga 21.74585835 3.08252107 6.65005100 0.79087986 0.78189647 1.11974084
Ga 6.14903675 1.52876459 4.49422218 1.79912825 0.47836703 0.23667597
Ga 18.30614202 1.49096003 4.42237787 -0.20523358 -0.20752921 -0.97320046
Ga 6.08014634 4.63745802 4.43776043 0.49380839 0.31617777 -0.37113212
Ga 18.41150984 4.57430887 4.40098828 -0.56330013 0.42720208 0.99795456
Ga 4.74749790 1.50927339 10.09120151 0.15036678 0.28865618 -0.48550665
Ga 17.02638451 1.57966806 10.10189415 -0.11365239 -0.19156084 -0.27503641
Ga 4.79909991 4.58830730 10.12839480 -0.39262754 0.37874764 0.99280994
Ga 16.98700858 4.48047506 10.04518812 -0.67257213 1.18100633 -0.36937545
Ga 4.68627788 1.47368857 1.15482022 -0.20850274 -1.66353177 -1.98415406
Ga 16.94984808 1.54496772 1.16279535 0.67357072 -0.81122579 0.59727316
Ga 4.75347675 4.49347027 1.11773650 0.12566898 0.26201946 1.01967032
Ga 16.89946459 4.57093273 1.23142456 0.02728422 -2.55124676 -1.43787380
Ga 3.38240914 1.52913415 6.73865444 0.86327392 1.65898516 -0.12373435
Ga 15.61302428 1.56269812 6.76978170 -0.47659091 -1.05213129 0.38986964
Ga 3.39778591 4.59639568 6.81011069 -1.35314131 -0.93500794 0.06177293
Ga 15.61420422 4.55459408 6.74432790 0.16671577 -0.14541050 0.80373627
Ga 1.52998052 1.50241370 1.77381857 -0.90956039 -0.89102223 -0.38166010
Ga 13.79543266 1.44601454 1.68752741 0.13728133 -0.20857184 1.54718128
Ga 1.51203603 4.57427783 1.77277172 -0.39793166 0.56991646 -0.51609233
Ga 13.70309878 4.57531561 1.83858024 0.34172889 -0.29267096 -0.36139464
Ga 0.11024238 1.48282877 7.37357135 1.38409680 -0.20798205 1.32673659
Ga 12.37962580 1.56339838 7.38362500 -0.50645378 -0.31339572 0.84058154
Ga 0.13485714 4.52108951 7.30826286 -1.89856190 -1.27744295 -0.03259704
Ga 12.44076153 4.57325808 7.36889760 0.46669033 0.51994050 -0.30779886
Ga 9.36608245 1.51458125 3.77808512 -1.07106216 0.72919312 0.31010125
Ga 21.54995917 1.50873492 3.84088997 -0.82791463 0.13056876 1.41002450
Ga 9.36443832 4.61508222 3.83300276 0.18424278 -0.90080373 -0.39340911
Ga 21.57648442 4.55057695 3.79851652 -0.21434027 0.33666077 0.68399015
Ga 8.00018311 1.48292502 9.46672086 -0.67497661 -0.46885470 0.77759678
Ga 20.22806593 1.51483788 9.48011880 0.68310287 1.15991492 -1.23581147
Ga 8.02496552 4.62642479 9.48753288 -0.69472345 0.87569795 -0.82213622
Ga 20.23049327 4.52310254 9.47501903 0.34599195 0.01465790 -0.65700598
Ga 7.68705754 0.03766768 1.73151864 1.27471601 0.04686976 -0.46247558
Ga 19.89210278 0.01505514 1.80802187 -0.04768116 0.26058779 -1.33177114
Ga 7.64380752 3.04154325 1.71693218 -0.62078557 -0.98349631 -1.76249467
Ga 19.89517790 2.97719436 1.76536134 0.87767861 1.22607841 0.91806799
Ga 6.24723891 -0.02332061 7.39296415 -1.35920194 0.38328124 0.50299476
Ga 18.50508673 -0.09339066 7.36384726 -0.38206612 0.72338398 -0.95858897
Ga 6.25401165 3.08289943 7.33174419 -0.79250195 -0.61985136 -0.63737491
Ga 18.58033192 3.06878518 7.35742014 -0.73865658 0.83950041 -0.92112309
Ga 3.22986679 -0.02248769 3.86607560 -0.29659537 -0.46018204 1.73665375
Ga 15.45162253 6.05107715 3.80793262 -0.64847166 0.44088321 1.42513601
Ga 3.26993932 3.04064745 3.83344330 -0.87959888 -0.61689082 -0.31869893
Ga 15.47697122 3.00257995 3.85692919 -0.99255863 1.05086407 -0.43542866
Ga 1.82734095 0.03884639 9.46368854 0.93343834 0.48914927 -0.03287435
Ga 14.10072654 6.08314610 9.48032145 0.85682152 -0.18629664 0.80188218
Ga 1.84069526 3.07813347 9.35421470 -0.97721698 -0.54196800 0.92417194
Ga 14.16231297 3.02654755 9.49777259 -1.60737124 0.44269577 -0.38033474
O 1.90520027 6.04376693 0.59719372 -0.35676396 -0.50235343 0.98563525
O 14.10652005 6.00891326 0.58897526 -1.14515249 0.72978734 0.33474933
O 1.84101144 2.99761316 0.58654913 -0.25864029 -0.00934851 0.51861443
O 14.10438442 3.06032793 0.60927025 -0.39309772 -1.15566943 0.17864106
O 0.47948863 -0.00639575 6.15610353 -0.59217075 -0.26882285 -0.00497276
O 12.66614610 6.09572054 6.26262839 0.67497438 1.51497395 0.22707038
O 0.45733622 3.07375321 6.18272205 0.17726817 0.71724617 0.18163584
O 12.69208702 3.02077221 6.20713990 -1.26778137 -0.42063095 -1.03871602
O 9.00398587 0.00778874 5.03594285 0.64245981 1.08034214 0.23799336
O 21.21397418 0.00640344 5.03757177 -0.74006286 0.70257106 -0.81781866
O 9.00960715 3.01282782 4.97611343 0.28783092 -0.89824999 -1.15666778
O 21.34690633 3.08927700 4.98970268 -1.03838638 0.07546589 -0.57645307
O 7.71297661 6.03598318 10.61365041 0.43431131 -0.97783166 0.34523065
O 19.86388761 5.97765811 10.58055878 -0.41021654 1.06370939 0.76881653
O 7.65103228 3.04457059 10.63682519 -0.08783830 0.14826554 0.14790614
O 19.90403806 2.97598394 10.58240550 0.45617377 -0.15774057 0.82954479
O 8.02408119 1.53418799 0.66304344 -0.32159125 -1.47846692 0.15011467
O 20.28295204 1.49476832 0.64381558 -0.00154502 0.72757614 0.42982366
O 7.93791590 4.59024029 0.63913496 0.18875700 0.14747006 0.05439945
O 20.11906463 4.56180908 0.57981825 -0.44224914 -0.91231273 -0.70370987
O 6.58958146 1.49190118 6.25023230 0.01210923 -1.75064906 -0.39555040
O 18.81637790 1.45755658 6.19074130 -0.70038680 -0.00889816 -0.69772862
O 6.59243764 4.56370774 6.27549233 0.13500024 -0.12088310 0.98988784
O 18.86472345 4.57233840 6.24633035 -0.18942794 -0.13318338 -0.02637656
O 2.94174555 1.54914048 5.09706797 -1.36914015 -0.79610344 1.10201711
O 15.17909366 1.53454953 4.98555954 0.49836561 0.12906474 0.81825785
O 2.93073581 4.58787755 4.95198187 -0.05902694 -0.13768065 -0.28910596
O 15.19819751 4.51757510 4.97837963 -1.33557271 0.81290814 -0.19831586
O 1.55817497 1.48490099 10.62680088 0.00988152 -0.20573980 -0.55494542
O 13.73352399 1.55401450 10.61594375 -1.72211304 0.18254859 1.69783996
O 1.54311514 4.54898989 10.60973335 0.87570012 -0.16889376 -0.78672822
O 13.79806786 4.54451460 10.59643126 0.10571778 0.35836087 -0.14323105
O 1.28083706 6.11467490 3.12633951 0.75241094 -0.70088069 0.80716773
O 13.65271856 -0.00813252 3.21779172 0.20926977 -0.37770185 -0.27390527
O 1.39399075 3.06304180 3.17880147 0.36303987 0.67148021 0.01098118
O 13.56511065 3.01324689 3.15285006 0.55067327 1.98446113 -1.35809465
O -0.01353021 -0.04716419 8.77813652 -1.51911743 0.13263078 -0.82117951
O 12.11755726 -0.00945992 8.78030740 0.17558932 -1.22669173 0.05936219
O -0.04133843 3.02728370 8.77703710 1.13386260 0.94842228 -0.92537368
O 12.27229603 3.06771954 8.78656814 -0.16246965 0.76977503 1.41265957
O 9.51900559 6.06071088 2.50724647 -0.67731849 -0.62160127 0.84713770
O 21.75964553 6.06758970 2.49181865 -0.20221204 -0.75974198 0.79396138
O 9.52077766 2.99128173 2.44840226 -1.25886336 -0.48552648 0.72609650
O 21.76232221 3.01882238 2.45763586 -0.41749396 0.67262915 -1.02830281
O 8.07967101 -0.01982990 8.01965561 0.70546052 0.43932392 1.24956327
O 20.35498480 6.04683338 8.00894918 -0.11153700 -0.22047769 -0.12363401
O 8.22036091 3.06400946 8.02962500 0.92321978 -0.53250018 -0.16067722
O 20.31741188 3.01402545 8.03228909 1.64488133 0.68586061 0.53245273
O 7.45060455 1.62348304 3.09193821 -0.33170527 0.75047722 -0.97870006
O 19.72264794 1.50119402 3.15962619 -1.10839646 -0.69227243 1.08721173
O 7.39723917 4.53404309 3.16812984 0.21899247 -0.68561210 -0.33352000
O 19.74380139 4.58260789 3.22135477 0.44578981 1.00688325 -1.35372310
O 6.02150271 1.52311414 8.87324703 1.15475292 0.80673014 -0.60506515
O 18.39322539 1.45709865 8.78601610 -0.23430105 0.45406713 -0.27621247
O 6.07582624 4.52425482 8.85563493 0.19512601 -0.78644452 -1.50520111
O 18.38696257 4.48355542 8.74306656 2.02816375 0.19813665 0.13258850
O 3.39505999 1.50867770 2.45155688 0.49221025 1.13002424 0.69617037
O 15.60555491 1.48521444 2.42764277 -0.73755766 -0.02876848 0.00840290
O 3.38400368 4.56519612 2.46397303 0.69459059 -0.41866879 0.25811106
O 15.60658276 4.58604265 2.48279441 0.26528479 1.16521632 -2.13411196
O 2.02803487 1.50773068 8.11897307 0.14883805 0.33299261 0.49268074
O 14.32465040 1.45760210 8.10397865 0.07829629 -0.60124519 0.48850366
O 2.10025088 4.57362275 8.02656504 0.38015052 -0.61121706 -1.13587818
O 14.25154281 4.61012751 8.08633543 0.53139462 -0.63223833 0.47292747
O 11.85928600 1.60050753 1.40054805 1.29782583 0.22650295 0.13603235
O 24.07018299 1.52844113 1.43538692 0.18546350 1.17041026 1.07535224
O 11.76930800 4.57344493 1.41223127 0.15260231 0.65557892 -0.01101031
O 24.05785094 4.53145398 1.41751142 -0.31240300 0.67618154 -0.11798221
O 10.46914133 1.55504095 7.08558830 -0.59480066 -1.13677994 0.74671437
O 22.70514953 1.49087836 7.05326232 -0.68594646 -0.82680461 -0.25783224
O 10.44208349 4.54107881 7.02582515 0.67672884 -1.32023818 0.46244035
O 22.80200600 4.54620107 7.03251724 0.39847946 -0.91107618 -0.95833544
O -0.94014383 1.46881030 4.14153857 -0.05439892 1.60875168 -0.24759421
O 11.29582783 1.51693068 4.22542942 0.95401471 0.81665215 -1.31682392
O -1.08050676 4.58280138 4.14196423 0.08411941 0.85129052 -0.44457474
O 11.22299554 4.47682143 4.14849068 1.06277378 -0.80032704 -1.22230278
O -2.26656358 1.54621590 9.84035295 -0.26543956 0.58867049 -0.35372556
O 9.90195645 1.52405242 9.71550790 0.82504020 -1.17126441 -0.50927505
O -2.39321360 4.53495734 9.72568341 1.18312642 -1.89944057 0.20418228
O 9.86837308 4.55074690 9.82590133 -0.62284913 -0.53002165 -0.30499492
O 5.72541701 6.00516675 1.37171453 -1.08689828 0.80742281 0.42327283
O 17.97567033 -0.02152140 1.45357176 1.06490896 0.19675240 -0.79891512
O 5.70704967 3.03305331 1.48304922 0.60765080 -1.00593028 -0.77698817
O 18.00172043 3.04752288 1.39199276 1.76892917 0.92719538 0.31228953
O 4.34388849 6.08392502 7.10898225 1.27726763 -0.16511432 0.42895706
O 16.54382823 0.06254413 7.02074966 -0.55964066 -0.19874383 0.03060903
O 4.37862287 3.14084553 6.98281472 1.28977474 -0.48905688 0.80787389
O 16.62407534 3.01068903 7.06818983 0.08599934 -1.33980998 -1.58580316
O 5.13021025 5.95967449 4.14777034 -0.46504741 0.93082297 0.16870821
O 17.40128088 0.06081072 4.19653970 1.55252796 0.21621058 1.09954575
O 5.22030927 3.01993257 4.15007237 0.29568563 -0.66047218 0.53617139
O 17.40724933 3.01646321 4.21648164 -0.50226558 -1.06155949 -0.64042151
O 3.72880369 6.08913990 9.83168264 -0.21772345 0.27234147 0.64727769
O 16.04590358 0.04070063 9.76447158 0.58503010 1.75162444 -1.60817774
O 3.75408731 3.04312677 9.75358908 -0.04772642 2.15117648 -0.28490631
O 16.03539859 3.04633490 9.77564902 -0.91209949 -0.53082324 -0.81198386
159
Lattice="24.527253 0.000000 0.000000 0.000000 6.072613 0.000000 -2.736059 0.000000 11.243113" Properties=species:S:1:pos:R:3:force:R:3 Energy=-626.438278 Virial="-58.220295 1.895935 -2.342440 1.895935 -47.100992 -4.579115 -2.342440 -4.579115 -43.226666" pbc="T T T" defect_vacancy
Ga 12.31227048 6.11194281 4.49652594 -0.42540532 0.40569857 -0.90027236
Ga -0.02156658 3.00876070 4.43396558 0.02041267 0.57380253 -0.22107978
Ga 12.23756733 3.01610928 4.45125133 -0.49361237 1.33672645 0.85875997
Ga -1.31996186 6.10521446 10.14811426 0.71137851 1.46282848 -0.64515362
Ga 10.91299020 6.05350169 10.17663344 -0.44894052 0.03282665 0.02116135
Ga -1.30703732 3.12716208 10.06214660 -1.23594344 0.23011246 0.04298227
Ga 10.92641036 3.05606527 10.12779323 0.40679222 0.24183623 0.68477652
Ga 10.86605761 -0.03695625 1.13667068 0.24004137 -0.70618843 0.19924929
Ga 23.11496100 -0.03049289 1.15622665 -0.19459337 -0.36534346 0.15092846
Ga 10.89573244 2.99173318 1.16657868 -1.52829980 -0.17415730 0.80333511
Ga 23.09726246 2.98517083 1.16163765 0.18555716 1.46367581 -0.27230895
Ga 9.50686084 6.10527474 6.79965323 0.72879484 0.17378763 -1.96216740
Ga 21.80901764 0.02021590 6.81451205 0.37108305 0.26970066 -1.03168133
Ga 9.58270848 2.99430861 6.76967720 -0.68690114 1.10671037 -0.80461527
Ga 21.73877756 3.01256005 6.72844614 -0.16911643 0.44916617 -0.88179788
Ga 6.19578783 1.49034753 4.52423636 -0.10850508 -0.23663450 0.98490071
Ga 18.40137123 1.55060509 4.48792601 0.09364297 -0.73527606 0.73834599
Ga 6.05600841 4.53002134 4.38740724 0.29311734 -0.55340687 -0.13477182
Ga 18.40068385 4.61148083 4.46518007 -1.53809520 -1.67511787 -0.32281333
Ga 4.77185396 1.55503743 9.97500640 -0.84875577 0.24526888 0.31320387
Ga 16.97257410 1.51378493 10.03285238 -1.17716009 0.38299910 1.09903424
Ga 4.76145568 4.56218132 10.12038761 -0.94121906 0.18025141 0.16965106
Ga 17.09570666 4.58219867 10.08305373 -1.24929419 0.13381126 -0.46352856
Ga 4.71400932 1.59669799 1.18313123 -0.09696649 0.46926411 1.21622822
Ga 16.96965775 1.59599337 1.13618959 0.87631745 -0.43278562 0.21250983
Ga 4.77877792 4.56952396 1.13347484 1.00263799 0.12555239 -0.63902227
Ga 16.90483554 4.52551939 1.22022969 0.77623883 0.22964916 0.30277730
Ga 3.38000682 1.58267584 6.75237247 -0.34802809 0.67373948 -0.04461465
Ga 15.66478163 1.53748372 6.79539516 0.22233042 -0.91588674 0.50878924
Ga 3.37834297 4.54327722 6.69054823 -0.33205198 0.35682950 0.27818691
Ga 15.68493002 4.64846311 6.78300893 -0.24689507 0.39927797 0.11982678
Ga 1.52333356 1.52651188 1.65896515 -0.42741218 -0.83560610 0.40633823
Ga 13.76095308 1.51715353 1.79462814 1.15958381 -1.11536726 0.34155225
Ga 1.47061042 4.54400533 1.70059102 0.82734142 -0.97984757 -1.73639537
Ga 13.82596605 4.54898438 1.82655348 1.13761092 -0.87033550 -0.10840208
Ga 0.10192013 1.52910298 7.37837136 1.04170354 1.24176203 -0.59433246
Ga 12.41297179 1.48069938 7.37445170 0.02953145 -0.38855105 -0.62209327
Ga 0.17778048 4.57593939 7.34239436 1.93001027 0.21655435 0.57081612
Ga 12.46034842 4.58457072 7.39896270 0.06147771 -0.94710759 -0.33768003
Ga 9.29811034 1.53351057 3.82303106 0.86592286 -0.17101592 0.21697546
Ga 21.63994768 1.49214048 3.76500371 -0.35468749 1.02907476 0.04386711
Ga 9.41165296 4.56294636 3.84080012 -0.13928119 0.46396411 2.04573239
Ga 21.68683178 4.56172380 3.83146153 0.18660740 0.08084239 0.92169235
Ga 8.07164527 1.54965543 9.46868659 -2.38977656 0.19039899 0.08330246
Ga 20.26456504 1.56933781 9.46143052 0.06502229 -0.20364068 1.02030771
Ga 8.05448650 4.51462941 9.52615270 -1.28785306 -1.07288897 0.31942815
Ga 20.27496568 4.58175601 9.47742195 -1.11272937 -0.04856971 0.87313467
Ga 7.59961413 0.03130001 1.75298554 0.65588099 -0.66844214 0.70573745
Ga 19.84177783 -0.01725915 1.72622781 -0.00560346 0.75617306 -0.49073679
Ga 7.70860581 3.04907074 1.80040028 0.38089313 0.38997880 -1.42042625
Ga 19.93746059 2.99008575 1.79435933 -0.06235866 -0.57335186 -1.40232092
Ga 6.27534730 -0.05443094 7.40031067 0.48425301 1.19740328 0.99656896
Ga 18.53984054 0.06348037 7.33031453 0.09890407 0.10683685 -1.11797049
Ga 6.33974146 3.02354626 7.42104026 -0.09701786 -1.20893566 -0.19172878
Ga 18.49886990 3.15915376 7.39124009 -0.94272868 -0.49106941 -0.41395387
Ga 3.21727223 -0.00802329 3.80196430 0.89887522 -0.05527106 0.31258719
Ga 15.52562964 6.02062004 3.85094852 -0.62246764 -0.26038891 -0.53332318
Ga 3.21090744 3.09031363 3.92370327 1.16016264 -0.65439191 -0.77567153
Ga 15.51613890 3.04139886 3.85147997 1.42608657 -1.12276084 -0.59279179
Ga 1.86980823 0.00544104 9.51946274 1.55841828 -0.01284366 1.13309498
Ga 14.15604922 6.05303353 9.52885916 -1.62916650 1.97284502 -1.08506559
Ga 1.86618651 2.98130790 9.43440644 0.26137400 -0.47961072 -0.38351222
Ga 14.15169178 3.02505031 9.56317795 0.59379390 1.62203724 -0.23304093
O 1.85275071 6.06207983 0.66704861 0.97414799 1.75530126 -0.13201607
O 14.10514747 6.07554705 0.67457179 0.05892826 1.64704962 0.47558714
O 1.88247927 3.10144629 0.58975464 -0.17664406 0.44983510 0.00406420
O 14.01554853 3.02867670 0.63386391 0.26410413 1.29630872 -1.29173366
O 0.56959354 -0.03920220 6.28865996 -1.06006208 0.87813403 -0.00839631
O 12.75567684 6.08248298 6.22517581 -0.27549274 0.23324381 0.36431958
O 0.51728034 3.04822004 6.23896035 -0.84230124 0.99133543 0.29693491
O 12.71829468 3.06204828 6.20413274 -0.37346912 -0.43763296 0.26605172
O 9.01158060 0.07466696 4.97244088 -0.56869489 0.10085316 -0.31340778
O 21.33654490 -0.02788113 5.00700285 -0.09812458 0.16562220 0.29513804
O 9.07745054 3.04288968 5.00056220 0.09626025 -1.33787080 0.40430715
O 21.26990340 2.97869823 5.03562849 0.43782151 -0.39232077 -0.78019638
O 7.73263517 6.06429006 10.59003247 0.93023522 1.20828176 0.29464874
O 20.00252798 5.98632667 10.63001256 0.35585348 1.65906665 1.41842432
O 7.66754314 3.12598280 10.63814218 -0.70785257 -0.34973977 1.62190105
O 19.94189414 3.00019245 10.67530129 2.07689826 0.14256286 0.24747375
O 8.03455752 1.41345729 0.63841915 0.17335945 0.04080073 1.35924063
O 20.26850060 1.52698216 0.69740962 0.50341190 0.03234790 -0.60744334
O 8.03430169 4.55669444 0.57980934 -1.52260833 0.33645200 -0.00473300
O 20.16286901 4.53278043 0.55756125 1.73277757 -0.77850661 0.18738321
O 6.65798466 1.49489146 6.19335632 0.49055390 0.23288135 -0.33048331
O 18.95229825 1.51440748 6.20348510 -0.53776946 -0.83242021 1.24449723
O 6.64628526 4.49668116 6.21282709 -2.35847503 -0.30536144 -0.12097702
O 18.87965147 4.51064791 6.22954949 -0.05870570 -1.08694298 -0.25043828
O 2.90785743 1.53551029 5.01350425 -0.36865614 0.42099416 -0.94117835
O 15.17249792 1.54643147 5.00057391 0.56742602 -0.36554086 0.14008702
O 2.91014709 4.57449305 5.04890234 0.13608974 1.31795546 -0.39855341
O 15.12840006 4.56922888 4.98715967 -0.35791490 -2.10808506 0.53776472
O 1.54680867 1.56423104 10.60005316 -0.18834735 -1.47093060 -0.54222493
O 13.75306300 1.49188814 10.64771507 0.90120642 0.11755489 -0.39977132
O 1.57004431 4.59625823 10.61818340 0.34905673 0.50532439 0.72793445
O 13.85606762 4.55126522 10.57639397 -0.79632948 -0.33693164 0.37752492
O 1.33508587 6.08545188 3.30328832 1.52155012 -0.68037708 1.14791876
O 13.57540508 0.05299126 3.21316189 -0.44726608 -0.53515640 0.52245796
O 1.33926435 3.05904274 3.14195011 1.45565331 -0.02582037 -1.13017499
O 13.59727523 2.96619052 3.14511184 0.12923723 -1.42554129 -0.69408102
O -0.00619448 -0.07595364 8.83934116 -1.14637476 -0.88470972 -0.43300685
O 12.27463192 -0.00285608 8.79002601 -1.23677731 -0.20474931 -0.14968840
O 0.05422146 3.02773658 8.76064107 0.45377097 0.65656762 -0.26354175
O 12.23802160 3.03591924 8.73983241 1.41582746 -0.45429691 0.60879820
O 9.57809553 5.99635968 2.47599942 0.77774399 -0.74633433 1.26913281
O 21.91630376 6.13650393 2.50373424 1.20215803 -0.30217486 0.27843876
O 9.49242538 3.06744191 2.41746380 -0.74044310 1.59212447 -0.69600097
O 21.83435485 3.06824500 2.42583014 0.05787497 0.46899791 1.18233117
O 8.12032408 -0.01110708 8.04754192 0.33591194 0.19532454 -0.29064208
O 20.44419625 6.10602742 8.05680049 0.38142663 -0.34646909 0.15472364
O 8.13763949 3.04272789 8.11156939 -0.29576282 0.39091443 -0.08674829
O 20.41932203 3.04922932 8.06613610 -0.43619301 0.35793365 -0.64265359
O 7.43606165 1.48704138 3.13615344 -0.87824382 1.33725976 -2.29547753
O 19.78118860 1.49520946 3.23390076 -0.04998933 0.62583964 0.13056829
O 7.51478373 4.62196548 3.22350386 -0.63604913 -0.37438630 2.16635146
O 19.80512242 4.60152705 3.17511992 -0.30899966 -0.49161811 1.29369131
O 6.16891944 1.56141465 8.88105730 -0.30365844 0.93215288 -1.28787337
O 18.39980248 1.50851832 8.80546105 0.95190994 0.74627320 -1.03709497
O 6.12223927 4.51107603 8.85620101 -1.23675694 0.17017338 0.09204276
O 18.37509425 4.58424630 8.69744395 1.11869573 0.68561528 0.18478875
O 3.40371577 1.53031995 2.45566823 0.77780245 0.18946365 -0.00205482
O 15.60345177 1.50880831 2.41278614 -0.48969293 -0.27820460 -0.55567417
O 3.37563466 4.54832247 2.45642239 -0.64388181 -0.03798947 0.38771006
O 15.63532348 4.55327532 2.46865155 0.30808370 1.15127801 -0.97235585
O 2.11751121 1.53203298 8.03891664 1.10558555 -0.75925069 -0.02098517
O 14.35326683 1.54509962 8.11636461 -1.23228801 0.22806954 -0.01224563
O 1.99774646 4.52257805 7.99294151 1.64886781 0.52773370 -0.20961765
O 14.32612460 4.61772469 8.04018361 -1.14529973 -0.73590288 -1.26067619
O 11.88461398 1.54378652 1.45515669 -0.04989270 -1.62562515 -0.30047955
O 24.16804959 1.52361789 1.41789544 1.03052121 -0.75534644 0.74100214
O 11.81165482 4.55563295 1.39645240 0.48076336 -0.65551853 0.22740638
O 24.16552096 4.53818267 1.38915108 -0.90882433 0.08740062 0.14118256
O 10.51043891 1.50740623 7.06560139 -0.70975781 0.39569476 0.27177937
O 22.74838259 1.52753077 7.05036150 -0.08859974 -0.54622942 -0.20663178
O 10.45159373 4.49647872 7.03940687 0.08439907 -1.27754633 0.06570614
O 22.74212278 4.59299092 7.06036756 0.56521589 -0.36518678 -0.99151414
O -0.98632664 1.48439680 4.09965887 -1.20029047 -0.17167531 -0.13421309
O 11.34586284 1.48126030 4.18000775 0.98891815 0.77749013 -0.05465611
O -0.98025257 4.54509166 4.28282947 0.06810983 -1.11493282 -0.39025721
O 11.28251669 4.53400463 4.20616368 0.80391373 0.79152274 -1.02801734
O -2.33732839 1.45741845 9.81362973 1.05840149 -0.06734000 -0.46512605
O 9.90231941 1.51673470 9.84140454 -1.02525598 -0.32807600 -1.50828580
O -2.29809172 4.51290315 9.81545832 -0.30963533 0.27492029 -0.59570131
O 9.91627666 4.52364207 9.74747903 -0.88679775 -0.21906817 -0.53045178
O 5.69844505 6.11603484 1.31566580 0.95422290 -0.52406613 1.08701738
O 17.96184376 0.03828632 1.39871124 -0.27181162 -0.57340230 -0.11193299
O 5.73644662 3.02068730 1.39794291 0.57899250 -0.69253290 1.37308970
O 17.93303149 3.01566486 1.42871758 -1.55809902 -0.46223630 0.65994258
O 4.34592708 6.08074727 7.12854796 -0.70759973 0.44487832 -0.49083191
O 16.69099452 -0.01842191 7.02403225 1.11949717 1.58417785 1.60762340
O 4.34608408 3.04743888 7.05095006 -1.61157286 0.07014441 0.86356197
O 16.65757442 3.03551035 7.04263929 0.11879669 0.85232114 1.05165473
O 5.11317814 6.17488945 4.19384336 0.05160411 -0.63791821 -0.95336085
O 17.44454006 -0.09342443 4.17348788 0.42070324 -1.45128787 -0.65323744
O 5.08949234 3.01977017 4.14099580 0.80098145 1.35757161 -0.23270105
O 17.37513036 3.07278180 4.21218449 -0.06735110 -0.79634955 -0.18139162
O 3.75392837 6.13443865 9.73523002 -0.21791233 -1.90025166 0.52226807
O 16.11859258 0.03245002 9.81937931 0.56152729 -0.75657270 0.53757874
O 3.80490848 3.13618173 9.75765238 -1.87539756 0.11769168 -0.72236508
O 16.07850700 2.95940659 9.85538732 0.11928940 -0.43023233 0.41301063
159
Lattice="24.681392 0.000000 0.000000 0.000000 6.110776 0.000000 -2.753254 0.000000 11.313769" Properties=species:S:1:pos:R:3:force:R:3 Energy=-628.067521 Virial="-58.103192 -0.357380 -1.842383 -0.357380 -44.525597 -5.366762 -1.842383 -5.366762 -39.932955" pbc="T T T" defect_vacancy
Ga 12.40918539 6.14088713 4.50947956 -1.66435477 -1.18397458 1.77662533
Ga -0.01150077 3.08054053 4.47112816 0.99558169 0.61038191 -0.02585597
Ga 12.34846516 2.97355547 4.49916674 0.65640577 0.38298145 0.67660529
Ga -1.36318844 6.11962334 10.14941423 -1.85539580 1.09419410 -1.16526444
Ga 10.90682666 6.14176754 10.16216976 -0.67176132 -1.41314153 -1.08945038
Ga -1.31259915 2.96338071 10.14073691 0.62397193 -0.98482951 0.17676178
Ga 11.01760207 2.99387827 10.19772547 0.57370114 -1.04838478 -1.85608237
Ga 11.00403206 0.02357881 1.12511853 0.45383081 0.46330782 -0.56304306
Ga 23.25114279 0.01125576 1.19269677 -0.70323238 -0.94378141 0.52846181
Ga 11.03176397 3.07559158 1.13413809 0.65215802 -0.23551251 -0.36972938
Ga 23.34301970 3.12507397 1.17466078 1.24913299 -0.88002038 0.52148740
Ga 9.59853383 6.14807085 6.70289575 0.14851037 0.34707070 1.14948019
Ga 21.92428931 -0.00669732 6.77772982 -0.33005262 -0.69204998 1.59236437
Ga 9.59085953 3.07039634 6.83632121 -0.07628973 -1.03469052 -0.41205993
Ga 21.93313947 3.07953308 6.83589804 -0.26948380 0.76983388 0.17738990
Ga 6.17857745 1.48618796 4.60326555 -0.01585165 0.52588664 -0.89318912
Ga 18.57182004 1.56472981 4.51671246 -0.91546679 0.32586515 -0.32711492
Ga 6.22206139 4.58549856 4.52722064 1.77018792 1.43506403 -0.03953931
Ga 18.44295854 4.63371513 4.49855927 -0.18342616 0.88829040 0.37631446
Ga 4.78936931 1.53313492 10.17722836 0.36090344 0.41828149 0.53168622
Ga 17.18969357 1.55496310 10.21315632 0.57719933 -0.22679159 0.17297056
Ga 4.78834860 4.59776423 10.15843364 0.38164386 0.22510104 -0.76419176
Ga 17.08503315 4.60771970 10.15236288 -0.88109227 -0.08110325 -1.19296971
Ga 4.81449333 1.56355110 1.14418652 -1.01304899 0.05476528 0.10631433
Ga 17.19165007 1.48661846 1.10026281 1.74000980 0.60629483 -0.08509336
Ga 4.74750496 4.56308541 1.14665002 -0.77228544 0.46761769 -1.21877686
Ga 17.14552928 4.56842592 1.18553232 0.75774959 0.70891691 -0.32668646
Ga 3.34388395 1.54825374 6.78758764 -0.57361485 0.60851191 -1.47939029
Ga 15.76171246 1.50932226 6.80689779 0.45808720 -0.67654915 -0.22041578
Ga 3.40478905 4.60732272 6.89853173 1.10584610 1.56494820 0.28912409
Ga 15.76138338 4.61846503 6.84557332 -0.99263188 0.42803975 -0.74428274
Ga 1.47922066 1.54055993 1.75120877 0.30847999 0.79249074 0.65990156
Ga 13.95675653 1.55158925 1.72706965 0.44456920 -0.05366397 -0.14653883
Ga 1.50124271 4.54918606 1.78800194 -0.05742470 -0.35701445 -1.01398312
Ga 13.86107309 4.57788158 1.75594699 0.48395245 -0.30476738 0.17318558
Ga 0.13470813 1.56411835 7.45548579 0.13278456 -0.63745805 -0.28667955
Ga 12.45163087 1.53115696 7.37741245 0.22426010 0.19921557 -0.61446026
Ga 0.16798148 4.57741921 7.40674581 0.45153685 -0.00899807 -0.35603898
Ga 12.42497431 4.57756340 7.45651726 -0.46429081 -0.54942299 -0.25733325
Ga 9.42302717 1.56699109 3.82976693 -0.16235432 0.26485754 0.71059871
Ga 21.76686604 1.52489309 3.91167407 1.04454976 -1.51041564 2.02781462
Ga 9.50256922 4.62648169 3.91437929 0.16885990 0.72338356 0.31009273
Ga 21.83378571 4.51621041 3.79936013 0.37418851 1.24076727 -0.90998710
Ga 8.03671707 1.54665971 9.56967377 0.69540289 -0.98138442 0.27709299
Ga 20.41620821 1.52807819 9.54861662 -2.04795182 0.77790291 -0.00693592
Ga 8.04509524 4.63173273 9.56899072 -0.24894135 -0.54450354 1.64890933
Ga 20.47170505 4.65566920 9.55205925 0.65310597 0.26085645 0.67214455
Ga 7.74137966 -0.00471706 1.78702666 -0.33648638 -0.42813050 -0.78294693
Ga 20.07566471 0.07904245 1.81168617 -0.95171151 -0.28987376 -1.96275930
Ga 7.69586398 3.05671502 1.83869570 -0.03361563 0.81073277 -0.90607665
Ga 20.02391359 3.06975463 1.76354555 0.21787873 -1.11675615 -0.04132073
Ga 6.33179360 -0.02280274 7.45232072 1.11049073 1.20751635 0.45996940
Ga 18.63098350 0.00244951 7.44029208 -1.17590631 0.49701738 0.68338333
Ga 6.31864037 3.04641314 7.43398896 -0.58636847 0.45803216 1.35327004
Ga 18.65910743 3.02451502 7.39723375 0.97167825 -0.48262372 0.23855794
Ga 3.30925644 0.01586741 3.88051840 -0.18099130 0.03448013 -0.02673108
Ga 15.63415883 6.11767820 3.90836865 -0.20625753 -0.22281297 -0.78320091
Ga 3.26504936 3.06566080 3.88255293 -1.25467331 -0.35011238 -0.14980713
Ga 15.61704356 3.06108088 3.86853282 1.15954240 0.40447948 -0.26477197
Ga 1.85921574 0.00094918 9.55929833 0.51423164 0.64028713 0.82854568
Ga 14.25445981 6.12269042 9.56584255 -0.03802042 0.14543928 -0.44139945
Ga 1.84105448 3.07475172 9.53412800 0.05865158 0.12710503 1.13361738
Ga 14.20249078 3.01869191 9.48573280 -0.91549977 1.53398226 1.67838819
O 1.94155220 6.17254296 0.62500781 -0.32080407 -0.20440653 0.44896008
O 14.24493610 6.09875424 0.56877918 0.40647749 -0.31356579 -0.53468842
O 1.85645354 3.03764357 0.59474446 -1.15442280 -0.03585464 1.12884742
O 14.17113866 3.05074110 0.64638576 0.30634225 1.64114519 1.52331444
O 0.43027880 -0.10708954 6.31224071 3.04252672 1.12005537 -0.00414047
O 12.78844683 6.10735675 6.19396256 -0.75019497 0.33911846 1.12941409
O 0.47326044 3.10488567 6.27950241 -0.11964441 1.35967221 0.30272068
O 12.79276006 3.07020139 6.32648016 -1.70834451 1.11335999 -0.48487934
O 9.07558660 0.03898933 4.98557221 0.38300890 -0.26027962 0.57521807
O 21.52375171 0.00058325 5.02712305 -0.35609779 1.55665624 1.12695187
O 9.08813897 3.05875122 5.07121570 -1.75520971 0.65883419 -0.19567865
O 21.43561187 3.12114597 5.08801718 1.07919838 -0.83640975 0.12296134
O 7.71017814 6.07417483 10.71168222 -0.02187667 0.15790930 0.48343609
O 20.08327303 6.08472426 10.68623325 0.22710798 -0.08583900 -0.75617040
O 7.75363806 3.09699988 10.66583296 0.69767613 -0.29511631 -0.02783562
O 19.98992714 3.02439053 10.62284776 0.91002997 -0.04325129 -0.69303391
O 7.98491902 1.41604471 0.66782708 0.31490714 0.14467253 -0.26318337
O 20.30105920 1.61712051 0.54209414 1.28042601 -0.31387686 0.55444914
O 8.07574476 4.56855188 0.64452652 -1.26437000 -0.77609928 0.19019240
O 20.39985994 4.53806848 0.68544947 -1.22482017 -1.28483013 -0.30759589
O 6.60021270 1.51663262 6.33831200 -1.25204394 1.14237192 2.03002204
O 19.01253549 1.51166819 6.27321501 0.40254108 -0.70256896 -0.97593364
O 6.66363926 4.62685497 6.30117543 0.24251804 -0.59128699 0.38084367
O 18.98266464 4.60924156 6.18405642 -0.75511645 0.38276058 0.85947022
O 2.95364715 1.49977824 5.02547502 -0.19916503 0.15608418 -0.30564890
O 15.29061680 1.56812943 4.99801798 0.27237801 0.06398336 -1.35000599
O 2.94535942 4.52239514 5.05552759 1.37145415 -0.88830196 -0.15341608
O 15.21325584 4.52839033 5.06084572 -0.22422971 -0.47098233 0.36234076
O 1.54036300 1.52086843 10.66337598 0.71950238 0.63352904 -0.68613064
O 13.91952071 1.47602003 10.68505152 -0.29326843 0.27716898 0.00309713
O 1.54317941 4.58372124 10.69606178 -0.56083397 0.75997724 0.64395937
O 13.89251702 4.54437218 10.62483173 -1.17929040 0.12668560 -0.51279453
O 1.35795541 6.10613306 3.16180122 1.10041064 0.36987489 -0.30488606
O 13.61498044 0.06176510 3.20608686 0.82917598 0.62632231 -0.71216840
O 1.38936137 3.04568264 3.12538917 1.34103294 -0.38957000 -0.38730058
O 13.67302772 3.05860419 3.23574207 0.69040789 0.61054325 -1.23743906
O -0.02303917 0.03139786 8.76114322 0.00045724 -0.01350183 -1.40306112
O 12.26938297 0.00770347 8.86024684 0.74347652 -0.67067689 1.06935068
O -0.03511890 3.11728294 8.78043807 -0.88399433 0.29668997 -0.54059247
O 12.33210509 3.04124605 8.82588579 -0.85945633 0.03059100 1.04686218
O 9.62087708 6.08564002 2.34762954 1.05126301 -0.61763438 0.37905059
O 21.91634056 6.13059479 2.40912801 -0.27321583 1.61297854 -1.17369468
O 9.62666256 3.04469468 2.39137097 -0.38149896 -0.44803817 1.03965644
O 21.94107246 2.99771857 2.46269863 0.94125233 -1.19735540 -0.69589606
O 8.24957984 0.10659898 8.13803466 -0.97014016 0.30623803 -0.68362219
O 20.51329471 6.01876879 8.13282398 0.85582804 0.68535099 -1.52063686
O 8.19528985 2.95246619 8.10043947 0.28204984 0.91078118 0.51676496
O 20.50333174 3.14374722 8.06669543 -0.22335887 -0.70158532 1.17134161
O 7.52332967 1.52986162 3.18990323 0.50335583 -2.26539119 1.37056768
O 19.92612771 1.53192945 3.17178832 -0.23851729 0.54678049 0.49882197
O 7.50738443 4.54064583 3.27230320 1.98063456 -0.17337953 -0.06911386
O 19.87400688 4.60963005 3.19768414 -0.18612707 0.43587184 0.30466974
O 6.07538037 1.61002417 8.80148709 -0.47143956 -0.48248931 1.03792540
O 18.49530861 1.53714308 8.79932862 0.56393644 -0.23300229 0.81451298
O 6.15462480 4.58915117 8.92530373 -0.76361543 -1.64716020 -0.29626697
O 18.43986107 4.61190869 8.88989233 -0.64510766 -0.08972042 -0.90717422
O 3.37583762 1.54363044 2.50561720 -0.81509403 -2.08228696 -1.21336180
O 15.82048118 1.46598817 2.48527183 -0.40415883 0.34999183 -0.70215075
O 3.50900691 4.53490897 2.51569021 -0.49394147 -0.11301333 0.07230360
O 15.81730414 4.65188464 2.41169272 0.26139882 0.49915004 0.32967477
O 2.03304425 1.56305724 8.13678254 -0.56001654 -0.65635300 0.50141912
O 14.29716933 1.59974500 8.09292360 -0.21601331 -0.22751726 -1.08215745
O 2.00479839 4.63734218 8.09570367 -0.96249781 -1.55732980 0.89597537
O 14.45640370 4.57187165 8.11916188 -0.28197380 -1.11951638 1.15707985
O 11.92272344 1.46900542 1.48133141 1.61168165 -0.06832476 -0.41302873
O 24.30962275 1.56337555 1.48071155 -0.04399707 0.75151459 -0.61871841
O 11.98986979 4.55156103 1.50011269 -1.32870137 -0.11653252 -0.49252933
O 24.31666889 4.57879384 1.41546935 -1.52360147 -0.03327972 0.31868183
O 10.54888198 1.47917012 7.12538446 0.13664762 -0.45006974 -0.36237002
O 22.91358867 1.52678435 7.12861161 0.87131060 -0.57886873 0.56306668
O 10.62662184 4.58652832 7.16430122 -0.76872925 0.32833232 -0.38848029
O 22.94192957 4.55431145 7.15721658 -0.62273861 -0.01014707 0.60495025
O -0.96156592 1.54835112 4.19603197 0.47245467 -0.93898649 -0.28239048
O 11.30861770 1.43693558 4.16483993 -0.22948689 0.49069670 -0.77434492
O -0.96392193 4.56210319 4.15834245 -1.79172031 -0.95949565 1.30475804
O 11.36461032 4.55647367 4.24685148 -0.88593662 -0.78360899 -1.49313129
O -2.30212803 1.56340311 9.87856397 0.35925322 0.38820145 0.47323008
O 9.94867666 1.53928668 9.86401556 0.92774603 -0.74607540 -0.42461414
O -2.33067726 4.57479244 9.87752853 -0.99497715 -0.98906041 -0.25036160
O 9.98124106 4.63345088 9.81128791 1.33553919 -0.26177337 0.48151389
O 5.77657844 6.11481154 1.42471733 0.27155143 -0.27685048 0.10662990
O 18.09091815 -0.02624215 1.48787526 -0.55002041 -0.52979485 -1.06935433
O 5.72310714 3.01688905 1.39953753 -0.72684057 -0.67359902 -0.65195794
O 18.10719899 3.00624089 1.42119650 -0.04893465 0.78042071 0.35476697
O 4.41738000 6.13441289 7.19196541 -0.06232555 0.43298522 0.91372856
O 16.71978313 0.02885672 7.12184968 0.07764258 0.69855068 0.38976340
O 4.37114755 3.02501256 7.11618526 -0.00992301 0.10166252 0.74799424
O 16.76427440 3.03637178 7.10282848 0.79129064 1.89431522 -0.75487543
O 5.25405229 6.17597847 4.19737860 0.52798275 -0.05425303 -0.47351774
O 17.54228578 0.04072611 4.21283615 -0.85905327 1.02590087 -0.37706209
O 5.18176236 3.07439931 4.23878024 0.76769476 -0.33419442 0.98115365
O 17.55006574 3.05860593 4.15522613 -1.45332618 -0.76477191 0.28802045
O 3.82771094 6.08612460 9.87861176 -0.53624923 -0.20737012 0.66062725
O 16.13781265 -0.01257599 9.94436617 0.62966139 0.16364512 0.15604547
O 3.82918894 2.95252540 9.91515291 1.19663229 0.58107161 -0.54636797
O 16.10057260 3.02598837 9.85542903 -0.00333383 -0.39725240 -1.48152177
159
Lattice="25.067122 0.000000 0.000000 0.000000 6.206278 0.000000 -2.796283 0.000000 11.490585" Properties=species:S:1:pos:R:3:force:R:3 Energy=-627.546629 Virial="-51.523071 -1.750543 -3.057335 -1.750543 -46.255753 -6.598737 -3.057335 -6.598737 -42.767913" pbc="T T T" defect_vacancy
Ga 12.57213466 6.17222580 4.65261295 0.48843782 -0.01032402 0.19575553
Ga 0.00928008 3.04435721 4.53756510 -0.26510831 0.88517300 -0.82514827
Ga 12.59305432 3.15565087 4.56808220 0.44416752 -0.15182460 0.67354191
Ga -1.43793999 6.15528359 10.36224004 0.97551499 0.08410146 1.30864610
Ga 11.13701637 6.22689688 10.33248666 0.80114805 0.67871153 0.91154045
Ga -1.42310332 3.08151935 10.29804429 -0.57216435 0.38831726 -0.54538787
Ga 11.11903256 3.09201653 10.32053909 -0.60310028 -0.42895491 0.59114972
Ga 11.12777980 -0.02950132 1.15690798 -0.24484822 0.29086305 1.05331589
Ga 23.70543747 0.00024289 1.17656964 0.12786680 0.15502350 -0.22894130
Ga 11.09103597 3.08846921 1.16195426 -1.14888017 1.60702475 0.71503763
Ga 23.60730027 3.14303274 1.18362186 1.37966109 0.38581428 -0.02014921
Ga 9.81728570 6.28446194 6.91578955 0.86851854 -0.35934092 0.77299112
Ga 22.24913911 -0.03861938 6.85784612 0.82629937 0.16680979 -0.47573327
Ga 9.72655863 3.09491821 6.93747917 -0.47817426 0.66609472 1.27976846
Ga 22.20640123 3.21474197 6.97515769 -0.51303173 -0.93579682 -0.24193568
Ga 6.23470306 1.50105100 4.54969238 -0.30094968 0.43593466 -0.48973519
Ga 18.81119271 1.61756446 4.57250552 -0.41914818 -0.91587082 -0.67913501
Ga 6.26885288 4.59526274 4.54206413 0.21981406 0.52835134 -0.69256362
Ga 18.84512206 4.63239894 4.51303495 -0.88376798 -0.62418086 -0.19574730
Ga 4.87577677 1.56404819 10.33073236 -0.87837651 0.20873804 0.77911388
Ga 17.46871032 1.54405224 10.35540820 -0.39437805 -0.61830616 -0.58332594
Ga 4.85527684 4.64540292 10.32645139 -1.19647909 0.53832635 0.64704261
Ga 17.36878883 4.65205738 10.27676326 0.33042594 -0.59451791 -0.65497743
Ga 4.86939636 1.56477134 1.09534769 0.16395813 0.75200302 0.17815651
Ga 17.44015865 1.52788527 1.17321696 0.46256713 -0.95838649 -0.04676338
Ga 4.79864104 4.62923418 1.20981681 0.03563036 0.88927930 -0.07762195
Ga 17.33590345 4.67036952 1.17928010 0.29051935 1.42215579 -0.20538025
Ga 3.48081610 1.47303554 6.97740388 -0.43163917 -0.21925850 -0.56636311
Ga 16.03632042 1.54935999 6.98074912 0.29484907 -1.16775699 0.48006880
Ga 3.48707520 4.69111656 6.96681861 -1.02778906 0.76220403 -0.60570470
Ga 15.94457413 4.64733641 6.92146458 -0.93482461 -0.63757315 -1.24330990
Ga 1.51690060 1.57278315 1.80485215 -0.72239672 0.24543335 0.36452791
Ga 14.09276469 1.49535609 1.74607514 0.01702671 -0.04294989 -0.66106235
Ga 1.55799892 4.64341035 1.76738784 -0.20978987 -0.18309330 -0.55914913
Ga 14.06581864 4.64492411 1.81216710 0.15687763 0.55918887 0.34242560
Ga 0.15954723 1.52714203 7.52895536 -0.79453297 -1.08454942 -0.85592108
Ga 12.63376591 1.52002768 7.53019865 0.08388786 -0.85443828 0.20683026
Ga 0.10125542 4.57543133 7.48761944 0.81121341 0.20382421 0.50020149
Ga 12.71006493 4.66416982 7.56347220 -0.05355921 -0.34059079 -0.31822598
Ga 9.56858026 1.51996425 4.00185013 -0.57049314 -0.12155502 0.09006936
Ga 22.15868831 1.59702156 3.86422704 0.14529638 -0.85743501 -0.75666019
Ga 9.64893395 4.66206037 3.91966295 -0.55753002 0.21089974 -0.04545887
Ga 22.14416109 4.69616352 3.97272294 -0.21053950 0.40546186 -0.72875689
Ga 8.21164042 1.53636687 9.64031888 -0.97858641 0.36181609 0.16159702
Ga 20.70820328 1.62200348 9.65081592 0.37078122 -0.40054726 -0.60912965
Ga 8.20699031 4.58474498 9.67313570 0.76146229 0.16390471 -0.97626877
Ga 20.76382106 4.61088709 9.65018867 -1.53922231 -0.37150209 0.89796762
Ga 7.82876913 -0.00374790 1.81068697 -0.50971455 0.75041880 -0.04889220
Ga 20.38223340 -0.05059736 1.76099285 -0.17492293 -0.71613412 0.92161987
Ga 7.86133622 3.07023542 1.83988679 -0.88189500 -0.48660294 -0.21568074
Ga 20.33420083 3.18694257 1.79528276 -0.47681399 0.77472845 1.70594294
Ga 6.46831073 -0.02067996 7.54099867 -1.23128503 0.23132109 1.84672784
Ga 18.95636578 0.04175379 7.55702542 -0.61889065 1.59252468 0.90689214
Ga 6.50286369 3.16323477 7.59656755 0.15457587 0.76094481 0.93389079
Ga 18.99076073 3.10954296 7.53365378 0.39078540 0.83549623 -0.83000871
Ga 3.34823127 0.05779007 3.93939818 -0.39156435 -1.09261043 -0.50805322
Ga 15.86842362 6.18886915 3.93036213 0.15842059 -0.55916432 -0.00215522
Ga 3.31576231 3.14774614 3.89879270 -1.39541152 0.13716254 -0.49063118
Ga 15.90031152 3.11880149 3.94386097 -0.18063487 0.08171549 0.74903142
Ga 1.96804615 0.03689382 9.72179053 0.21534642 -0.64714779 -1.00843601
Ga 14.48598720 6.20194619 9.73534322 0.24142924 -0.20064806 0.00730425
Ga 1.92707798 3.08467910 9.66759366 -0.66657249 0.38139551 -0.25170016
Ga 14.37273063 3.11055257 9.67703012 -0.37409383 0.54691114 1.39760746
O 1.87832568 6.23601071 0.66156350 0.38724231 0.26987543 -0.50447725
O 14.34997851 6.12340007 0.62319041 -0.75269734 -1.09888809 0.10967114
O 1.83190037 3.11854016 0.62328165 0.44044030 1.00568658 -0.99601005
O 14.40847421 3.07681065 0.69143559 -0.16701930 -0.61964608 1.57206433
O 0.38372672 0.06354060 6.38075770 0.59342767 0.92487607 -1.00839698
O 12.93308549 6.14304741 6.36521116 1.04059420 0.25505379 0.65452909
O 0.56111733 3.11130069 6.37825998 0.42867114 0.28474048 2.19533342
O 13.02763025 3.04733697 6.34779783 0.27437385 0.72873763 -0.61096961
O 9.23095039 0.00736314 5.15557989 0.00163053 0.24672215 -1.98321478
O 21.75953413 -0.00138258 5.12864797 -0.43450070 -1.59213160 0.09712278
O 9.17417036 3.15381070 5.15881449 0.62286502 -0.12287884 -1.34259463
O 21.75323627 3.13607971 5.13047738 -0.00335766 0.41414006 0.16831206
O 7.84774135 6.21111299 10.94158365 -0.12587741 -0.06512866 -0.04446933
O 20.38900687 6.27027582 10.86034591 0.42461374 0.33247689 0.10431779
O 7.81553477 3.08084732 10.88983457 -1.17298968 0.35468743 -0.60407629
O 20.41842413 3.12942740 10.82065976 1.07986702 -0.64936476 1.01903973
O 8.18863418 1.65469532 0.58342515 0.92845505 -0.35344560 -0.33732912
O 20.74433134 1.53831779 0.60181851 0.73355659 -0.05894307 -0.57432329
O 8.22620595 4.71897009 0.66387176 -1.05183981 -0.41413109 -0.14592312
O 20.72283975 4.62032059 0.65888821 2.78998461 0.41917510 -0.52938536
O 6.72414602 1.53287905 6.36816725 -0.73541402 0.18468628 -0.04674279
O 19.30040270 1.52300785 6.34673896 0.14136681 -0.24127996 1.05133848
O 6.73980039 4.64198378 6.36310515 -0.91875824 -0.23054918 0.84037414
O 19.39026093 4.59635305 6.32646950 -0.91133127 0.03651868 -0.39663797
O 2.94727977 1.55983373 5.20158261 -0.68864775 0.41254959 -0.46276660
O 15.51099466 1.56215180 5.11594558 -0.16138813 1.38536942 0.46884971
O 3.00324636 4.61109833 5.10185483 1.22571619 -0.64363039 0.40565863
O 15.49402981 4.67485228 5.08574112 0.97661172 0.18880003 0.17703743
O 1.58222622 1.54064493 10.83520416 0.99350468 0.26543090 0.14023843
O 14.14107740 1.51083182 10.90948337 -0.48866189 -1.36700775 -0.16298455
O 1.62176908 4.71792217 10.84719869 -0.31814362 -1.12377922 -0.35462793
O 14.13257264 4.62954719 10.87729923 1.20851851 0.85100694 0.68052228
O 1.38028699 6.18847363 3.21895929 1.34914555 -1.37117976 0.20171575
O 13.97129969 -0.00332503 3.27948507 -0.22904971 -0.96113081 -0.62915825
O 1.40937582 3.04034411 3.23468897 0.21150441 0.26204974 1.24818804
O 13.92229092 3.13781741 3.22952168 1.44689430 -0.15468118 1.07525157
O 0.05768806 0.02327442 8.99442052 -0.49759481 -0.90801928 1.51406354
O 12.49498802 0.06691712 8.99093458 -0.99289416 0.48440849 0.18654523
O -0.01932548 3.18664079 9.03849325 1.13868187 0.42832876 0.01794413
O 12.51572956 3.05602053 8.95204412 -0.25017255 -0.10501305 0.42892383
O 9.74847095 6.17996822 2.49962226 -0.08523858 -1.08893605 -0.74058383
O 22.17224357 6.16569252 2.47427051 -0.10729790 -0.74776431 -0.54812417
O 9.76522752 3.11341100 2.51570925 0.22370242 0.05316896 -1.11935357
O 22.22536853 3.11048352 2.53087907 0.34801858 -0.00605876 -0.71589212
O 8.33858024 0.00230021 8.23296255 -0.22539557 -0.49399580 0.15578624
O 20.89239793 6.19514582 8.26654453 0.29902721 -0.47998146 -0.18136352
O 8.34512872 3.11662314 8.23193538 -0.19135221 -0.09779812 -1.08318916
O 20.96199454 3.06236081 8.25478016 0.90902468 -0.40250615 0.05476147
O 7.57189288 1.55030730 3.21558204 -0.25245572 -0.25738419 0.20886353
O 20.17252369 1.50836720 3.19496088 0.74647139 -1.28929181 0.84550383
O 7.63004688 4.62609566 3.36545573 -0.22533413 -0.24642416 0.80314737
O 20.18850998 4.73555420 3.21463360 0.03525422 -0.00427979 -1.83961424
O 6.27425973 1.62893168 8.98286977 0.12609035 -0.13268073 -1.85399132
O 18.84955065 1.49624204 9.05646199 0.14834179 -0.03268012 -0.35753284
O 6.28392700 4.64504744 9.04616599 0.23109281 0.82763219 -0.27394432
O 18.76540871 4.67846865 8.99120004 0.31269769 0.82344462 0.30965562
O 3.49378754 1.58493579 2.43319963 -0.14567715 -0.84046460 0.53165775
O 16.03117583 1.61328564 2.49918397 -0.30380034 0.24025272 -0.59315483
O 3.53352390 4.69929429 2.49040158 -0.09155505 0.98981299 0.13519182
O 15.94239776 4.66821626 2.49636533 1.73399913 1.88895755 0.50650083
O 2.10138865 1.52585616 8.24722095 -1.22901923 0.44321360 1.83076483
O 14.57455201 1.57399435 8.24067877 0.85828475 0.38950204 0.70496004
O 2.04240232 4.69050445 8.20402914 0.56449114 0.73137051 0.19792616
O 14.63185143 4.66498486 8.24707540 0.18967273 -1.64513138 -0.61956174
O 12.15108172 1.49282451 1.48575294 0.67472300 0.25983987 -0.76770683
O 24.63521725 1.51223069 1.54082620 -0.32222691 0.24121989 -0.78968541
O 12.09660412 4.69770237 1.57793061 -1.12470860 -1.16253690 -0.40380263
O 24.86268033 4.58548421 1.47723367 -1.39855187 0.43103402 -0.33158803
O 10.69562111 1.60934575 7.21558347 0.94314837 0.10924888 0.05081073
O 23.33647412 1.57571667 7.24234637 1.50816979 0.15291283 -0.20963221
O 10.74870935 4.59307093 7.20621100 -0.16341537 -0.17227972 0.43299546
O 23.29405029 4.67414680 7.19385276 -0.60618905 0.65718703 -1.09758751
O -0.97375604 1.49118334 4.30420421 0.66709222 0.55363936 -0.27272191
O 11.60135837 1.59167662 4.33811410 -0.26994136 0.99172138 0.39338825
O -1.02471931 4.74082683 4.26431283 0.13187557 0.34434652 0.03745120
O 11.59134183 4.58223731 4.30236735 0.86547773 -0.21936967 -0.50600860
O -2.34738758 1.55568193 9.95291859 0.19327889 -0.99571302 -0.22365904
O 10.17011838 1.48739549 9.92939935 1.01330461 0.42327982 0.49705544
O -2.38238720 4.66087849 10.11241366 -0.12562789 -0.39797165 -1.73558918
O 10.16401049 4.68103952 9.98399248 -0.97415644 -1.06385409 0.16537048
O 5.87463695 6.16280282 1.51175415 -0.14758767 0.69892785 -0.35680709
O 18.44963507 0.01703126 1.44944420 -0.80298275 0.29168382 0.74871613
O 5.84881116 3.15067803 1.45813333 0.57578323 -0.78433601 1.06534696
O 18.37126361 3.06555477 1.49865023 -0.14914807 0.25169624 -0.88873641
O 4.49576456 6.21147016 7.24573052 -0.64812951 0.63440813 0.01391724
O 16.94026792 -0.00502412 7.18326800 -0.05172999 1.68040371 -0.15378479
O 4.40489892 3.09522264 7.22918265 -1.67288832 0.93527045 -0.53615809
O 17.01203950 3.07451823 7.23095806 0.42396357 -1.15157484 -0.03397354
O 5.24485581 6.20471796 4.23356738 -0.04183396 0.05864673 -0.20957217
O 17.72152399 0.02694231 4.28643498 0.83912685 -0.79888212 -0.95479449
O 5.24517871 3.08046837 4.15369111 -0.51991730 -1.24469095 -0.35269213
O 17.81106528 3.10955344 4.27967572 0.35518379 0.01203792 0.41885247
O 3.89466315 6.22812837 9.95639523 -0.84428283 -0.54781010 -1.43775765
O 16.39703213 0.02019469 9.96267238 0.22672168 -0.08537262 1.14601721
O 3.84596809 3.14992438 9.98117089 1.62888706 0.06842040 2.76340349
O 16.40367837 3.11998100 10.03092178 0.11823118 0.33064491 -0.18806764
159
Lattice="25.420056 0.000000 0.000000 0.000000 6.293659 0.000000 -2.835653 0.000000 11.652367" Properties=species:S:1:pos:R:3:force:R:3 Energy=-626.572040 Virial="-52.356724 0.681504 -2.218876 0.681504 -46.662373 -1.228911 -2.218876 -1.228911 -41.066658" pbc="T T T" defect_vacancy
Ga 12.71828099 6.25055787 4.64355424 0.26619366 -0.04897022 0.62401390
Ga 0.02922876 3.17689152 4.64863990 0.29678817 0.57807510 -0.81316934
Ga 12.73355226 3.14580020 4.65722020 0.33371785 0.57349858 -0.47179274
Ga -1.39884164 6.34522645 10.49236124 1.06811374 1.98129031 0.57460216
Ga 11.29531947 6.33938252 10.52285898 0.09541699 -0.04274668 1.53860999
Ga -1.31889938 3.18915128 10.41191822 -0.23880155 -1.04843989 0.03521830
Ga 11.25907366 3.09995542 10.49829566 0.16953976 -0.20579083 0.03008448
Ga 11.38189320 0.01760550 1.19467945 0.59726914 0.67937298 -1.31358930
Ga 24.00578571 0.02922640 1.24597816 -0.29262191 0.34776204 -0.08789605
Ga 11.25460676 3.16181449 1.23441605 -0.37922828 0.62110381 2.55952020
Ga 23.99864763 3.08169100 1.11651173 0.54065307 -1.90285090 0.63514068
Ga 9.80388168 6.33794574 7.08458896 -0.57547926 0.36022505 -0.37516219
Ga 22.52789192 0.03470650 6.94056630 -1.20723670 0.44609857 0.54036091
Ga 9.83413045 3.16101481 7.05611084 -0.09848618 1.40183895 -0.14488457
Ga 22.54322158 3.14351607 7.02102060 0.42071395 0.24453841 -1.15464385
Ga 6.31546900 1.61639708 4.64029608 0.70376237 0.06817354 1.33300110
Ga 19.05172914 1.56947684 4.67482201 0.56295067 1.03250267 -0.22173817
Ga 6.33489697 4.67348061 4.58740596 1.57645999 -0.24960561 -0.80632800
Ga 19.17598972 4.75618547 4.59065612 -0.22071832 0.94501902 1.31326129
Ga 4.95609402 1.57485398 10.46453806 -0.07877648 -0.13693099 -0.36338244
Ga 17.64356349 1.51169310 10.42291670 -0.28794363 1.31634461 0.64483353
Ga 4.93553175 4.75736637 10.46791398 0.20206992 0.33822281 0.24986625
Ga 17.68736840 4.67307250 10.44603786 0.06023670 -0.41337872 0.87690437
Ga 4.96541295 1.52011012 1.26263580 -0.23641793 -1.04829571 -0.33117341
Ga 17.62818197 1.60327257 1.11864733 -0.33939945 0.83364951 1.32714591
Ga 4.94972998 4.68377788 1.20009432 0.47495601 0.62596494 0.55320986
Ga 17.57979463 4.76303739 1.15665656 -0.66874755 -1.47475061 0.43391636
Ga 3.52376377 1.59124781 7.03036225 0.27717808 1.11459193 -0.50774674
Ga 16.21432292 1.59181506 7.02366895 -0.48323328 1.02086896 -0.50033862
Ga 3.49111400 4.74843917 7.10797925 0.69540775 -0.61683605 -1.00654542
Ga 16.21127434 4.67191655 7.00837434 -0.51079963 -1.30868015 0.37005295
Ga 1.59354509 1.56312229 1.76986576 -0.60870350 0.20623275 0.04379890
Ga 14.29219522 1.56357810 1.80436364 1.30198595 -0.28320822 -0.48389670
Ga 1.58303404 4.75811750 1.81236735 0.29191707 -0.66945647 0.38060636
Ga 14.31206152 4.71795989 1.78972632 1.34080320 -1.83969146 -0.58105779
Ga 0.07311741 1.57906543 7.65335934 1.38208996 -0.97721790 0.18309681
Ga 12.83162709 1.54975361 7.60857993 -0.95650926 1.48143485 -0.88575838
Ga 0.16280728 4.67703547 7.64135171 -0.71441522 0.04110407 0.77979069
Ga 12.84250644 4.66272899 7.67999790 1.31514167 0.40631031 1.37547938
Ga 9.71431822 1.67254307 3.96199127 -0.19942168 0.45203914 0.44346010
Ga 22.50794379 1.57734412 3.97857566 0.27610145 -1.41014876 -0.52182622
Ga 9.68504984 4.66845233 3.96634077 -1.13869960 -0.87642558 -0.44429813
Ga 22.40704970 4.70627193 3.97306627 0.98451512 0.21393050 0.64840477
Ga 8.33661706 1.52655157 9.79100113 -0.60209323 0.53966637 -0.03767348
Ga 21.00186486 1.54576522 9.85557420 -0.76760366 -0.25776033 -0.04174747
Ga 8.26536445 4.70637678 9.80677740 0.15122519 0.48896513 -0.40788165
Ga 21.00158230 4.80792237 9.87375200 -0.02729602 0.59536700 0.53219418
Ga 7.94063784 0.01396498 1.90016478 -0.18814628 0.58365441 0.49629863
Ga 20.62870129 -0.00684002 1.82957205 -0.10024539 -0.73527317 -0.85775642
Ga 7.91813678 3.15796709 1.83303665 -1.02802083 0.48533111 -0.31711643
Ga 20.53874417 3.15805694 1.84680554 0.03614882 -1.03306558 -1.71447020
Ga 6.52685005 -0.02689006 7.59546729 1.24160382 0.21699021 0.59073473
Ga 19.25999138 -0.01257977 7.63546889 -0.80339281 0.81800373 0.60962369
Ga 6.48512044 3.16804230 7.70026526 0.76803459 0.63861255 -0.31510442
Ga 19.22918412 3.16472087 7.63571699 0.82238324 -0.56477204 1.30413656
Ga 3.35260415 -0.01334228 4.01590224 -1.20865522 -0.51698710 0.54630919
Ga 16.05466264 6.30967226 4.02336289 0.64245117 -0.99810194 -0.36750021
Ga 3.39167605 3.13313796 3.96506856 -0.06364670 -0.04801137 -0.53939766
Ga 16.08127648 3.12714826 3.96683277 0.33991150 -0.87894899 0.10422095
Ga 1.93832078 0.02624535 9.78542401 1.40309770 -0.11159249 -2.11537687
Ga 14.72745384 6.31274838 9.80944736 -1.54900523 -0.37617243 0.45698502
Ga 1.98315279 3.10637788 9.82320543 -0.83939502 -0.70788183 0.09723268
Ga 14.67804748 3.17547710 9.81550275 -0.30669877 0.02829052 -0.70318488
O 1.87525597 6.29301868 0.68465082 0.06542021 1.61916490 -0.76784487
O 14.60804387 6.25835837 0.61564019 0.25273779 -0.18755894 -0.22372830
O 1.95154599 3.11797081 0.60387689 -0.90097564 -0.22020827 -0.45386917
O 14.57375206 3.20401365 0.60249113 0.84054293 -0.66541229 -0.86802043
O 0.49986920 -0.02085263 6.48082319 1.02732474 -0.31432059 0.54751456
O 13.23249954 6.28284020 6.48343630 -0.01880579 -0.13541786 -0.25072728
O 0.53341451 3.15462722 6.50485700 -0.20558079 0.33024498 1.07276719
O 13.29046001 3.19086699 6.39307974 -0.74751429 -0.35595749 0.79333974
O 9.32320375 -0.00097940 5.11580628 -0.07258251 1.48496570 0.56444369
O 22.08270694 -0.05950324 5.19707437 0.89932428 -0.07763190 0.68879901
O 9.38784053 3.14492194 5.18830430 0.03413950 1.76839667 0.86810883
O 22.05484367 3.14933738 5.14472031 0.47847282 0.28375329 0.01136662
O 7.92354959 6.30610884 11.01324518 1.39656477 0.16766427 0.91859545
O 20.65151750 6.32150286 11.00873380 -1.34392062 0.17714754 0.87563623
O 7.94310472 3.17034402 10.98170569 -0.44061311 1.64282635 -1.40744685
O 20.54538635 3.18578232 10.96835032 1.65612881 -0.21457530 -1.06759949
O 8.33229539 1.54426175 0.55369494 -1.21581917 0.90861020 -0.38403832
O 20.95028528 1.59403192 0.69644734 -0.61033538 0.52762017 -0.56594837
O 8.31572268 4.76383080 0.57848546 0.14197019 -1.16484928 -1.83443335
O 21.01195344 4.71053666 0.70762198 -0.54413794 -0.27041097 -1.39744707
O 6.87482581 1.59193875 6.39685357 -0.92333674 -0.41834882 -0.62315187
O 19.59242000 1.54198047 6.48889890 0.33996330 0.51492230 -1.16999568
O 6.84675520 4.70170738 6.48708200 0.00953588 -0.01878277 -0.13484200
O 19.57390165 4.67346212 6.51603717 -1.28547426 0.33380453 -1.02992510
O 3.01238339 1.60005513 5.18396957 0.46610992 0.77227672 0.57897799
O 15.69346967 1.57364503 5.21842242 -0.43062918 -0.89363781 0.67992373
O 3.12690334 4.75659673 5.17093412 0.46364208 1.59420549 0.66006433
O 15.66874563 4.70987234 5.18136526 0.03619571 1.45700740 0.78022571
O 1.63585990 1.61661328 11.04090349 -0.02665942 0.61109284 -0.58455379
O 14.34668634 1.56929786 11.04988496 -0.04141910 1.08215994 -0.20809296
O 1.61520141 4.79231639 11.02705573 0.15859236 0.80931408 -0.89318459
O 14.30204888 4.75835376 11.07638282 0.42118080 -0.35821939 1.15494817
O 1.43605275 6.31015212 3.29286123 -1.83148974 -1.07222982 -1.08206044
O 14.07473349 0.04898056 3.33823399 -0.84558841 -0.02770791 0.22764990
O 1.31996243 3.10670542 3.32765789 -1.06244578 -0.32642741 0.59153282
O 14.11560706 3.15880669 3.24733552 0.26359334 -0.34752112 -0.78626479
O -0.04319333 -0.04396780 9.12252843 1.03525508 0.87111411 0.46983045
O 12.70413684 -0.04578158 9.07093117 0.35527549 -1.00444826 -0.53264301
O -0.02766669 3.14089975 9.07633321 0.53473447 -0.91615428 -0.02826358
O 12.72527821 3.12472979 9.11735760 -0.44446130 -0.39842160 -0.53698912
O 9.90204397 6.24269871 2.54969214 0.65267780 -1.03256233 0.63952060
O 22.58049644 6.29302799 2.50917922 0.03772334 0.38764768 -0.01317012
O 9.92043803 3.07574810 2.51753783 0.97181121 -0.76348116 -1.24763062
O 22.55665014 3.12661236 2.47262568 0.40041186 0.52247814 0.14746760
O 8.43626296 -0.04299390 8.30365514 -0.80475035 0.78473768 1.15106112
O 21.18930551 6.25613940 8.34532469 -0.31210251 0.23064597 0.42327949
O 8.48007030 3.17352937 8.36437489 0.13150455 -0.65835880 0.32854795
O 21.14159629 3.13754655 8.36123601 0.15555135 -1.29253708 -0.69973216
O 7.80441751 1.48653189 3.29441230 0.90738146 -1.07338670 0.51308443
O 20.42957259 1.54288326 3.28198420 -0.25495398 1.17655630 -1.56535208
O 7.75666532 4.68396787 3.32752460 0.98319984 -0.88602890 -0.59117457
O 20.49433196 4.71947926 3.35679831 0.65259903 0.65712339 -0.11810255
O 6.30844343 1.55950645 9.11317755 -0.62570151 -0.29552029 -0.14749439
O 19.03132935 1.58837095 9.10683922 -0.74378313 1.38803650 0.40183460
O 6.36490466 4.67904255 9.18385938 0.01323579 -0.49613816 0.62951823
O 19.03218136 4.77510328 9.05550087 -0.90799334 1.64373113 -0.49148903
O 3.59625115 1.57148075 2.52217923 0.86628283 -0.65938697 0.82679990
O 16.13468981 1.50333036 2.51374043 1.31339610 -0.21430833 0.80776533
O 3.48309853 4.73468273 2.52701912 0.29341690 -0.40504012 0.21481038
O 16.23325272 4.72127639 2.40449852 -1.37785440 0.17889390 1.36531907
O 2.09217505 1.65688768 8.39838767 -0.06084243 -1.61468137 0.51105640
O 14.82487453 1.58001658 8.42053705 -0.56142211 0.23355309 0.44991074
O 2.13108311 4.71379030 8.36668227 -0.42423560 -0.52969488 0.15035567
O 14.84375847 4.76465348 8.30418120 0.44009631 -0.94356693 0.42730703
O 12.29535084 1.60215279 1.47111499 -0.88344951 -0.41615838 -0.60262924
O 24.98866415 1.64322439 1.50695795 -1.76525743 1.04320906 1.53098067
O 12.26594348 4.64865611 1.49148173 -0.04652108 1.46050859 -1.21726341
O 24.98831720 4.76912236 1.45031214 0.33721296 -1.20607061 -0.53110109
O 10.91031583 1.57223786 7.28918583 -0.00767698 0.26893050 0.12188719
O 23.57451599 1.62158212 7.35942278 -0.81979570 0.26679148 -0.58022112
O 10.88749108 4.69081949 7.36295010 1.19551876 -0.16027454 1.38033279
O 23.59252688 4.69729423 7.28675991 0.90227392 1.56614421 -1.26156028
O -1.02961585 1.53211397 4.29595942 -0.46895415 0.53145603 0.64899816
O 11.81874787 1.49504230 4.37848887 1.39929678 -0.32253849 0.04190742
O -0.98983356 4.66055940 4.35574135 -0.54068824 0.38400051 0.57837992
O 11.78510816 4.71934439 4.36754419 0.63574061 -1.27155335 -0.78680021
O -2.42592686 1.58160332 10.07494409 0.50882013 -0.00512816 -0.26202577
O 10.28682515 1.57848036 10.13637465 -0.89995686 -0.12652431 0.14861956
O -2.36112013 4.71307864 10.14997257 0.07642578 -1.57043090 -0.63487457
O 10.26794966 4.70618215 10.14442452 0.52836346 -0.95537598 0.83192016
O 5.93326404 6.30973870 1.52209492 -0.29573790 -0.97901086 -0.38741546
O 18.71910795 -0.01406377 1.46447527 -1.38481796 -0.13236055 0.16824608
O 5.94105643 3.15982486 1.52763337 0.33874221 0.65454907 0.80647176
O 18.59374881 3.14617041 1.52878341 0.78295699 0.45760148 -1.22031806
O 4.56903534 6.33295001 7.31364856 -0.14129229 -1.47104679 -1.17214015
O 17.14371573 0.01142147 7.34137406 -0.12774006 -1.64961422 -1.40846417
O 4.49247637 3.15926543 7.32155975 -0.33292171 0.43282282 0.81521056
O 17.18228987 3.18058133 7.26051367 -0.26277245 -0.21736285 0.85546391
O 5.38116672 6.25565386 4.34542333 0.08138727 0.18823505 0.07732660
O 18.05882907 0.01080075 4.38422839 0.93259366 -1.07143470 0.56199848
O 5.39336312 3.12526646 4.33541092 -1.41050642 -0.86242228 -0.00231145
O 18.08538961 3.16956070 4.35328379 -1.14616649 -0.10164664 -0.25659850
O 3.93276582 6.32153345 10.19019572 -0.06031804 0.21597310 -0.09956268
O 16.66103775 -0.00410665 10.23238341 -0.37391117 1.46629142 -0.19518276
O 3.92047966 3.10998546 10.14591436 0.73877556 -0.46670512 -0.33360067
O 16.64542097 3.13849225 10.12044158 -0.74722315 -0.37526590 -0.67604719
159
Lattice="24.892541 0.000000 0.000000 0.000000 6.163054 0.000000 -2.776808 0.000000 11.410558" Properties=species:S:1:pos:R:3:force:R:3 Energy=-626.807710 Virial="-54.866160 2.007656 -1.570386 2.007656 -45.313319 -4.089843 -1.570386 -4.089843 -42.117713" pbc="T T T" defect_vacancy
Ga 12.49496213 6.13004112 4.51674543 -0.77056172 0.20913013 -0.35691823
Ga -0.04616529 3.15539980 4.61322394 1.74369552 0.30971359 -0.90797240
Ga 12.45375196 3.11446105 4.56125403 -0.31774766 -0.60285170 -0.83822159
Ga -1.36206801 6.20748047 10.18913113 -0.08482356 -1.06134836 0.49397544
Ga 11.06432026 6.07795213 10.20525200 -1.43682744 0.13679727 0.51724500
Ga -1.43949256 3.00507910 10.21792175 0.41105364 1.53383382 0.09408836
Ga 11.07756531 3.05019541 10.21926785 0.84994362 -0.38083008 1.40682700
Ga 11.01681141 0.00855055 1.14404872 -1.94648258 0.30845952 -0.74231988
Ga 23.44767545 0.04363141 1.13565219 0.71822234 -0.70514027 -0.14665724
Ga 10.99314115 3.10788925 1.10941237 0.37780586 -0.63813331 -0.02638196
Ga 23.53989669 3.03791136 1.17031834 0.50493347 -0.18859056 -0.55246481
Ga 9.61471301 6.16352163 6.85506968 0.00658086 1.59243008 -0.71082438
Ga 22.06418976 -0.06204866 6.85464844 0.77298501 -1.56530476 -0.86799412
Ga 9.67332870 3.10792253 6.84806417 0.09440217 0.75375966 -0.27897376
Ga 22.07325441 3.07544209 6.87811094 0.23663622 -1.06669535 -0.83118279
Ga 6.23656944 1.52435628 4.52181457 0.63236703 0.20489336 -0.15853818
Ga 18.67612043 1.44281887 4.51852525 -1.17419939 1.44360160 1.07962426
Ga 6.26624834 4.67725151 4.58260483 -0.12661089 0.50095004 -1.01566049
Ga 18.68758046 4.57511436 4.51180349 0.63784569 0.19893277 -0.34030336
Ga 4.81836586 1.47588714 10.20744126 -1.60041904 -0.59120249 -1.31412730
Ga 17.27062456 1.47918337 10.27236380 0.77643210 -0.42641729 1.22936344
Ga 4.87759416 4.62425533 10.25927414 0.39751004 -0.50690757 0.99355834
Ga 17.31076807 4.59086445 10.31105204 1.02358531 0.28729569 -1.60134651
Ga 4.79035397 1.47177748 1.17666818 0.58197557 0.75544371 0.37745367
Ga 17.28048601 1.53256083 1.21982382 -0.64860087 -0.96441053 -1.33222015
Ga 4.82594879 4.58779803 1.14851208 -1.40961471 -0.60006751 0.77321620
Ga 17.26780374 4.62805589 1.22252645 1.11918686 -0.14845898 -0.54507573
Ga 3.46551216 1.48130110 6.86705456 0.71894920 0.38795072 0.63952997
Ga 15.83515213 1.59552366 6.84120250 -0.06293953 -0.29517127 0.96477361
Ga 3.43710963 4.59300922 6.80093981 -0.69591497 0.69399868 -0.74765712
Ga 15.82573121 4.61704539 6.89640659 0.17194813 -0.17751069 -0.12585463
Ga 1.55670263 1.49130721 1.80199403 -0.42553848 1.26823570 -0.13329725
Ga 14.02360669 1.55946476 1.77703972 -0.28091435 -0.15571539 1.23397605
Ga 1.54124926 4.63023424 1.84685060 -0.32913785 -0.65862364 -1.10719750
Ga 14.05126280 4.64159758 1.79407431 0.16385425 -0.31870922 -0.40550620
Ga 0.14618962 1.54020454 7.50496821 0.27292407 1.61627517 0.30383846
Ga 12.57265242 1.61952863 7.46480573 0.81546398 -0.42456013 0.55663726
Ga 0.20081165 4.53332662 7.48250435 0.66161560 0.44277728 0.42780123
Ga 12.58109654 4.63392431 7.48214982 -0.90363381 1.08853754 -0.27561237
Ga 9.57489139 1.53478422 3.87237491 -0.69629786 0.14354147 0.15189719
Ga 21.93218271 1.52354253 3.94356817 -0.16290288 0.45138616 0.38029616
Ga 9.55891599 4.57569581 3.87721990 -0.31240238 -0.45711039 -0.34312735
Ga 21.92838921 4.61366720 3.95780576 -0.26612742 -0.28544948 0.93164648
Ga 8.13549291 1.55939508 9.64692977 1.75553055 -1.12729472 0.18347282
Ga 20.55271200 1.49487583 9.59085450 -0.64457069 -0.70710195 0.00999238
Ga 8.16314746 4.64578617 9.62229481 0.26066411 -0.93102912 0.15053877
Ga 20.61923875 4.63086090 9.60726419 0.16236748 -0.84249707 0.35122860
Ga 7.69436816 0.05432606 1.78581893 -0.02503371 -0.55504354 -0.74176230
Ga 20.19076347 0.00217185 1.85576034 0.18722107 -0.20884502 1.46777869
Ga 7.80003039 3.06764567 1.81269410 0.05806195 -0.38937257 0.77252779
Ga 20.24722247 3.09780959 1.79628739 -0.46771364 -0.05415431 -0.40028861
Ga 6.29127718 0.05091840 7.45268547 0.18965663 -0.05702581 1.64324237
Ga 18.74214726 -0.06978630 7.46175000 -0.12540323 0.24605071 0.55093295
Ga 6.39460726 3.13011825 7.51946272 1.61017174 -0.33526657 -0.73663953
Ga 18.88480924 3.06951361 7.48339738 0.88092914 -0.41220083 -0.61102692
Ga 3.22664748 -0.01993781 3.83653706 -0.50958168 0.47973350 -0.02445691
Ga 15.69031461 6.18299809 3.84879868 -2.38915988 0.49747559 0.40189738
Ga 3.23250974 3.01466829 3.94811499 0.14230406 -0.67429613 0.30490367
Ga 15.81310319 3.07835778 3.94687998 -2.00098013 1.46028267 -0.47960385
Ga 1.86261207 0.05201061 9.58744882 -0.55001004 0.37338861 1.46561565
Ga 14.38323502 6.16063712 9.54751256 -0.61610673 0.22843474 -0.69939144
Ga 1.87882915 3.08365919 9.53936513 -0.38046832 0.75161940 1.50878628
Ga 14.36845397 3.02752111 9.63911866 -0.01953610 -0.20966777 -0.16310429
O 1.82428608 6.18070106 0.65539401 0.02409315 -0.30622733 -0.51700594
O 14.32465491 6.15305077 0.67181019 -1.09255542 -0.57744901 -0.48940585
O 1.85764289 3.07499013 0.64113894 1.74590589 -0.71077497 1.08462322
O 14.32826651 3.07447879 0.57814137 -0.34140015 -0.31216687 0.24901016
O 0.52397473 -0.04365872 6.42258620 0.87187586 -0.52801345 -0.77952852
O 12.87306626 6.11520066 6.33310952 0.04719768 0.18725847 -0.28529867
O 0.52191737 3.04106108 6.40341735 0.01475242 -0.12523563 -0.76416376
O 12.94013587 3.06657969 6.33826376 0.40456325 1.56442318 0.85069651
O 9.23225775 0.06713416 5.09691728 -0.11126027 0.42125304 0.00817849
O 21.57953584 -0.04896237 5.02659676 -0.42523757 -0.29675612 -0.39429666
O 9.15248091 3.08734047 5.10311054 1.34007126 0.68004019 -0.66686955
O 21.67024553 2.99765483 5.08532859 -0.12490516 0.26060517 -0.73283060
O 7.81334411 6.04675098 10.81693138 0.12862929 -0.80423664 0.29130459
O 20.35085327 6.18426573 10.79472456 0.77834964 -0.14172963 0.22566315
O 7.78627348 3.08782395 10.85087175 0.29536744 0.38266764 0.66276605
O 20.23048529 3.11417734 10.80601497 -0.89937925 0.08802778 0.28854339
O 8.15961142 1.57800684 0.62392279 -1.49285259 0.70963368 -0.12276362
O 20.55738857 1.53416176 0.66037908 0.99594418 0.31933204 0.56972082
O 8.08473441 4.63009416 0.60849479 0.75512630 0.21043447 0.68088387
O 20.49035218 4.63109656 0.56341297 0.05336641 -1.25934051 -0.33041224
O 6.69651468 1.57055346 6.32535753 0.04323526 0.99888068 -0.25167289
O 19.16729918 1.49954676 6.36983914 0.19079305 0.73079578 0.76560239
O 6.67678069 4.65216146 6.38453026 -1.42398088 0.11378941 -0.75521624
O 19.10042829 4.60936493 6.30158940 0.73117278 1.28221254 0.51447542
O 2.96897656 1.49546976 5.03443088 -0.61218899 -0.28765592 1.06607642
O 15.40010013 1.52630395 5.08263566 0.33471610 -0.45775986 0.51101319
O 3.00321169 4.55354169 5.08040954 0.37705059 -0.71529657 0.18125956
O 15.37941348 4.61198710 5.04820421 -0.57528312 0.37635133 -0.13313948
O 1.51599537 1.54706280 10.89802794 0.21765923 -1.81498821 0.13508672
O 14.00773426 1.51552106 10.75765384 -0.23086462 1.52235755 0.09537094
O 1.60665017 4.57937605 10.84128184 0.32189576 -0.90380268 -1.09811058
O 13.94709413 4.63720020 10.81331535 -0.19372344 0.90854900 -0.74316103
O 1.40482348 6.18986622 3.23695502 1.27034286 0.83852404 -0.62607977
O 13.86316458 -0.03805163 3.19671556 1.26014110 -0.56508871 0.30603798
O 1.35896241 3.13484838 3.24911441 -0.64420535 0.14576239 0.60599622
O 13.86951259 3.06425136 3.25143003 -0.68192827 0.67040541 -0.81591654
O -0.07168306 -0.01437992 8.92897212 -0.33307798 0.73953464 0.12389301
O 12.42160660 -0.01025543 8.94498818 0.41474743 -1.09978323 1.25858445
O -0.00069703 3.13701987 8.83484151 -0.85799239 -1.47600017 -0.35783968
O 12.49738435 3.05051714 8.97481471 -0.34351769 1.17013329 -0.02410938
O 9.66386742 6.16315119 2.43320290 -0.63939560 -0.94926615 0.42765381
O 22.05719097 6.18245579 2.38359800 -0.10121313 -0.35231201 -1.44524748
O 9.63061455 3.10705354 2.45440004 0.70553730 -0.13539398 0.33652814
O 22.08673895 3.13948408 2.55189936 0.08477502 -0.52239585 -1.41520788
O 8.28953065 0.05277618 8.25118511 0.30604230 0.62922200 -0.98536378
O 20.72877201 6.13447975 8.18443985 -0.46483057 1.07844156 -0.29469829
O 8.23246185 3.11997609 8.18403364 0.47108288 -0.92308162 -0.69746962
O 20.73275200 3.09021444 8.14711995 -0.29260531 0.12300071 -1.06876249
O 7.60051913 1.49304556 3.19201677 -0.05718811 0.02801240 -1.35984318
O 20.00830985 1.49670422 3.13268660 0.34424704 0.81240462 -1.35349189
O 7.58357392 4.63159025 3.22127782 0.59289550 -1.09761647 1.09953163
O 20.09091834 4.60204968 3.20692663 -0.10364194 -1.41017824 2.13870454
O 6.24286099 1.55486786 8.92826799 1.08375142 1.17594381 -0.18508477
O 18.74454801 1.53059517 8.91108497 1.33559664 0.67747680 -0.19242767
O 6.18106985 4.60645943 8.96436397 0.61209795 0.64766745 -0.07920241
O 18.68068799 4.67821567 8.93592057 -0.10859684 1.03031927 -0.87189967
O 3.36259063 1.57000937 2.48428862 1.16194275 -0.25651457 -0.13445579
O 15.90002886 1.57386098 2.48953688 -0.29527114 0.51266794 1.44309962
O 3.47915397 4.57040649 2.43268362 -0.30537994 1.03625195 -0.51822407
O 15.87408177 4.60470217 2.50327743 0.59654389 0.25264565 0.47857230
O 2.01834880 1.60390664 8.14544143 -0.08639528 1.49640025 -0.35755975
O 14.49709511 1.54424314 8.20390114 1.14548207 0.63539919 -0.51589081
O 2.08355241 4.71445048 8.15667591 -0.09306801 1.05387400 -0.64104253
O 14.51821063 4.61487561 8.22790378 0.49570601 -1.20684618 2.06727292
O 12.05477725 1.54137875 1.40537801 -0.71225824 1.24057363 0.75663947
O 24.46126312 1.50739992 1.45028796 0.41722562 -0.05264484 -0.25586617
O 12.00940642 4.58893582 1.45013834 -1.59686930 0.88270939 -1.45348341
O 24.47869914 4.61063017 1.41363480 -1.09746626 -1.60097668 -1.46122412
O 10.65193988 1.50596567 7.13346459 -0.18713441 -1.29181897 0.96494599
O 23.09620756 1.43706084 7.27697490 0.07163323 0.45869149 -0.56788475
O 10.67534211 4.63152999 7.16179934 0.35888288 0.82677813 -0.06515361
O 23.10339139 4.56919347 7.19247983 -1.03362126 0.65452493 0.44471682
O -1.05204424 1.49291258 4.21185641 0.54987860 -0.53754295 -0.20262351
O 11.52928930 1.49290550 4.26730604 -0.60967328 0.22230079 -0.59043256
O -1.07019922 4.62772450 4.30325232 -0.63713008 0.64834346 1.13464497
O 11.47968000 4.53940662 4.24272268 1.03891509 -1.27946307 -0.39819910
O -2.38797998 1.58190283 9.93565196 0.70059655 0.63299962 -0.39077027
O 10.01580100 1.53993155 9.91557451 0.47249699 0.27163325 -0.34632638
O -2.45569811 4.61034940 9.94568649 -0.54825425 0.72886188 0.02123114
O 10.08474630 4.66635442 9.92845885 -1.45610067 -0.46631566 -0.19016612
O 5.76142277 6.12819863 1.46817914 -0.48218186 0.03668107 0.29007827
O 18.32224092 0.00386139 1.46804784 -0.68276066 -0.86515168 0.86510293
O 5.80204549 3.08668930 1.53557936 -0.47725151 0.53226090 0.20247053
O 18.25876793 3.07331923 1.45338535 -0.20249425 -1.48458625 -0.03232548
O 4.41243825 6.09292589 7.10621527 1.20343146 1.16800149 0.85959904
O 16.84528057 0.04871650 7.21742825 0.23910954 0.34825080 0.31761387
O 4.38054859 3.07350350 7.17037600 -1.32649183 -0.03977146 -0.75340547
O 16.85459789 3.12652758 7.19955878 0.36095706 -0.22678261 -0.15396269
O 5.25625007 6.16366802 4.18578810 0.10001566 0.05362012 -1.03172361
O 17.73460768 0.03017791 4.26711499 -0.17346377 -0.08284641 1.58856859
O 5.21883581 3.06483129 4.26315015 -0.22340558 -1.12909917 0.90147958
O 17.73064721 3.15152865 4.21244610 -0.35531888 -0.70664281 0.36046963
O 3.84243912 6.07286197 9.84973838 -0.95466806 -1.52610141 0.11606652
O 16.32235736 -0.02986986 9.87645117 -1.90039250 -1.62076487 -0.48304160
O 3.80463139 3.09378247 9.96264134 1.48905240 -0.51143542 -0.48484188
O 16.22783626 3.13484656 9.91525464 1.30189698 -0.51405712 0.09098105
159
Lattice="25.342286 0.000000 0.000000 0.000000 6.274404 0.000000 -2.826978 0.000000 11.616718" Properties=species:S:1:pos:R:3:force:R:3 Energy=-626.615187 Virial="-54.728867 1.006445 -2.380387 1.006445 -48.471618 -1.178747 -2.380387 -1.178747 -43.816416" pbc="T T T" defect_vacancy
Ga 12.73792235 6.36145228 4.64435790 -0.66433859 0.12504578 0.41800260
Ga -0.01651186 3.12587019 4.58624601 -1.33832273 0.09485990 -0.58538789
Ga 12.67303786 3.15220214 4.63337930 1.03151311 0.10226750 0.06501846
Ga -1.43258303 6.28304737 10.31754390 0.16125338 1.84524397 -0.94991351
Ga 11.32967875 6.21782082 10.43318049 0.53915200 0.34229779 0.46547315
Ga -1.37915930 3.14280471 10.44325862 0.69968194 1.13617219 1.35216668
Ga 11.31504875 3.10785569 10.43513208 -1.12366205 0.08776571 0.03214375
Ga 11.22033202 0.04842812 1.18330418 1.47342176 0.40005280 -0.20878052
Ga 23.90713958 -0.00252904 1.20517886 -0.74124456 0.01163429 1.05739121
Ga 11.23978979 3.13002547 1.18232512 0.85861095 -0.81089910 -0.56199502
Ga 23.90447069 3.13823713 1.22846350 0.96700913 -1.29784750 -0.33894141
Ga 9.84283134 6.25494837 6.98408788 0.81873127 0.03107653 -0.49444690
Ga 22.56623270 -0.05932298 6.94640797 -0.52288958 0.24816560 -0.48751813
Ga 9.79831700 3.16194757 6.96534641 0.25489167 -2.05785287 0.38903700
Ga 22.46431659 3.17620507 6.94389243 -1.12578755 -1.04820670 -0.68044664
Ga 6.37697545 1.61889377 4.64750807 -0.10271510 0.07860398 -2.48796954
Ga 19.03380692 1.59565431 4.72152813 -1.11958098 0.31621587 1.13590159
Ga 6.34907598 4.70662458 4.70273632 0.32570989 0.34245022 0.07126129
Ga 18.99868173 4.69615674 4.68895484 0.64746510 -0.08675064 1.78463972
Ga 4.97477748 1.50999092 10.43496231 -0.54170677 1.15946784 2.67294028
Ga 17.64158106 1.55976643 10.41534314 -0.94101396 0.75545593 1.07085194
Ga 4.88854176 4.73583411 10.51299676 0.22500537 -0.40197572 -0.50124998
Ga 17.62734794 4.74225772 10.38918760 0.25762509 -0.87329543 0.26552738
Ga 4.86576402 1.53488689 1.20346265 -0.52584989 0.95861328 1.36819607
Ga 17.57456850 1.50788354 1.17731244 -0.64134796 0.07384995 0.56158364
Ga 4.90772822 4.71793750 1.19629256 1.54452168 0.08942301 -1.06529635
Ga 17.60910409 4.65379228 1.26865548 0.80590877 -1.45018542 0.09526821
Ga 3.41352670 1.61534639 7.05206792 0.95494116 -1.50790972 1.32291187
Ga 16.13291558 1.64187011 6.99891794 0.91981061 -0.41777541 -0.06192886
Ga 3.48426859 4.74066613 7.00982808 -1.43114322 -0.60382759 0.70694664
Ga 16.14418182 4.69739423 7.00630459 -0.50259750 -0.27090088 0.36987595
Ga 1.53974252 1.59435151 1.80200607 0.01677648 0.93222357 1.74571679
Ga 14.22065735 1.54985980 1.74474723 -1.65886116 0.95912564 -1.44144036
Ga 1.55593784 4.72450562 1.89034202 0.33118925 -0.68781880 -0.57165425
Ga 14.29665876 4.69983186 1.82391022 0.48350012 1.69279384 1.37792011
Ga 0.12288151 1.59568536 7.58205790 -0.44209460 -1.21462016 -0.57776713
Ga 12.78563083 1.50853680 7.62763914 -0.25392886 0.07976201 -0.39428698
Ga 0.15961479 4.65887578 7.59075929 0.24960444 0.74640569 0.21676983
Ga 12.84504752 4.69858697 7.59444117 0.52339697 0.18051604 -0.49841114
Ga 9.66673297 1.60033446 4.00771924 0.60022647 1.71222482 -0.17023598
Ga 22.36238510 1.52780631 3.93448857 0.06771762 -0.35775822 -0.58775569
Ga 9.62326472 4.67150220 4.00493024 1.81758427 0.03874902 1.03768050
Ga 22.33682437 4.66780219 3.95292045 -0.85862281 0.23005026 -0.16720471
Ga 8.25763701 1.60692818 9.75399858 -1.19632563 0.05350308 -2.14812044
Ga 20.92387687 1.52658800 9.82508180 0.32378244 -0.81027198 0.14804356
Ga 8.27537689 4.64889951 9.75054392 0.83515322 0.36188285 -0.87906165
Ga 20.96908077 4.75155142 9.76911623 0.85417911 -1.18522202 -1.03985612
Ga 7.92372787 0.01839276 1.89721875 -0.48784756 0.97068180 -0.43962562
Ga 20.53422454 0.07804974 1.85929848 -0.14589133 0.26447436 0.03007361
Ga 7.86413471 3.16426428 1.79551843 1.12112700 -0.66220563 -0.44365198
Ga 20.57220621 3.16319345 1.79882750 0.27501062 -0.18657805 0.60349640
Ga 6.56286837 0.00054375 7.63114495 -1.03277201 -1.17672177 -0.77385007
Ga 19.18936949 0.03201989 7.66710088 0.57614563 0.36509900 -0.56250182
Ga 6.51883282 3.22558191 7.65127694 0.81053844 -0.67877845 -0.94153842
Ga 19.16327172 3.19497321 7.62841935 0.22165289 -0.74002236 -0.86853593
Ga 3.31452449 -0.01656960 3.96945510 1.17902039 -0.32989290 -1.14357134
Ga 16.09632596 6.23823411 3.93935943 -0.40216240 -0.70563562 0.38370742
Ga 3.39032768 3.22275425 3.93079330 -0.58368300 0.96184015 -0.12126931
Ga 16.11617603 3.09891097 3.90673795 -0.42681589 -0.45835643 -0.73365452
Ga 1.88401361 0.00530821 9.77277658 -0.39705864 0.00779200 0.43233601
Ga 14.61233032 6.25103479 9.74517631 0.89157910 0.20506656 0.79146316
Ga 1.97563834 3.11066676 9.83205407 0.20495577 -1.22581324 -1.22789051
Ga 14.64306153 3.12541855 9.77005747 0.25433523 0.40634322 1.51855299
O 1.82710675 6.30754764 0.64112636 -0.24595486 -0.72156478 -0.87443896
O 14.60917771 6.23060265 0.62366247 0.79299078 -0.46852146 0.87203889
O 1.87315866 3.11070842 0.67920739 -0.06256999 -0.09260534 -1.07923743
O 14.55556229 3.13378754 0.57853198 -0.48033969 -1.08196352 -0.84506371
O 0.45452131 -0.04001443 6.43340885 -0.10523470 -1.10880778 -0.67112782
O 13.12865339 6.25663232 6.45455363 -0.35808950 0.11637851 -0.28781437
O 0.56611368 3.15391520 6.40804507 -0.66058902 -0.02331363 -0.67816781
O 13.10771116 3.09132825 6.44284296 -1.24415530 0.18030551 -0.21593219
O 9.38985128 0.04102788 5.26396431 -1.28437505 1.08856280 -0.62276705
O 22.01681359 -0.02029052 5.17245029 0.89862537 0.13062379 1.14903277
O 9.27090610 3.14082181 5.17192238 -1.13038028 -0.69057245 0.38015775
O 21.96742165 3.18747545 5.14778631 1.25160358 -0.13683649 -0.65209075
O 7.91578571 6.20795966 10.99984510 -0.04088621 0.10067382 -1.44369083
O 20.68513867 6.27250455 11.02082148 1.25650034 -0.84386260 -0.95442419
O 7.91149511 3.16035764 10.95389899 1.01505594 -0.12226415 -0.40844582
O 20.56758633 3.13883344 11.03842723 1.18684568 -0.47244493 0.19016008
O 8.20590914 1.57459657 0.54846702 0.61444937 0.94079454 0.89346371
O 20.88015905 1.67856883 0.61334582 -1.50679020 0.10668277 0.15329765
O 8.22962387 4.73408240 0.58446308 0.90299196 0.32257102 0.81603410
O 20.93965780 4.73070670 0.62197542 0.22320701 -0.17643982 0.50867697
O 6.89360225 1.50807868 6.41775841 0.66187827 0.68343180 -0.63550572
O 19.56017144 1.59914933 6.42355125 -0.26366599 1.06152001 -0.20092001
O 6.80635838 4.71662954 6.36774180 -0.92513823 0.20051154 -0.28260923
O 19.50848240 4.72030707 6.40501356 0.00467132 -0.24167448 1.00994162
O 3.01105143 1.56097587 5.11310383 -0.48913272 0.40757893 -0.48271419
O 15.67774635 1.52006070 5.15388976 -0.41472469 0.00904205 0.83588182
O 3.00032895 4.76224423 5.21112246 0.44917187 0.08594942 0.20677805
O 15.74256802 4.67010609 5.15177049 0.29975334 1.14482272 1.31541680
O 1.60194877 1.56285169 11.02668549 1.65975689 -0.42465667 0.31883262
O 14.29189426 1.60914113 10.97030951 -0.32639025 0.14681782 -0.70613539
O 1.62804169 4.67838281 11.07996683 -1.48540044 -0.95461211 -0.54600254
O 14.25333984 4.71889322 11.01243778 0.78785899 -0.06541245 -0.29110888
O 1.49529745 6.31652970 3.25059324 -0.19717214 0.11136280 -0.85095468
O 14.10945470 -0.06203650 3.25981667 -0.33873378 1.18722306 0.50797537
O 1.36908753 3.11421399 3.31987311 -1.12709215 0.88266308 0.51016322
O 14.13626754 3.17701990 3.25669104 0.01563661 -0.05540007 -0.34992501
O -0.06765723 0.02145452 9.10801372 -0.61484049 -0.26433048 -0.23511095
O 12.59301734 -0.01181959 9.04311511 0.48047291 -0.17557931 0.20814184
O -0.09602009 3.15130707 9.05350089 -0.70563053 0.19674316 1.89896054
O 12.63754851 3.13500765 9.00541087 -1.42962185 0.41528700 1.23445889
O 9.81064898 6.26891288 2.54281460 0.37201058 0.05838127 0.00001116
O 22.55922593 6.27875388 2.55819091 -0.12571549 0.13979380 1.38606310
O 9.85772576 3.16689068 2.46954310 -0.47427336 0.37502299 0.76510955
O 22.49335023 3.12983430 2.52109844 -0.12262087 0.90474822 -0.81097569
O 8.38934119 -0.06224439 8.30151439 -0.47620109 -0.21942579 -0.90980546
O 21.07420103 6.27926676 8.24548203 0.75574957 0.58664446 -0.33393443
O 8.53205962 3.11762345 8.27978342 0.07035836 -0.69800910 0.83698498
O 21.05045344 3.13814524 8.29053264 -1.20545619 -0.16436697 0.66964065
O 7.73117306 1.55876219 3.27292440 1.18761100 -1.01369190 -0.31458044
O 20.40996302 1.57530748 3.34688501 0.88405024 0.43089827 1.09883136
O 7.72160015 4.65310517 3.30859152 -1.48300979 0.37646059 0.74897977
O 20.42485987 4.71900434 3.29126257 -0.86753159 0.64563266 -0.81811599
O 6.29577823 1.63979470 9.11924566 -0.44860544 -0.28709880 -1.40326812
O 19.00707640 1.55519045 9.02101438 -0.50747476 0.76902290 0.91380080
O 6.36409495 4.70483804 9.12360079 0.09976805 0.82128287 -0.28019727
O 18.93767007 4.69784852 9.07298953 0.29197243 -0.18388200 -0.17981100
O 3.43952797 1.51236335 2.53545337 -0.66013630 -0.72204450 0.32093380
O 16.29089653 1.60406515 2.47265856 -0.03705581 0.07464891 0.73683589
O 3.52592773 4.66821154 2.56441071 -0.07424124 -0.41789097 0.87812806
O 16.18978131 4.67523498 2.55931649 1.04361431 0.24623394 -0.08173793
O 2.10188253 1.58147014 8.33173506 0.33907342 0.08951280 0.16392866
O 14.76289802 1.57540155 8.39273410 -0.98539718 -0.04418377 -1.07536888
O 2.13846586 4.75458673 8.24716221 0.13866051 -0.58778056 0.58573953
O 14.78500878 4.65962650 8.34390951 1.35738216 0.20555370 -0.60739813
O 12.30154735 1.51713027 1.50096535 -0.90473398 -1.51442973 0.48302178
O 24.89957964 1.61451037 1.50334189 -1.92230632 1.76876715 0.51744124
O 12.24741075 4.68307794 1.50452700 -0.25438088 0.22127393 -0.22571084
O 25.00617057 4.71648014 1.49703447 -0.52355301 1.46720695 0.58072075
O 10.88156871 1.56301325 7.24729285 -0.61480534 -0.90314896 0.94768381
O 23.51996876 1.60467887 7.30403965 -0.11109420 0.05036325 -0.26491207
O 10.80519954 4.72926022 7.38347771 -0.38131486 -0.79516180 0.34110651
O 23.51936899 4.66885559 7.34468454 -0.85056420 1.18623640 0.21901826
O -0.96536929 1.59512217 4.32662398 -0.84756919 0.41077819 -0.58769358
O 11.68351253 1.62698393 4.36015314 -1.14578811 -0.57277063 0.82193279
O -1.00771625 4.72696117 4.30395549 1.20935809 -1.47480295 -0.07631637
O 11.65876082 4.69685870 4.34614381 0.46865787 -0.06623488 0.33094134
O -2.42007579 1.55909704 10.12826916 -1.02695975 -0.52397161 -0.29347135
O 10.28693379 1.62395083 10.09839851 0.10349163 -1.04585782 0.17552926
O -2.39012731 4.72465315 10.13250451 1.17408124 -0.39779835 0.37834810
O 10.18293941 4.70833966 10.12740044 1.18931455 -1.30861368 -0.18061950
O 5.97876526 6.32202705 1.52156828 -2.08666181 0.53463459 -1.01556762
O 18.70019249 0.02617216 1.48119653 -0.22995913 1.02661035 -2.29260169
O 5.95485869 3.13778692 1.50291200 1.54754008 -1.72446215 0.63555256
O 18.55561462 3.11853097 1.41932876 -0.20239790 0.78178397 -0.53029736
O 4.52063067 6.24065125 7.39702539 0.31978953 1.35812254 0.69952219
O 17.22896041 -0.01627145 7.27043782 -0.21110130 -0.68790684 0.12661420
O 4.47773407 3.10357608 7.25728428 0.12181381 0.02198421 -0.59492445
O 17.18600053 3.10369079 7.25705376 -0.50159332 0.25666821 -0.53520789
O 5.38699005 6.25032945 4.30238653 0.47871097 0.03852406 -0.80721859
O 18.06559143 0.08162672 4.36381869 -0.45591371 -0.01371289 0.12482901
O 5.35240801 3.11850947 4.36226485 1.60287974 0.55723813 1.29422819
O 17.98529084 3.08088597 4.30162031 -0.09412609 -0.56306501 -1.63124753
O 3.87402213 6.23559994 10.18393783 -0.01021311 0.42130085 -0.81648500
O 16.65439352 -0.02358886 10.10864143 0.32894160 0.30529401 1.10941146
O 3.88620612 3.20596730 10.18914452 1.30090856 -0.00259444 -1.46558147
O 16.56166522 3.18511893 10.13313609 1.25044987 0.99305400 -0.24901004
159
Lattice="24.850347 0.000000 0.000000 0.000000 6.152607 0.000000 -2.772101 0.000000 11.391216" Properties=species:S:1:pos:R:3:force:R:3 Energy=-629.774124 Virial="-56.319444 -0.980250 -2.950229 -0.980250 -45.748449 -4.966693 -2.950229 -4.966693 -42.724195" pbc="T T T" defect_vacancy
Ga 12.40783248 6.22037884 4.54345555 0.47314675 -0.33895539 -0.02520632
Ga -0.03836363 3.07492759 4.51653914 -0.56470959 -0.23336893 -0.22064866
Ga 12.43184053 3.14279047 4.59402786 -2.75705307 0.68734685 0.07656054
Ga -1.38110974 6.20926334 10.19990519 -0.44293113 1.37351344 0.29997075
Ga 11.00861807 6.18966452 10.20790612 0.81034999 -0.54989001 0.58868390
Ga -1.34750865 3.08948499 10.19794860 0.09005360 -0.36656178 0.38556424
Ga 11.06466063 3.13306344 10.21589848 0.00278030 -1.60680859 -0.03665744
Ga 11.04267618 -0.02204027 1.19528730 0.12088927 0.96725094 0.91176296
Ga 23.40371064 0.01873023 1.13848896 -1.07503896 0.38586425 -1.81726359
Ga 11.01085815 2.99919382 1.13365152 -0.43580465 0.66992248 0.07517745
Ga 23.39069598 3.05198908 1.17761335 -1.35813401 0.83483152 -0.07465220
Ga 9.60214955 6.10561610 6.83760868 -0.09666375 0.39942032 0.78471587
Ga 22.07654887 -0.05235655 6.84992117 -0.08819261 0.47960379 -0.58147291
Ga 9.69357275 3.06105000 6.89708549 0.00931103 0.12527593 0.25767544
Ga 22.01976340 3.13750737 6.77669859 0.24117152 -0.61499810 0.90985640
Ga 6.12854490 1.55564896 4.51814627 0.43493955 -0.85064847 -0.79982667
Ga 18.65739799 1.50829066 4.55223154 0.49285021 -0.01700848 0.99502561
Ga 6.16521490 4.65565542 4.60959714 1.13389658 -0.02934660 -1.05614108
Ga 18.57399365 4.64043938 4.60052955 0.41100330 0.41591726 0.50253696
Ga 4.85461188 1.51051901 10.19126654 -0.69298182 -0.22128766 0.91095583
Ga 17.28390355 1.55642612 10.17615167 0.82736178 1.33536735 -1.46519685
Ga 4.87887965 4.62583448 10.13549276 -0.79990397 -0.17128538 -1.62046539
Ga 17.28949963 4.53261431 10.20120326 -0.37377224 -0.01957161 -0.54532293
Ga 4.86137531 1.54725376 1.13745720 -0.56600428 0.03475043 0.69462465
Ga 17.25527101 1.52264628 1.20887621 0.44412950 -0.49064540 0.55317185
Ga 4.78197236 4.59344667 1.18265873 -0.52509602 -0.12051862 -0.52441643
Ga 17.28795765 4.62103644 1.18907701 0.33499276 0.18228620 -1.44769184
Ga 3.42527933 1.59566560 6.79231930 -0.80275327 -0.62961741 -0.98823183
Ga 15.79729447 1.49660269 6.90486903 0.67944804 0.68902055 -0.04376765
Ga 3.44073352 4.65667131 6.88300519 1.49295075 0.16540963 -0.25427572
Ga 15.89131361 4.63839108 6.88664496 1.45130935 0.30319932 0.88748353
Ga 1.46469597 1.59607723 1.79116145 -0.10122310 -0.80271659 -0.12106300
Ga 14.01379564 1.58649677 1.79637083 -0.05740806 -0.92537658 0.88723932
Ga 1.51244781 4.66026738 1.75138204 -2.38032331 0.08803636 0.30922063
Ga 13.97268447 4.52598853 1.80292777 -0.07718790 0.30766524 1.17808404
Ga 0.18167212 1.56196605 7.46849249 -0.03106430 -0.61761287 -0.16695063
Ga 12.54550229 1.56700508 7.53345891 1.73488062 1.30869118 -1.29439519
Ga 0.07116468 4.60394290 7.48239964 0.52762556 -0.28170229 1.89424756
Ga 12.54122723 4.66190883 7.49499581 1.12471349 -1.49583578 1.06323292
Ga 9.50511813 1.52648478 3.92056389 -0.92142057 -0.28732695 -1.02550763
Ga 21.91969317 1.50470441 3.88638072 0.04359052 0.09755232 -0.80687429
Ga 9.47346157 4.61223033 3.93719798 -0.27273519 -0.69938796 1.63866328
Ga 21.87355361 4.62307027 4.00329009 0.97769398 -0.62330954 -0.54183240
Ga 8.13359219 1.54294411 9.66513400 0.13586805 -0.93854782 0.81989447
Ga 20.45433219 1.60965369 9.56516228 -0.75500194 0.38612211 -0.17863599
Ga 8.12999359 4.56039817 9.54407581 0.99098315 0.83748858 0.12828848
Ga 20.53410547 4.62130761 9.61334797 -0.39645545 -0.64818199 1.07241825
Ga 7.79665856 -0.07632940 1.77594481 0.36292638 0.63094504 -0.01650805
Ga 20.10874463 0.00647326 1.88015019 -0.90978283 0.26514631 0.15656479
Ga 7.80016734 3.03306239 1.79610087 0.04764973 -0.90841328 -0.68547805
Ga 20.14070145 3.14369507 1.81509486 -0.98029525 0.24547074 -0.21096775
Ga 6.31484297 0.01377501 7.49042072 -0.55178218 0.43360578 -0.46287289
Ga 18.79729310 0.00792856 7.52636464 1.76144401 -0.06841689 0.97015240
Ga 6.39281991 3.08661662 7.47794599 -0.80428287 -0.38220678 0.73153402
Ga 18.78129212 3.06362219 7.44770800 -0.98795250 -0.58029688 0.43673809
Ga 3.24838921 0.01950890 3.96530220 -0.52145048 0.50164102 0.42513609
Ga 15.73384342 6.10659326 3.87263805 -0.19568109 -1.01700037 0.67282362
Ga 3.32052611 3.05411750 3.90643051 0.52428951 -0.62441343 -0.08628754
Ga 15.70786587 3.01983565 3.92299385 -0.09713723 -0.75611718 -1.30566339
Ga 1.88490931 -0.05694602 9.60455165 -1.86627602 1.18571906 0.16153954
Ga 14.33265674 6.21727298 9.60526662 -0.37322766 0.09193443 0.24636809
Ga 1.82655936 3.12508439 9.62073841 2.11404818 -0.50726881 0.31746550
Ga 14.30295542 3.17348593 9.58380462 -0.44535433 -0.76308452 -0.09466231
O 1.93394503 6.16016074 0.68153677 0.90834244 -0.23532592 -0.39131077
O 14.27863482 6.13728891 0.59627896 -0.06823956 -0.63162852 -1.80517434
O 1.83671788 3.04924584 0.54098550 -0.27760778 -1.46609849 -0.08794804
O 14.31875404 3.11566117 0.67039099 -0.22228085 0.53944381 -0.60237564
O 0.46134211 -0.05222559 6.27691411 1.28812444 -0.24519225 -0.63889145
O 12.91465815 6.12887986 6.25887492 -0.50960270 0.06412214 1.73598979
O 0.56014432 3.04334979 6.38374558 1.00961953 -0.05492409 1.33626567
O 12.87968470 3.04993439 6.30774462 0.51886330 -0.95435037 -1.33219919
O 9.16432832 0.02433751 5.09284688 -0.58778668 0.29833489 0.24127190
O 21.63488688 -0.05012437 5.03542828 -0.27402953 -0.99050966 -0.16824901
O 9.19876663 3.04042841 5.07988820 -0.88431174 1.60140848 -0.65692728
O 21.53739099 3.11000325 5.01704938 -0.58752403 1.60217055 -0.42380868
O 7.76505339 6.10694391 10.79361307 0.16077891 0.00231476 1.15853616
O 20.22195973 6.19639368 10.77487563 1.28128193 0.88730067 -0.83537206
O 7.75331163 3.07727209 10.79265808 -1.47568449 1.89891263 -0.86282946
O 20.24360873 3.06044594 10.80687252 -0.94135449 0.99374206 0.28663319
O 8.07775819 1.48809184 0.57663837 -0.20743943 -0.33637577 0.49193462
O 20.51000105 1.53522141 0.61847886 0.58264009 -0.60335963 0.55959908
O 8.15776670 4.62215937 0.64878517 -0.99749650 -1.92438976 -0.28792178
O 20.52707605 4.64170467 0.58420272 1.27325652 -0.21636455 -0.14239006
O 6.71767834 1.59956715 6.28282506 -1.47741675 0.68708443 -0.52667536
O 19.10557478 1.51288690 6.35017144 -1.05750477 -0.45484166 -1.74587812
O 6.66917686 4.59747035 6.29887335 -0.29587051 -0.64792269 0.03181386
O 19.09183228 4.56283733 6.30759579 -1.80162180 0.36982484 -1.25056037
O 2.98891183 1.47054805 5.07906652 -0.77466413 -0.26470525 -0.20996567
O 15.45875522 1.52410605 5.09468439 0.44235314 -1.01621733 0.09056163
O 2.97717267 4.57352226 5.07928322 0.09526187 0.13336850 0.33624390
O 15.32015902 4.60096743 5.14106327 0.09247358 0.58683611 0.32618583
O 1.65010509 1.46985827 10.71879971 -0.13645413 -1.00203854 -0.24073618
O 14.02564299 1.54001186 10.79672313 0.95325573 -0.14000417 1.08683291
O 1.57943407 4.57889773 10.82831427 0.78650030 1.41287902 -1.20617669
O 13.92540848 4.60978837 10.76125679 0.72207933 -0.94882357 0.47871439
O 1.33353064 6.13493274 3.22940501 0.03293671 -0.36808244 0.28777164
O 13.80232392 0.03335828 3.29614837 -0.25461205 0.19051001 0.14538408
O 1.37886000 3.06353821 3.21890240 -1.19715903 1.18572018 -1.36132541
O 13.76429414 3.09204185 3.19223771 -0.84682011 -0.81926924 -0.52876257
O 0.05133764 -0.02730108 8.92951553 -1.88410088 1.44519990 0.23711563
O 12.46573039 0.00877573 8.92507774 -0.75283574 -0.61652152 0.17394820
O 0.01947037 3.05874876 8.98212179 0.26525928 0.13486418 -0.40703960
O 12.34741000 3.06610136 8.90157731 0.23753765 -0.66463003 -1.20478578
O 9.70553734 6.12766919 2.41808428 1.83413882 0.18317135 -0.19381954
O 22.07025477 6.16672641 2.45834532 0.47537856 0.58358509 -0.53040507
O 9.62837578 3.06728727 2.41627287 0.97037825 -0.39440036 0.09716804
O 22.10012205 3.06254755 2.45185245 -0.57451905 1.59877985 -1.34857075
O 8.32008849 0.03282573 8.13051226 0.08465998 -0.38869752 0.69009940
O 20.68270450 6.13526926 8.20595845 1.06528694 1.20212107 -0.19319946
O 8.27730577 3.09785290 8.18165650 0.14790812 0.84224482 -0.07530458
O 20.71782919 3.01889499 8.21593032 0.55252272 2.40165819 -1.28137213
O 7.59644969 1.49501549 3.14863385 -0.07160371 0.41033124 -0.69815357
O 20.02260551 1.51945557 3.20606358 0.78082077 -0.62439437 -0.41295445
O 7.59312351 4.63539486 3.17970488 0.23513817 0.34461127 1.31180104
O 19.93049229 4.63403619 3.22194726 0.95602924 0.07408175 1.37331794
O 6.20146779 1.53195846 8.90890364 -0.45802062 0.13282750 0.04285241
O 18.68119191 1.51815849 8.89473360 -0.23848350 -1.15983021 0.93577598
O 6.21460750 4.65150901 8.87557663 -0.68828534 0.29130560 0.23318407
O 18.63511247 4.56760038 8.95387655 -0.45459799 -0.06849962 0.27371636
O 3.40112339 1.50483310 2.44741563 0.90988262 -0.37301432 0.45405812
O 15.86706997 1.46257106 2.54602390 -0.00228804 -0.51831154 0.32560825
O 3.44557662 4.58842306 2.49367527 -0.98742433 -0.01026490 0.10227586
O 15.89601057 4.57929291 2.52653591 0.33192479 -0.66905221 -0.57903916
O 2.05444093 1.50230205 8.10729410 1.28489173 -1.41866344 0.22731996
O 14.45127543 1.47503526 8.12090538 -0.27515744 -0.37448588 2.30729591
O 2.02338740 4.67313605 8.21901014 0.21895669 -0.28560478 2.15971041
O 14.48421983 4.58381297 8.20720637 -0.05154699 1.45584465 0.18438992
O 12.02838783 1.54346491 1.47231605 0.42779245 -0.44076714 1.75740874
O 24.47803129 1.52268526 1.47108469 -0.14722782 0.10455680 1.10511726
O 12.04008042 4.56459243 1.52255906 0.67603165 -0.56964886 -0.95493732
O 24.42144858 4.60562210 1.45337892 -1.86426245 -1.55602714 0.47382334
O 10.62671077 1.49470043 7.16037598 0.04899924 -0.07658617 0.49149134
O 23.01133673 1.56263706 7.23681581 1.29598181 -0.01583367 1.20279384
O 10.65943909 4.59436955 7.23036244 -0.08835789 -0.18821935 2.16924772
O 23.01320355 4.58776028 7.19775603 0.15353403 -0.58136437 0.17351206
O -0.97307621 1.56582029 4.20095191 -1.00739082 0.04884122 -0.43646370
O 11.39748197 1.52513718 4.23045051 0.19110789 0.92636923 -1.70408762
O -0.97960208 4.65498508 4.20058644 -0.44950956 0.26103666 0.04309303
O 11.42923179 4.62959022 4.15115286 -0.31573308 1.16882042 0.78016677
O -2.33530915 1.45499165 9.88166437 -0.50826986 -0.36972495 -0.98649433
O 10.12133865 1.56095676 9.95798519 0.14057905 -0.00181367 0.01704642
O -2.40109808 4.58702919 9.91409938 1.14971710 0.35679480 0.95684741
O 10.06863254 4.64584344 9.94567114 0.18806905 0.40239990 0.39694360
O 5.81695021 6.15365070 1.46252446 0.80798035 0.14327130 -0.30278881
O 18.22567206 -0.05579542 1.45125839 -0.07982309 -0.49507232 -0.59238667
O 5.86827196 3.07003611 1.44323700 -0.32326649 0.04164809 -1.00466481
O 18.22055466 3.05884034 1.43797144 0.23763764 0.19794768 1.38506403
O 4.39737448 6.14993019 7.19002002 0.61096263 1.16180679 -0.07016699
O 16.80773163 0.03219274 7.17260225 0.84916862 0.76581950 -0.84954741
O 4.36756790 3.11025472 7.16462121 -0.30917640 0.02802609 0.06947020
O 16.81496137 3.05787189 7.19576216 0.39474338 0.21713783 -0.63226112
O 5.23773800 6.12994139 4.24954702 -0.09451800 -0.11038917 -1.10069499
O 17.62567584 -0.00394112 4.24156527 0.53832630 0.81284470 -0.06507917
O 5.30350404 3.05512257 4.28328072 0.88312293 0.18888568 -0.69066090
O 17.54841108 3.07083346 4.24695531 0.00152347 -0.00261819 -0.37350117
O 3.87517312 6.16593700 9.82137851 1.19015062 -0.43340976 -0.85152731
O 16.32299891 -0.03595275 9.90361170 -0.14694533 -0.31711084 -1.12386245
O 3.78168486 3.09655684 9.94813197 1.23506373 0.99499109 1.02812569
O 16.24991161 3.03621590 9.93494265 -0.59606482 -1.55564809 0.13751805
159
Lattice="24.969500 0.000000 0.000000 0.000000 6.182108 0.000000 -2.785393 0.000000 11.445835" Properties=species:S:1:pos:R:3:force:R:3 Energy=-629.938752 Virial="-54.284199 -2.721323 -1.206108 -2.721323 -47.253426 -5.625011 -1.206108 -5.625011 -41.955802" pbc="T T T" defect_vacancy
Ga 12.53287271 6.16869829 4.59532288 -1.03708318 0.13343013 0.98409377
Ga 0.00644321 3.11818368 4.48211304 -0.35203304 -0.16562877 -0.47740521
Ga 12.46188272 3.08606561 4.53113225 -0.67398778 0.40856906 1.26570989
Ga -1.27395315 6.21853861 10.31095698 0.98252547 -0.31674887 -1.17623338
Ga 11.09911323 6.12475495 10.34429960 0.12641965 0.85009178 0.36128685
Ga -1.44354645 3.06610152 10.29232513 -0.36518722 0.77542628 -1.34464756
Ga 11.20150974 3.15593601 10.29765069 0.87522722 0.36085450 0.72760680
Ga 11.16631497 -0.01680725 1.18987430 -0.24728619 -0.54204755 -1.41087174
Ga 23.61891691 -0.04974186 1.18921156 2.03986401 0.28093291 0.40087783
Ga 11.09585197 3.10424163 1.13866612 0.38378103 1.05501207 0.46072346
Ga 23.58079193 3.10025014 1.14873558 0.21810699 -0.05303915 0.35811593
Ga 9.71554875 6.23608248 6.86904026 0.56629121 0.20255659 0.30587678
Ga 22.19163372 0.05733517 6.95351006 -0.69015185 0.84258363 0.16457834
Ga 9.67797908 3.13335840 6.88835326 1.08653172 -2.76341699 -1.56035978
Ga 22.20293903 3.06238281 6.83845236 -1.22425515 0.38824234 -0.09882806
Ga 6.27729250 1.58166516 4.57871099 0.03825927 1.06470248 -0.28273207
Ga 18.71269369 1.44526341 4.58371065 1.28255241 -0.27319369 0.31655128
Ga 6.31258741 4.56002092 4.53735194 0.74296912 0.89004510 -0.32640161
Ga 18.70428457 4.64680604 4.60119660 -0.83431097 0.66532919 -0.70316045
Ga 4.85451119 1.51673731 10.29243799 0.13920820 -0.76707223 0.67365255
Ga 17.26830319 1.57323043 10.30900557 -1.83073115 0.37207176 -0.15385891
Ga 4.86842277 4.62293454 10.26441418 1.57952498 1.48576516 -0.91161577
Ga 17.34091732 4.63218823 10.20833265 0.19688510 -0.57192198 -0.02791588
Ga 4.85256084 1.52856402 1.17465858 0.26433883 0.62897720 2.66996509
Ga 17.28815031 1.56464508 1.22682838 -1.02687858 -0.92065100 0.93064191
Ga 4.84196800 4.56943633 1.17605914 0.41621756 -0.12870752 2.28387902
Ga 17.32361746 4.63694619 1.14697947 -0.41675258 -0.35304004 0.37013936
Ga 3.44090199 1.58244428 6.88321863 -2.03691481 -1.28112655 -0.90982424
Ga 15.98917347 1.51592017 6.86016844 0.57812385 -0.26819236 -0.71752869
Ga 3.43035667 4.55389172 6.90100937 0.07704769 0.12447531 0.13717356
Ga 15.91174866 4.66880927 6.82654343 -0.24563187 -0.37855378 -0.08334599
Ga 1.57082129 1.55548733 1.85840548 0.15040968 -0.85916320 1.23959975
Ga 14.02205589 1.55736283 1.82242691 1.09714850 0.53692571 -0.38475289
Ga 1.46273385 4.68286768 1.79134493 0.48795478 -1.32788906 -0.11271034
Ga 13.97559919 4.62705825 1.84432234 0.20956444 -0.64623880 0.10707570
Ga 0.13419199 1.54621616 7.43988154 -0.77391626 0.22900546 -2.14304951
Ga 12.59801353 1.57387884 7.56200370 -0.89868919 -0.44727358 -0.57970126
Ga 0.15788872 4.65888141 7.50066942 0.04261511 0.55829281 -0.95110209
Ga 12.63440460 4.59664838 7.50027081 1.09803801 -0.37929787 0.18764192
Ga 9.54774913 1.48671478 4.02141878 -0.93938722 -0.75539002 0.11131813
Ga 22.01056758 1.55563925 3.87667925 -0.37090906 -0.03873408 1.38843048
Ga 9.43119824 4.70657947 3.92356361 0.35117041 -0.17771959 0.38361632
Ga 21.95197617 4.59833643 4.01418381 -0.13996859 -0.35128370 -0.35114618
Ga 8.17305847 1.43892652 9.62630525 -0.38403821 -2.37365093 0.07331023
Ga 20.63248004 1.57190288 9.64371018 1.07917469 1.13474100 0.62257879
Ga 8.08605224 4.61060767 9.61258174 -1.59559275 0.65652123 2.05861551
Ga 20.67485442 4.61761434 9.62808397 0.55975583 -1.40186328 -0.28017973
Ga 7.77067084 -0.03099795 1.85553815 0.57304217 -0.18566395 -0.89287483
Ga 20.31619929 0.05307022 1.75202396 1.14045694 -1.01115640 -0.93399869
Ga 7.79840097 3.12310338 1.75840314 0.22795666 0.33340961 0.76199579
Ga 20.21364897 3.05376503 1.73852528 0.95275640 -0.97089138 -0.44809466
Ga 6.43649592 0.03926348 7.50403617 -1.24942815 -0.06891103 -0.71024803
Ga 18.87259815 -0.02485701 7.61169956 1.23381770 1.34505029 1.11803098
Ga 6.37745293 3.07206570 7.52387964 -0.12486712 -0.93553151 -1.04109869
Ga 18.82096594 3.10588171 7.57288569 -0.20181121 0.23771250 -0.97810485
Ga 3.30455792 0.03515027 3.85191609 -0.29097434 1.13604121 1.95867898
Ga 15.75454892 6.18070317 3.85446783 -0.25161212 0.15377302 -0.37189358
Ga 3.31935646 3.08219539 3.94102098 -0.95922994 0.20223341 0.55398329
Ga 15.78693041 3.08430575 3.81704233 0.69727396 -0.91421364 -0.13018578
Ga 1.87140165 0.02312390 9.58916116 -1.00470317 -0.53000047 -0.13293484
Ga 14.36166263 6.16329906 9.64019370 0.07625029 0.70693365 1.28717360
Ga 1.94879827 3.09550901 9.61662160 1.25088718 -0.07347663 -0.67120825
Ga 14.33240914 3.21599027 9.64873918 0.82463148 0.37388712 0.34614591
O 1.92106632 6.08667959 0.60979282 0.31497682 -1.27119228 -0.49645681
O 14.35930377 6.15671071 0.64541196 1.05827328 0.56936750 -1.15899242
O 1.88421615 3.08875388 0.61687973 -0.65118606 0.22247828 1.27251729
O 14.35663116 3.04530103 0.66828072 -0.68150000 -1.06918724 -0.08248858
O 0.46339920 0.00175954 6.41090557 1.38802556 0.09866254 -0.43079083
O 13.07707590 6.19717732 6.26931332 -0.75499455 1.44878675 -0.13577638
O 0.49002924 3.15816549 6.34608825 -0.84019456 1.43868969 -2.05584161
O 13.00022924 3.11874815 6.31421758 0.16603371 0.45796063 -1.13879194
O 9.28793235 0.01993272 5.10387533 1.26226102 -1.31377422 -0.84623691
O 21.69082658 -0.04550107 5.06733047 1.42626232 -0.41249284 -1.03871199
O 9.16563898 3.18632861 5.15178395 0.78185463 0.23723665 -0.29258095
O 21.65165566 3.16384443 5.15608161 -0.72799126 0.11517445 -0.42508409
O 7.79330349 6.19935714 10.80490960 0.41792437 0.04739227 -0.75729273
O 20.34523439 6.19204340 10.79880342 0.88043218 -0.74522854 0.89660898
O 7.77181934 3.08543885 10.84240353 1.57495808 -0.10607538 0.47790142
O 20.35895705 3.10107668 10.85785562 -1.44690094 -0.32527336 -0.35823853
O 8.08950448 1.46006349 0.55055757 -0.19825453 0.87610864 -0.10719932
O 20.60426245 1.52055340 0.61829949 -0.37996556 0.20577461 -0.31580306
O 8.16276476 4.66494750 0.52432539 -0.38420854 -0.01392010 -1.29238422
O 20.71070993 4.65222401 0.63793451 1.02620583 -0.37504425 -0.49173830
O 6.72926489 1.53744751 6.38214699 -0.80328071 0.74007928 -1.31107809
O 19.18147797 1.55114686 6.40808812 0.72856397 0.55052980 -0.22444547
O 6.74057433 4.65873249 6.29596700 -0.25042490 1.64352202 -0.63416366
O 19.25395364 4.65469922 6.33705950 -1.00909770 1.20834974 -0.19329824
O 2.99608000 1.49220875 5.16880539 -1.88024441 1.28624732 -0.28830924
O 15.56555509 1.52949350 5.15123707 0.39673340 0.35647235 -0.05120261
O 2.97092552 4.58329505 5.15256911 0.85964814 -1.38564947 -1.09327576
O 15.43931729 4.64976878 5.16378131 -1.28477184 0.73189359 0.60700955
O 1.58914714 1.54442712 10.78212119 0.10839373 -1.27747718 1.49457770
O 14.01681066 1.54389145 10.80500949 1.00257665 0.03662205 0.71349818
O 1.60131939 4.58516348 10.79164300 0.15748364 0.22345645 0.25139530
O 14.04982280 4.64767308 10.82246554 -0.49567067 0.03325114 1.07306637
O 1.37075715 6.14984852 3.25946664 -0.42881813 -0.39823662 0.25980579
O 13.90704382 0.01400263 3.20924038 -0.79012538 0.49671633 1.40385584
O 1.30271026 3.15142025 3.23346278 0.94354498 0.79700231 -0.75618456
O 13.93791076 3.14658647 3.26085608 -1.66006660 0.26715248 0.08244526
O 0.02855676 0.03698918 8.95645377 0.05507777 -0.14513741 0.99174980
O 12.43310711 0.03452380 8.88951524 -0.85456002 0.87507508 0.00952040
O -0.02597339 3.07323993 8.96878663 -0.20049293 -0.53153031 -1.04299212
O 12.48561982 3.06035172 8.93289994 -0.03376458 0.20078382 -0.40574765
O 9.78882896 6.13599530 2.47659847 0.67669094 -2.20485379 0.57712466
O 22.19733963 6.18106911 2.52222087 0.72714501 0.69884315 -1.38809983
O 9.75309237 3.14346855 2.48041899 -0.62506343 -0.49765003 1.84429709
O 22.20663142 3.09649554 2.44877215 0.45354587 -0.05851714 -0.41522260
O 8.32294293 -0.06406251 8.23082320 -0.18227578 0.15077107 -0.49807332
O 20.70822963 6.13442068 8.24039868 0.12861834 0.74439319 -0.69429246
O 8.33488067 3.10614690 8.20453454 0.27808137 0.54694234 0.30023892
O 20.76000508 3.07523389 8.23372170 0.31338215 -0.53730027 1.04745358
O 7.61529457 1.46881348 3.17197977 -0.56652221 0.04487889 -0.09693862
O 20.08236103 1.52593274 3.22121390 1.20257518 0.27792137 -0.69604521
O 7.58200718 4.65102361 3.14490931 -0.31317449 -1.50404479 0.47779067
O 20.07969632 4.68588900 3.25764668 2.25167005 -1.39722563 -0.03013829
O 6.21456269 1.60069911 8.95886807 0.94669658 1.11594450 -0.80142465
O 18.72049318 1.56955765 8.97431163 1.63379776 -0.32157294 -0.47422837
O 6.29328859 4.62127591 8.94136692 -1.66839316 0.20719520 1.55582381
O 18.72330151 4.63605194 9.02334401 -0.25291760 -0.43579136 0.04109257
O 3.48387327 1.52069500 2.42814353 -0.28764413 0.07673183 -0.55188609
O 16.01195918 1.51484451 2.52146722 0.68925235 -1.34227175 -1.00607428
O 3.46590894 4.65999919 2.47900247 -0.25010339 0.69281359 0.34731063
O 15.95193936 4.60970136 2.60029054 -0.15712030 0.92168492 0.39972183
O 2.03851482 1.57080690 8.32318355 -2.34233630 -0.66288945 -0.55733534
O 14.58939553 1.54770008 8.22393583 -1.17792192 0.41061453 0.91504520
O 2.03939718 4.70545802 8.19704121 -0.60109116 -1.37252377 0.45098223
O 14.54760755 4.59736565 8.20140975 -0.09751605 -0.21196675 0.04226109
O 12.07664924 1.58090569 1.48031074 -0.26962222 0.48858878 -0.37869374
O 24.59886689 1.45985542 1.52874164 -0.24257704 1.86732869 0.87834790
O 12.02601625 4.65468166 1.34678142 1.18217664 0.62348547 1.21987554
O 24.57279648 4.67459591 1.42158876 0.26455044 -0.86330620 -0.01240135
O 10.68482145 1.58386277 7.20891923 -0.44204510 -0.33113569 -0.26992986
O 23.10724178 1.58504278 7.26784892 -1.14380327 0.50157504 -1.14056673
O 10.73589348 4.58380060 7.16145792 -0.75957825 0.22752071 -2.04181395
O 23.17409219 4.65528478 7.22988341 1.11582686 0.45603415 -0.88444948
O -1.01941265 1.54546520 4.22063426 -1.76648546 -0.02928330 -0.09053672
O 11.46408146 1.55798684 4.26417356 0.83334560 -0.06910531 -0.04526060
O -0.97252332 4.61816842 4.27372170 2.19408071 2.29852922 0.42778285
O 11.44999775 4.61840372 4.20982519 -0.36762090 -0.53859413 1.57315954
O -2.36536399 1.61008667 9.98513510 -0.74182615 -0.61860200 -0.67784819
O 10.10048130 1.54226426 9.95096247 0.38741396 -0.92912043 0.81609458
O -2.33240766 4.64807144 9.90931501 0.21227832 0.14601008 1.80451557
O 10.14415619 4.60513264 9.94418123 -0.67337331 -0.19481430 -0.42819543
O 5.85556307 6.15678608 1.56317819 -0.37578531 0.57471970 -0.85805038
O 18.32058678 0.02904099 1.41611115 0.82277016 1.53772227 0.35861777
O 5.80481748 3.09132431 1.50354548 -2.45212444 -0.89004338 0.88368350
O 18.27555425 3.14137386 1.46143640 0.36261884 -1.70247445 0.39953685
O 4.46631515 6.14459416 7.15939342 -0.35107008 1.24479682 -0.83000223
O 16.83942615 0.01345928 7.21800413 -1.10576771 0.58173784 0.29777230
O 4.42439350 3.02601143 7.16502200 -0.08407965 -0.15137567 0.35260094
O 16.95071710 3.09104564 7.21812038 0.85132352 -1.48617143 -0.37135515
O 5.19332522 6.16377470 4.25743666 0.34538994 -0.72601291 0.67818528
O 17.76031603 -0.01715621 4.28528235 -0.77766125 -1.25740809 0.01483371
O 5.22660460 3.10911554 4.24475809 -0.10914085 2.73639650 0.01559185
O 17.72717801 3.18859066 4.24165948 0.14945212 0.41025085 0.45446659
O 3.84378096 6.11868376 10.01854340 1.24125451 -0.53089567 0.83024815
O 16.33003573 0.00299403 9.95238719 -0.36698608 -1.10597053 -0.62677175
O 3.87968569 3.12688492 10.03038401 -0.29358811 1.33390550 1.19245727
O 16.33903526 3.07119094 9.94748039 -1.40276221 -0.86947697 0.41629457
159
Lattice="24.666368 0.000000 0.000000 0.000000 6.107056 0.000000 -2.751578 0.000000 11.306882" Properties=species:S:1:pos:R:3:force:R:3 Energy=-627.933014 Virial="-57.715677 -0.889144 -2.473536 -0.889144 -46.390453 -3.880028 -2.473536 -3.880028 -41.731604" pbc="T T T" defect_vacancy
Ga 12.40747039 6.09016461 4.46799774 -1.65270784 -0.28384069 -0.66922083
Ga 0.00437680 3.07522972 4.48444142 2.62168067 0.08233451 -0.25915501
Ga 12.33172508 3.11458929 4.48751423 -0.26174888 -0.63273186 -0.82117081
Ga -1.26521589 6.10653171 10.21809910 -0.34935972 0.28726153 -0.16789326
Ga 10.98540959 6.14396247 10.12361685 0.72948802 -0.25813649 0.04235728
Ga -1.39612727 3.06900838 10.18426015 1.19993774 0.33778963 -0.38123336
Ga 10.96406239 2.99739389 10.09361134 -0.18299012 0.33412532 1.57102006
Ga 10.88874948 -0.06779688 1.16199450 -0.25241520 -0.29314173 0.82480051
Ga 23.31952882 0.00574427 1.06949325 -0.74588690 -0.33167097 0.72898080
Ga 10.93603835 3.04381145 1.24991200 0.42756107 -0.02508142 0.55903311
Ga 23.21900119 3.03534912 1.22474138 -2.29924879 0.71875067 -0.74476618
Ga 9.58477509 6.12953938 6.81801881 -1.37161482 0.12286182 0.58338554
Ga 21.91585672 0.03318153 6.78142196 -0.39253291 -0.95941946 0.04384950
Ga 9.60173015 2.99803435 6.82746036 -0.07891679 1.02618375 0.62087602
Ga 21.90823592 3.02975675 6.81465463 0.11833358 0.79101178 -0.14146881
Ga 6.15513188 1.48483569 4.48107354 -0.77743860 0.36895186 0.48898036
Ga 18.47365607 1.53835056 4.44754310 -0.20858207 -0.72454165 0.20627275
Ga 6.20679150 4.53227145 4.47168602 -2.03183436 0.45380503 0.41604424
Ga 18.48923109 4.63367397 4.50572944 -1.34780466 -0.04921198 -0.74833010
Ga 4.79631326 1.53827567 10.06774980 0.56905789 -1.72562860 -0.70864600
Ga 17.14086908 1.60092776 10.14735115 0.53094505 0.82682605 -1.70345467
Ga 4.81185126 4.60611450 10.18675389 -0.43515082 0.16412129 -0.46442328
Ga 17.06145935 4.51093191 10.15447487 1.23579324 -1.05127613 0.30657519
Ga 4.74869994 1.57699979 1.14697645 -0.87544336 1.02647557 0.00562865
Ga 17.02372955 1.47988130 1.04941835 -0.33451939 -1.47284274 1.36841007
Ga 4.76557588 4.57110504 1.14463261 0.56550393 0.50455629 0.93325464
Ga 17.14817296 4.63075528 1.15650676 0.24266232 -0.60969207 -0.61724335
Ga 3.31554857 1.55466998 6.83356281 -0.67687893 0.99776309 -1.14535533
Ga 15.75291409 1.56247233 6.77103618 -0.51381455 -0.35528992 0.20264485
Ga 3.47822027 4.54056003 6.84753887 0.42356057 -1.09757239 -1.36106113
Ga 15.66420180 4.54777007 6.87186467 -0.04025033 0.87255628 0.62859608
Ga 1.51107586 1.56409985 1.78268122 0.13580169 -0.35201930 0.25753659
Ga 13.85434393 1.57952779 1.76576434 -0.23138701 0.55547048 -0.61260824
Ga 1.45411022 4.54999250 1.79674424 0.07067302 -0.18691889 0.45763714
Ga 13.87197885 4.51118063 1.74668232 0.14299188 1.94173292 1.22187344
Ga 0.12282398 1.50871305 7.37360106 1.16067079 -1.72989785 -0.24930367
Ga 12.45374507 1.49765922 7.45923187 -0.52360743 0.32788250 -1.80027156
Ga 0.18000071 4.57342124 7.40975127 0.90288000 0.75529186 -1.01870706
Ga 12.48581220 4.55009213 7.38273464 -0.81955776 -0.73923239 0.05758635
Ga 9.39534924 1.50505107 3.83144932 0.47605791 1.54001406 -0.13500671
Ga 21.77767759 1.55763421 3.81554292 0.57728311 0.02603946 1.43089066
Ga 9.43717787 4.57297848 3.88736574 0.55700735 0.99654558 -0.83919052
Ga 21.77086559 4.52491779 3.83321970 -0.19051151 -0.74931272 1.22690755
Ga 8.05595636 1.56457209 9.44110662 0.48939298 -0.34241032 -0.33902468
Ga 20.40305728 1.57965063 9.52087256 0.35101296 -0.65949121 -0.72152147
Ga 8.07842946 4.55155622 9.52695683 0.34830065 1.87221084 -0.17395721
Ga 20.32944608 4.48923858 9.57083677 -0.48141157 -1.03522025 -1.04505914
Ga 7.64723953 -0.01477898 1.71794314 0.38326765 0.58234764 0.03028941
Ga 19.96880407 -0.00073195 1.75031071 0.22934185 -0.00556152 0.13387351
Ga 7.70493324 3.07214403 1.79043857 -1.25764618 -0.46478940 0.11213308
Ga 20.02416332 3.11900288 1.73247749 -0.66325237 -0.47943858 -0.63234651
Ga 6.31476969 0.04638573 7.47631118 -0.30351628 0.58419184 -0.30231465
Ga 18.58913486 -0.01013022 7.48217115 -0.15981549 0.55267990 0.53876580
Ga 6.33756720 3.06348506 7.42889163 1.31944711 -1.77068285 0.70843679
Ga 18.62908067 3.06913209 7.41450703 -0.42254621 0.00945867 0.69312514
Ga 3.26961906 0.00621022 3.85549449 0.82988358 0.73318577 0.14703498
Ga 15.62221939 6.21841344 3.80961899 1.25101120 -0.32467417 -0.08983590
Ga 3.27905027 3.02654290 3.90456607 0.60276201 -0.53939271 1.75167464
Ga 15.60632767 3.08382430 3.92066631 0.77864631 1.64216547 0.00167828
Ga 1.89952486 0.04807141 9.43493286 -0.34318978 0.03534362 0.61061083
Ga 14.28970697 6.12074327 9.57989961 -0.50666109 0.20546661 0.00950621
Ga 1.84804781 3.01562872 9.53184201 1.25582647 -0.62845623 0.85987905
Ga 14.22546671 3.06747206 9.57348993 -0.55180977 -0.86680214 -0.54528991
O 1.79103130 6.14592994 0.61740288 -0.98886763 0.01878550 0.84795827
O 14.19301181 6.04147580 0.62694628 0.09473296 0.40116531 1.32868899
O 1.77524393 3.09416222 0.55023604 0.17930222 0.05783510 -0.19709954
O 14.18347947 3.05140235 0.66782938 -1.32331277 0.50949636 -1.38221873
O 0.47347647 -0.02194952 6.25366642 0.48542221 -0.10975105 0.92437479
O 12.85440420 6.12489790 6.24659634 -0.09093515 -0.75685491 0.30927784
O 0.48595214 2.98934750 6.29369303 -0.48490785 -0.24306024 0.05644626
O 12.73910022 3.07861486 6.27051951 -0.14435871 -0.24933660 -0.64300636
O 9.19586477 -0.04126556 5.03885592 -0.18802597 -1.80896727 -0.10291605
O 21.50589658 0.04902057 5.00915942 -0.99516373 0.79791617 1.03889103
O 9.10374698 3.05787123 5.05954231 -1.59753957 0.01763865 -0.07814151
O 21.40074586 3.04902557 4.97562785 -0.87409145 0.32702773 -0.34640201
O 7.72949230 6.12111055 10.69157519 -1.45079822 -0.31163611 -0.09565286
O 19.99313294 6.13696357 10.69902153 0.04842587 -1.08328118 0.51549437
O 7.69733162 3.03931700 10.63132770 0.55164673 -1.01495661 -0.50413483
O 20.01939908 3.01706023 10.73857241 -0.10098879 -0.55103505 1.41795332
O 7.99542088 1.54611150 0.58920859 0.12997875 -0.90676041 -0.60753751
O 20.37556553 1.52698362 0.65057942 -0.08269515 1.73832826 -0.11966183
O 8.01327818 4.52061563 0.55535447 0.06526219 0.31294152 -0.00915112
O 20.33606393 4.53031994 0.63516158 1.78780976 -0.52351474 0.61831213
O 6.63480487 1.62482450 6.19168209 0.09163143 0.39866231 -0.91836474
O 18.99522854 1.47507821 6.25065343 1.37777121 -0.19551679 0.05028024
O 6.65689653 4.48887975 6.28451138 -0.78469995 -0.68205100 0.47434118
O 19.06366439 4.56545836 6.27448111 0.75248097 0.50430897 0.99012583
O 2.97218093 1.51271831 5.01164289 0.53487219 -0.07552532 0.69217042
O 15.17127008 1.56031666 5.03771361 0.43816365 -0.17875500 0.60380780
O 2.90003377 4.58134028 5.01541143 0.99183897 0.08936228 -0.26201445
O 15.24196367 4.59339651 4.97206807 0.53825016 1.42228261 -0.14550000
O 1.59089208 1.46151935 10.66265057 -0.11056664 -0.20741281 1.00136356
O 13.96136513 1.57562681 10.69271660 -1.50647755 0.19438151 0.97676076
O 1.51738221 4.55135676 10.69419646 -0.68742548 1.09288714 0.45119684
O 13.88674939 4.58380872 10.68753957 -0.47594768 0.06501707 -1.20464407
O 1.35326342 6.04850674 3.17633939 -0.48917577 1.36322827 -0.69209361
O 13.72806507 -0.05316067 3.18561939 1.43893844 -0.16355365 0.81867994
O 1.32980000 3.05201779 3.18556923 -0.00160132 -1.89148002 -0.43517142
O 13.77556099 3.06377171 3.13704007 0.11516394 -1.01905455 -1.05497896
O 0.01733380 -0.02902762 8.83338028 0.25622974 -0.61782678 -1.33371215
O 12.34009751 -0.01709819 8.87775302 -0.58401108 0.59029527 -0.35604723
O -0.04111887 3.03644585 8.81100650 0.71109912 1.12352343 0.04896195
O 12.30221891 3.09252055 8.86626086 -0.94046562 -1.13954686 0.00194655
O 9.66100949 6.18321214 2.41254734 0.66812560 0.11691748 0.46075538
O 21.90780017 6.05620019 2.43643043 -0.39139237 0.14204342 -0.35409738
O 9.56607312 3.00614800 2.40644831 -0.29720686 -1.13209196 -1.23482077
O 21.91525554 3.00193163 2.48810403 -0.42228430 -0.98437426 -0.74404695
O 8.17748554 0.11419285 8.09802962 0.50011903 -0.18395952 2.35425034
O 20.54395843 6.04723080 8.17480345 0.70435472 -0.60484488 0.64535550
O 8.26009341 3.08099330 8.06885977 0.24872417 -0.64683965 0.90502560
O 20.55056276 3.01561453 8.16518258 -0.65698183 -2.54499979 0.65820144
O 7.56524861 1.53717906 3.08467834 -0.53052624 1.09053521 -0.49678814
O 19.83130653 1.54536256 3.24222141 -0.98180234 1.14047455 -0.83744903
O 7.57605078 4.50658205 3.19702434 0.12599601 1.06148697 0.11454750
O 19.90603134 4.53166403 3.19644625 -0.10118687 -0.01635603 0.69419255
O 6.16073993 1.53214198 8.76572679 -0.68216867 0.39021802 0.48460996
O 18.47740889 1.51367186 8.84338591 1.82945068 -0.36751521 -0.70891426
O 6.14172808 4.55834821 8.84082640 0.55183068 -0.41602058 0.25424256
O 18.50591937 4.56675018 8.82404056 0.06934228 0.83642038 -0.50252036
O 3.42455133 1.45397294 2.47666554 -0.11054256 -2.13998490 -0.68914149
O 15.75547138 1.51286222 2.51622120 1.19235211 -0.64349952 -0.53823182
O 3.34645374 4.49260496 2.48171135 -1.01104469 0.36557265 0.16534176
O 15.75330023 4.58210426 2.44032556 -0.98621243 0.43566552 0.23103433
O 2.07008351 1.56690840 8.12906447 0.56650776 -0.61147839 1.41335664
O 14.35843503 1.44544364 8.14826888 0.29117514 -0.19180640 -0.39211780
O 2.09562282 4.60773629 8.07126528 -0.23258084 0.58873881 -0.19222372
O 14.40085456 4.61067782 8.17653854 0.82579616 0.36624615 1.10014577
O 11.89241173 1.50960501 1.48170943 0.61456444 -0.14864620 -1.50452232
O 24.25926563 1.48771884 1.47142002 0.20213752 0.53296604 0.15326345
O 11.95617133 4.57129840 1.46203617 0.40842643 -0.47559086 -0.28143244
O 24.26153690 4.63953219 1.40154756 -0.79063018 0.99122554 0.14966504
O 10.53019610 1.52846957 7.12754486 -0.43070781 -1.16377679 -0.09969619
O 22.82845052 1.47391700 7.03059069 1.11738601 0.27124253 -0.55666763
O 10.55885430 4.53203874 7.10202939 1.10687703 1.04451334 0.80757057
O 22.91620512 4.54997177 7.11694953 0.59433455 0.82622664 0.45755687
O -0.98771934 1.55652699 4.22073195 0.58328171 -0.72231505 1.22259588
O 11.33700980 1.51626925 4.25705716 0.14822521 1.52107466 -1.61084875
O -0.96297811 4.52881533 4.22160141 0.52760815 0.68687445 -0.25139646
O 11.31216326 4.63683232 4.24341284 0.32523650 0.50036633 0.48485484
O -2.33629545 1.52520968 9.84098610 -0.46844635 -0.21184505 0.83818120
O 10.00902036 1.51651257 9.86249916 0.98513713 -0.01911331 0.08457561
O -2.31288491 4.55289416 9.83049591 0.12367814 0.73183738 -0.82028114
O 9.93022744 4.54104665 9.77624125 -1.09997161 0.00115719 -0.86227338
O 5.79777304 6.17803802 1.51259036 -0.50640652 -0.02925819 0.40895357
O 18.04255504 0.03266382 1.51683336 -0.89439241 0.54298957 -1.39602207
O 5.74042619 3.06302620 1.36558790 0.39961390 -1.36048019 -0.99698908
O 18.10688311 3.01330030 1.44664867 0.47705860 -0.42338456 -0.61349701
O 4.33670681 6.12116432 7.15159666 -0.39254035 0.27373129 -0.02028781
O 16.68970483 -0.04402290 7.01935051 -0.06022516 0.74552634 -0.55016284
O 4.37432431 3.02858290 7.03797202 -0.41426588 -0.51623877 0.95808736
O 16.74831201 3.02824943 7.06091016 0.75640558 0.93136646 -0.00405086
O 5.17200586 6.14780167 4.23382649 -0.16216098 0.58392361 -0.29257971
O 17.51448499 0.03165836 4.16568599 0.62781415 0.48113942 -0.53570478
O 5.20196229 3.06868909 4.18601942 -0.10327468 -0.19369558 1.40962193
O 17.54327647 3.02330983 4.22371214 2.03353973 -0.17823658 0.03420137
O 3.83589849 5.98400988 9.90540669 -1.86198651 0.07093106 0.01732325
O 16.03136269 -0.02041842 9.90593993 -0.89499398 0.53018060 -1.22965342
O 3.80346699 2.99343660 9.81315477 -0.20860130 0.01279063 -0.97625032
O 16.18636204 2.98049586 9.89789971 0.64867365 0.74615462 -1.08618705
159
Lattice="25.226756 0.000000 0.000000 0.000000 6.245801 0.000000 -2.814090 0.000000 11.563760" Properties=species:S:1:pos:R:3:force:R:3 Energy=-628.521381 Virial="-57.458827 -2.336765 -1.634225 -2.336765 -46.651584 -2.242123 -1.634225 -2.242123 -45.653989" pbc="T T T" defect_vacancy
Ga 12.63717933 6.22300434 4.63061787 -0.51984257 0.68242611 0.20414884
Ga 0.02812883 3.12289822 4.56196782 0.05308861 -0.24009693 0.48413264
Ga 12.57965029 3.15599407 4.57211629 -0.46931682 -0.44292049 0.47303173
Ga -1.44827370 6.28496816 10.35240469 -0.05921744 1.91778850 1.93800022
Ga 11.22433069 6.22517051 10.45165224 -0.03537543 -0.59684341 -0.11474343
Ga -1.40972169 3.17093307 10.43745893 0.91877899 0.42377421 0.05844884
Ga 11.21947695 3.08659632 10.30339189 -0.26473077 1.06108433 -0.93713555
Ga 11.20405945 0.06742225 1.15520523 -0.39084216 1.09774513 1.78174140
Ga 23.85011595 -0.00974225 1.22369722 -0.22765210 0.21369803 1.38920053
Ga 11.24005635 3.11721595 1.22348503 0.06940021 0.62064111 -2.55677825
Ga 23.80806057 3.09429790 1.10886543 -0.26352470 -0.99001040 1.40087770
Ga 9.71925648 6.20204013 7.03867121 -0.96187701 0.36113276 -0.04165402
Ga 22.41013277 0.00896561 6.96667960 0.34919935 0.06072857 -1.27984982
Ga 9.74520598 3.12164040 6.92463279 -0.05777097 -0.34400306 0.08142108
Ga 22.41890656 3.06309830 6.95891901 0.65673462 1.42238647 0.19350908
Ga 6.35097169 1.58726410 4.60224607 0.80813027 -0.77930844 0.84559980
Ga 18.93944416 1.61488388 4.60132353 -0.20651454 1.07037091 1.62034694
Ga 6.29038616 4.69947217 4.59218985 0.62044368 0.56073933 -0.14466639
Ga 18.92638597 4.69685225 4.55762820 0.05789981 1.03440144 -1.23143966
Ga 4.86453287 1.52708725 10.30124492 -0.15050984 -0.69206623 -1.13554021
Ga 17.59440604 1.62684194 10.37892775 0.14452534 -0.11936477 -0.58457003
Ga 4.88054322 4.71754898 10.39946380 1.45269280 0.13260443 -0.15884930
Ga 17.59898466 4.63121251 10.32928028 -0.27849227 -0.75621571 -1.74672947
Ga 4.83198401 1.54578213 1.14167224 -1.24488999 0.01664491 -0.14643912
Ga 17.50439326 1.64907215 1.24147220 -0.31850019 1.51946293 0.66121281
Ga 4.82277984 4.70060122 1.19817510 0.31756477 -0.85341939 -1.53944609
Ga 17.53082964 4.68866759 1.17403741 -0.93515958 0.05938205 0.25012469
Ga 3.46427385 1.47972609 6.95167086 0.27098388 0.09076806 -0.12351373
Ga 16.09143763 1.58947810 6.98255628 -0.43864603 -1.52818639 1.28845368
Ga 3.45607120 4.72473532 6.98050167 0.23008479 0.81854439 -0.40457280
Ga 16.03740700 4.66184076 6.93774369 0.50881415 1.19074107 -0.18142417
Ga 1.56039007 1.52708048 1.84952651 0.54990342 2.20824017 0.57050397
Ga 14.18643303 1.54547675 1.81334641 0.36160047 0.70639195 -1.38079109
Ga 1.54119823 4.69226598 1.80560136 -0.45022271 -0.24732803 -0.49565202
Ga 14.21680712 4.61802440 1.79574174 0.37591833 -0.92964019 -0.27357176
Ga 0.15734542 1.47516801 7.63155820 -0.59617267 0.40204731 -0.31945151
Ga 12.77693037 1.59215782 7.49125854 -1.09519598 0.32791428 -0.17036421
Ga 0.19230475 4.74559218 7.61887536 -0.88297510 0.80543270 -0.60759186
Ga 12.80998151 4.69361044 7.61233648 0.09016574 0.60738659 -0.74439448
Ga 9.65869497 1.68328918 3.96622933 -0.03107722 0.64400786 -0.24978524
Ga 22.25039142 1.54307842 4.02583244 -1.19187954 1.38162923 0.58745864
Ga 9.63407811 4.71571205 3.94386506 2.06476856 0.39715702 -1.25973339
Ga 22.31953708 4.72036967 3.99622445 0.11448676 -1.71769041 -0.68312311
Ga 8.31040942 1.50757273 9.82840065 -0.85564366 -1.62951516 -0.86239576
Ga 20.91359135 1.61278810 9.75065413 -0.42307433 1.40641118 -0.45758469
Ga 8.28710082 4.69860788 9.76975956 0.33059560 1.28270457 1.06712171
Ga 20.96240316 4.66666316 9.71752119 0.52652752 0.66342559 -0.37946535
Ga 7.86391746 -0.03528798 1.78424635 0.58279560 -0.75414028 -0.63787523
Ga 20.48609035 0.01876313 1.89258336 -1.10491847 -0.07046093 -1.10423334
Ga 7.83592613 3.14160988 1.75393325 0.39620322 -0.50059818 -0.72856460
Ga 20.50133133 3.14454117 1.77702090 -0.99927747 -1.35704731 -1.42640971
Ga 6.47534273 -0.02282263 7.47579634 1.49286343 -0.55023694 0.32602172
Ga 18.99885115 -0.07398152 7.61125354 0.63243923 -0.07128007 0.24300137
Ga 6.44284237 3.13055734 7.61663055 -0.59793103 0.04324436 -0.06368641
Ga 19.06379799 3.11944979 7.63077702 -0.21722593 -0.21706481 0.58820568
Ga 3.29611786 0.00833004 3.99084007 0.37390519 -0.33717084 0.36133574
Ga 15.97519708 6.19684913 3.92824458 -0.47279449 0.47598240 -0.69786837
Ga 3.28399082 3.08420106 3.98741452 -0.52578371 -0.45399875 -0.85331866
Ga 15.97982430 3.10735427 3.94846286 0.16280728 0.42339951 0.12632753
Ga 1.88581096 0.04906540 9.62299413 -0.71009166 -0.48566931 1.01808183
Ga 14.59965819 6.29954159 9.73431171 -0.29098976 0.90745457 -0.03318826
Ga 1.95971290 3.14974863 9.74028924 0.14183991 -1.04851588 1.00789909
Ga 14.54276437 3.15320225 9.70994602 0.16973753 -1.39240507 0.83652384
O 1.89215439 6.28281793 0.65104720 -0.91934800 -0.27679292 1.27169278
O 14.52265214 6.26527003 0.59586651 -0.75296566 -0.84421552 -0.60620996
O 1.91302012 3.20132009 0.72348663 -0.88285486 -0.75716959 0.48259146
O 14.49312124 3.17043260 0.60228098 0.85182857 -0.51599703 -1.65242493
O 0.49188208 -0.00576203 6.39351033 0.46424612 0.87237872 0.39238722
O 13.13587723 6.23834264 6.42480245 -0.38889321 -0.70656960 0.34224705
O 0.58865027 3.10004774 6.45214382 0.24328680 0.06559680 1.99177580
O 13.07780029 3.11341525 6.45884400 0.75963543 -0.67175228 -0.56922079
O 9.30081149 0.00397481 5.17004090 -1.00773488 1.30953592 -0.68081074
O 21.89289676 -0.02758185 5.19853698 -1.18094988 -0.53273057 -0.53430585
O 9.34814255 3.18158017 5.13893548 -0.13537490 -0.22561558 -0.24731742
O 21.93575884 3.19158387 5.19973037 0.27156943 0.02614404 1.46038046
O 7.86818030 6.25789937 10.88759467 -0.92982995 2.15544275 -0.37887801
O 20.53749384 6.27667495 10.94708930 -1.18677893 0.40164198 1.26682459
O 7.88507150 3.10147878 10.98370996 0.86096255 -1.48524514 -0.01138767
O 20.48931556 3.13709038 11.01032982 -0.95630098 -0.20414128 2.21789129
O 8.22417073 1.53299157 0.65864627 -0.05109092 -1.34856899 0.92045947
O 20.74954719 1.57195960 0.59487770 -0.90441732 -1.24628617 -0.28968453
O 8.20933036 4.60332939 0.66878427 0.34236575 -0.18922731 -0.17689409
O 20.76661737 4.68801179 0.65003413 -0.25407982 -0.78607880 -0.17272750
O 6.83456835 1.52325610 6.39716870 0.52699285 -1.69492164 -0.05010509
O 19.41770141 1.55491981 6.41844798 -0.57970683 0.06076246 -0.73695418
O 6.84688995 4.66161118 6.38629195 -0.00675943 0.86272328 -0.85037749
O 19.47105598 4.75473690 6.47732481 -0.90891753 -1.50525177 1.36657467
O 2.99448002 1.55050071 5.12160952 -0.99572147 -0.78849126 0.34572850
O 15.58683178 1.55685192 5.17496540 0.83634504 0.57930011 0.94588983
O 2.99513094 4.64499594 5.09460037 -0.69173226 -1.20818407 -0.05422534
O 15.67365658 4.67212780 5.14582502 -0.21189894 0.27682875 0.02568524
O 1.49675321 1.50426559 10.95463193 -0.51442172 0.00055041 -0.54048510
O 14.14028504 1.53401366 10.92847800 0.35892614 -1.18261612 0.11824655
O 1.52810664 4.70765774 10.93164815 0.08308294 -0.59101383 -0.67785031
O 14.18231147 4.69189649 10.91611973 1.25233229 -0.83842940 0.35868085
O 1.44670329 6.27943555 3.37236270 -1.31779062 1.58657287 -1.37201358
O 14.00232358 0.09035884 3.23306898 0.78911766 0.66580879 -0.17799514
O 1.44294011 3.11962736 3.27948357 1.34884137 -0.91216846 -0.91307301
O 14.03436563 3.14484578 3.26586725 -1.30816291 -0.36316537 0.96644009
O -0.09103897 -0.00730657 9.05489654 0.80221366 -1.19057270 0.16510561
O 12.61378800 0.03928429 9.03858570 -0.65153616 0.99540776 -0.94768042
O -0.03397946 3.17481921 9.05559836 0.25021814 0.47995246 -0.28232508
O 12.60718439 3.10951343 9.02762632 0.02896126 0.77713484 0.27275470
O 9.78313094 6.18584052 2.53599731 0.33676863 0.91336364 0.99573536
O 22.42604183 6.22206131 2.48477449 -0.78857974 0.43907954 -0.31085450
O 9.78431256 3.13416250 2.54870783 1.42981665 0.41626278 -0.27959415
O 22.36916806 3.14740706 2.56930322 -0.02396794 0.63101669 0.22674454
O 8.42879600 -0.02846174 8.25472154 -0.68418329 -0.98932637 -0.32152340
O 21.00029731 6.29519551 8.32069759 -0.15300513 -0.38458604 -0.57113699
O 8.39322316 3.18804856 8.29005019 -1.20652908 0.30717841 0.01092223
O 20.99115504 3.12057483 8.24385381 0.85727202 1.06888954 -0.60334169
O 7.67474429 1.50693067 3.21953552 0.56776618 0.87219128 -0.14939684
O 20.44877359 1.58479573 3.25342938 -0.49330852 0.44482726 0.24737643
O 7.69105824 4.63843012 3.30642688 1.19318307 -0.82351704 -0.61001356
O 20.28801876 4.70684681 3.26010692 -0.49798616 0.68252723 -0.81029715
O 6.29565206 1.52758086 9.05409857 -0.22746603 0.24911592 0.45775938
O 18.86382983 1.56235027 9.10508331 1.43331489 1.06886558 -0.59967234
O 6.33071269 4.68604351 8.96864655 0.28315047 0.03056784 1.09313248
O 18.97588404 4.72810967 9.02945140 -0.02720938 -0.14888109 0.06718514
O 3.52378516 1.62520969 2.53109678 -0.76085368 -0.90309811 -0.80397738
O 16.13488344 1.55640219 2.52489070 -0.45731902 -0.57504902 0.31064353
O 3.47516810 4.68112291 2.51940484 -0.03917487 0.13592315 0.20242075
O 16.17869162 4.67233673 2.59914717 0.38271795 -0.24154400 -0.26732715
O 2.04840069 1.64118641 8.33525123 0.88341281 -0.25600373 -0.01092004
O 14.62252236 1.54007163 8.27628843 0.52096409 1.32186457 0.96819082
O 2.05383323 4.71980770 8.29826004 0.58868176 0.13420731 0.40593586
O 14.71354072 4.57060818 8.26252948 -0.22266071 0.82883235 0.09919920
O 12.19117785 1.66145354 1.48009506 0.55837379 0.27364607 0.53982120
O 24.80352887 1.57512895 1.55120975 0.62765726 -0.67917660 0.13876263
O 12.24036336 4.71313688 1.50863759 -0.89982351 0.14832763 0.43146759
O 24.79066113 4.75237220 1.38095109 0.56884059 1.08472238 0.43968062
O 10.82463602 1.49277462 7.32464544 0.79021119 -1.15142720 0.81605815
O 23.39803951 1.52507566 7.29768865 -1.07264874 -0.72927394 -0.41558227
O 10.74389754 4.68568260 7.29405369 0.60184837 -0.35916991 0.54845649
O 23.40612069 4.70050387 7.29067982 0.56583418 -1.55702861 0.38984085
O -0.98910533 1.62659867 4.25824484 -0.46817960 0.74200360 0.46213629
O 11.61292449 1.58722744 4.26924513 1.60435765 0.56165469 0.58828861
O -1.10557039 4.69948820 4.33988903 1.21098331 -0.24224008 -0.18675341
O 11.63100195 4.67864642 4.27553684 -0.21117757 0.17453961 0.58280700
O -2.42511263 1.60336366 10.16794195 1.21730997 -1.72142648 0.48542229
O 10.23733922 1.54835151 10.09778277 0.12080793 0.23730183 0.15244589
O -2.39881890 4.67217965 10.05633632 -0.22008322 -0.26226591 -0.47316203
O 10.16602086 4.67143866 10.01984518 -0.54391296 -0.38276824 0.73218107
O 5.93140272 6.28725285 1.47381373 -0.75268270 0.04396135 -0.51518328
O 18.56039847 0.04160038 1.54867444 -0.12416236 0.69664492 -0.10354429
O 5.89675941 3.13749866 1.40193946 1.18706726 -0.05233935 0.25871052
O 18.52923227 3.08417555 1.42849615 1.19567201 0.24294582 0.46186846
O 4.54484097 6.27905244 7.31721152 0.65999556 -0.31430629 1.57304982
O 17.15128887 0.02829596 7.19362970 -0.08056744 -0.32240791 0.59593166
O 4.42347622 3.15304752 7.24551808 -0.87859511 -0.14893845 -0.16897620
O 17.13137575 3.12184882 7.23180401 -0.21486356 -0.18811417 -0.84169176
O 5.26124749 6.20262327 4.33295136 -1.04330771 0.95148403 0.42947281
O 17.87185492 -0.07828306 4.33451741 0.72807774 -1.21517732 -0.72604738
O 5.34491087 3.14371054 4.24242029 -0.53443208 -0.74109107 0.96182183
O 18.00263491 3.09758926 4.30499344 1.52660331 0.38567482 -1.68611101
O 3.88841348 6.23259949 10.10899038 -0.70526930 -0.49638960 0.14420590
O 16.54273940 -0.05925863 10.09465787 -0.56219644 -0.39612903 -0.56957841
O 3.85617691 3.03642507 9.98292920 0.93829755 0.90416376 -0.53965815
O 16.52589512 3.12567786 10.10109908 0.76768021 0.04685537 -0.13840662
159
Lattice="24.664991 0.000000 0.000000 0.000000 6.106715 0.000000 -2.751424 0.000000 11.306251" Properties=species:S:1:pos:R:3:force:R:3 Energy=-626.240019 Virial="-57.347068 -0.439205 -0.994979 -0.439205 -44.640809 -2.980104 -0.994979 -2.980104 -43.584119" pbc="T T T" defect_vacancy
Ga 12.27133183 6.10794518 4.52076670 1.00215107 0.84013731 -0.09746055
Ga 0.01557030 3.09960358 4.53467516 0.46448521 0.39115319 1.19942061
Ga 12.32668934 3.07340295 4.49354202 0.18628512 -1.53362547 0.42465942
Ga -1.43826497 6.09507372 10.10488368 0.48659004 0.06394592 0.55470602
Ga 10.97586370 6.13241311 10.14332958 -0.96908874 0.99808056 0.25626012
Ga -1.39790223 3.05980843 10.24189969 -0.99668508 -0.50972816 0.06585110
Ga 10.87494819 3.05799156 10.12570357 0.37938374 -0.54966131 1.66736517
Ga 10.92818037 -0.00127976 1.14378817 -0.44177382 -0.45247832 -0.60317565
Ga 23.29729944 -0.00339106 1.07337005 -0.11917410 0.98357089 -0.35599879
Ga 10.99424438 3.09532420 1.14173662 -0.29915848 0.29951957 -1.05906447
Ga 23.27797765 3.09950941 1.19776924 0.46964339 0.38533054 0.86053914
Ga 9.62053646 6.12164490 6.84383628 0.69554007 0.57009206 0.27055376
Ga 21.95778654 -0.01165440 6.83104576 -0.68786807 0.04831188 -0.83789664
Ga 9.48020994 2.98959034 6.83394443 -0.24329697 -0.43328390 0.13926234
Ga 21.92596971 3.03874651 6.79092490 0.11015309 -0.64132518 -0.09090169
Ga 6.16546565 1.53529320 4.40241805 -0.34614491 -1.75559674 -0.53862926
Ga 18.53540623 1.52664980 4.50319274 -1.97941793 0.04334190 -1.05343434
Ga 6.17301821 4.52395138 4.45015902 -0.99183550 -0.29814273 0.01773992
Ga 18.57412072 4.55470729 4.52457955 1.02858597 -0.69598119 1.59642980
Ga 4.76121970 1.51764226 10.13384323 1.11548410 0.01387397 0.88132412
Ga 17.13013716 1.50734213 10.19924776 0.94807625 0.55462114 -0.33450656
Ga 4.88596562 4.59343856 10.13385486 -0.14712896 0.39255743 0.93474610
Ga 17.08723165 4.52204651 10.20347086 0.63311363 0.09321363 0.37279182
Ga 4.71828439 1.50682016 1.16573096 0.10308410 0.13990045 -0.51478241
Ga 16.99609323 1.48049260 1.10580359 -1.56251238 0.25491963 -0.95984433
Ga 4.74804603 4.58873202 1.20265733 -0.21260923 -0.54524079 0.98918484
Ga 17.07752034 4.56409216 1.15847409 -0.52537114 -0.42594412 -0.23732643
Ga 3.36852492 1.54660566 6.82891577 1.34380281 0.62389191 0.06039962
Ga 15.63079635 1.54870502 6.82233682 0.44252879 0.65215123 1.70104681
Ga 3.40803104 4.62586522 6.74573742 -0.74885822 -0.31003736 -0.17479536
Ga 15.68059751 4.58191504 6.71797451 -0.39778829 0.47303135 0.88864233
Ga 1.51296085 1.56426009 1.78896953 1.09347892 0.00383158 1.55484323
Ga 13.86092808 1.51557966 1.75801674 0.63947379 -0.32399235 0.77897324
Ga 1.50583536 4.59101514 1.71256176 0.67587150 -0.25521671 -0.79676403
Ga 13.91390929 4.54410196 1.79786401 0.36292984 0.85480785 -0.92561706
Ga 0.14929920 1.47710119 7.47992934 0.31716792 0.03120805 0.60789386
Ga 12.52144155 1.46389187 7.42501288 -1.50642490 -0.64046435 0.58961950
Ga 0.15592227 4.49614443 7.34019639 -0.76977665 -0.36229858 0.78456317
Ga 12.44617176 4.52997037 7.38645215 0.28725282 -0.54527946 0.20141074
Ga 9.37990912 1.52546238 3.84208066 0.44594371 -0.60383059 0.25175676
Ga 21.81453803 1.53557103 3.91058275 0.97237492 -0.90447370 0.38421834
Ga 9.36811505 4.55639109 3.87893770 -0.44430089 0.48294773 0.47901332
Ga 21.78828644 4.55689798 3.86345319 -0.37458270 0.83352478 -0.81175682
Ga 8.03866803 1.51142124 9.61570981 0.81726441 -0.92641675 -0.65902563
Ga 20.40061929 1.53357521 9.47610122 -0.93465574 0.06504265 -0.45968990
Ga 8.00655760 4.57089490 9.57641418 -0.48361086 -0.17467603 0.00670838
Ga 20.38517809 4.57650391 9.50282381 0.51175327 0.08870417 0.26378136
Ga 7.61654314 0.02091772 1.76312779 0.64134494 1.18913807 0.24659361
Ga 20.04192578 0.01240649 1.74083041 -0.05639506 -0.42219866 1.13205965
Ga 7.69840135 3.00222989 1.78620700 1.57554062 1.05327940 1.20838340
Ga 20.01098807 3.11734546 1.74040650 0.07000106 0.69032247 0.87543661
Ga 6.26353879 -0.01544843 7.44967834 1.12073897 0.56611812 -1.62576377
Ga 18.53305517 0.03738518 7.41908687 -0.42409080 0.08264010 -0.37076782
Ga 6.27121484 3.04079007 7.40754074 1.27523961 -0.35592432 0.45055463
Ga 18.59438727 2.97988840 7.45340652 1.70865577 0.27890228 -1.68758362
Ga 3.24876030 -0.01259291 3.91619163 -0.07351972 -0.11165789 -0.11272173
Ga 15.60229754 6.03912620 3.90739361 0.09837713 0.19609705 -1.40629482
Ga 3.32526080 3.07690355 3.84665275 0.28082967 0.12961657 -1.00671516
Ga 15.54468261 3.01712389 3.87755103 0.92298318 1.41888389 -0.47455701
Ga 1.94877261 -0.02758514 9.50221618 -0.07269066 -0.85464580 -0.09279105
Ga 14.26615218 6.08803932 9.60481246 0.29106300 0.68047622 1.02447783
Ga 1.89081280 3.09540005 9.54078378 1.53325910 0.11013567 -0.44328348
Ga 14.25363737 3.04889594 9.52511061 -1.62960073 0.10255786 0.99946309
O 1.87829294 6.13856172 0.63807960 0.10740854 -0.77401341 1.45519613
O 14.12967216 6.11028703 0.58052695 1.09934145 0.09171561 0.62306433
O 1.84986852 3.08635522 0.67780297 -0.17692551 -0.94630072 0.00973952
O 14.17126714 3.13491365 0.57713322 -0.72402056 0.41293619 -1.20613850
O 0.52986554 0.02304338 6.28192242 0.65516817 -0.38573541 0.50319530
O 12.85810037 6.07764386 6.31277460 -0.02861030 1.02060211 -1.27616658
O 0.48704975 3.02617988 6.22473711 0.62028649 0.17049675 -0.01500362
O 12.87219165 3.09402319 6.24590222 0.19977871 -0.70825798 -0.64839909
O 9.12169523 0.00780369 5.02856426 -1.06906516 1.38875682 1.32415160
O 21.47135841 -0.02365176 4.94906095 0.02436767 -0.14585167 -1.34249816
O 9.10467387 3.06029114 5.02425129 0.80093392 -0.17678072 0.91721327
O 21.39179956 2.99005198 5.02475963 0.01293297 -0.13685041 -0.40891207
O 7.68864671 6.14134473 10.72073449 0.51495010 -0.61794964 -1.10826148
O 20.03723348 6.11799056 10.67954486 0.81415722 -0.17979602 -0.34589458
O 7.71516277 3.04817827 10.76160979 -0.01808250 0.33648196 1.13285733
O 20.08505594 3.02646370 10.72459314 0.07737906 -0.29798924 0.12850996
O 8.05486539 1.53080673 0.59756434 1.23426590 0.48688959 -0.96620037
O 20.34872591 1.48954799 0.62284247 -0.31059195 0.22677237 -1.72232239
O 8.00982723 4.56579202 0.63555905 0.84373325 -1.12645404 -1.53713445
O 20.42368946 4.59499460 0.61451269 0.48120702 -0.21075665 -0.27897062
O 6.65231348 1.57527339 6.27634912 -0.97748278 0.57761327 0.79087658
O 18.99377230 1.53069425 6.21289461 1.38876515 2.22146374 -0.07842048
O 6.66648736 4.54662996 6.29046460 -0.25266049 -0.30473355 0.08208277
O 18.95708014 4.60698670 6.25761607 0.13216064 -0.81717687 -0.20671553
O 2.88520593 1.50756437 5.12283567 0.13494797 0.37236920 0.18308383
O 15.17052499 1.54124499 5.00153614 -0.64411964 -0.17310810 0.21713018
O 2.99545197 4.60867321 5.04591365 -0.52000985 -0.76502402 -1.56286536
O 15.29894563 4.57867256 5.02556748 0.25743261 0.00841863 0.34594153
O 1.52495860 1.50290547 10.66999924 -2.36904311 -0.23252706 -0.34336973
O 13.88408567 1.45476309 10.72940209 -0.99648431 -0.56693621 -0.32955715
O 1.63279144 4.55498366 10.73766647 -0.65134905 -0.19545504 -0.41479798
O 13.87910891 4.56309525 10.67290459 1.30580823 1.57703626 -0.27561331
O 1.36519007 6.07699263 3.22106858 -1.01537203 -0.53774221 -0.49698271
O 13.66994430 -0.04135644 3.19222663 -0.64530799 0.00193174 -0.69577757
O 1.33475664 3.03430098 3.19876342 -0.68815334 0.48517716 -3.30407030
O 13.66211097 3.10169303 3.22183984 0.51724192 -1.37330578 1.01737667
O -0.03471697 0.00119326 8.88139710 -0.92575941 -0.11852655 -0.89037943
O 12.33520484 0.07776563 8.83199847 -0.72965587 0.51279690 0.22977506
O 0.03742128 3.00764726 8.78953583 1.54904863 -0.55686247 -1.40682330
O 12.39153505 3.03110440 8.79391737 0.02678172 0.26365380 -0.09250132
O 9.59016705 6.14272520 2.42309800 0.01421225 -1.31971509 0.21033473
O 21.90209189 6.02872779 2.44864328 0.20596526 -0.29588171 0.19038893
O 9.63062877 3.01689026 2.39751084 -0.99867370 0.26949120 -0.52839572
O 21.88875818 3.02604275 2.48487044 -0.32714073 -0.14570239 -1.04852637
O 8.22892805 0.02472763 8.11676903 -0.50947396 -1.35741473 1.82919995
O 20.51513613 6.06764923 8.12340018 -0.53241677 -0.84766329 -1.15568575
O 8.27841471 3.03131587 8.08155892 -1.04747376 0.27601970 -0.29406195
O 20.49555578 3.09356197 8.10454992 -1.21395286 1.34715236 0.41017881
O 7.55467602 1.51295715 3.20668509 -1.11221259 -0.29311145 -0.46616835
O 19.85802807 1.45597033 3.23044363 -1.48424048 0.38172257 -0.68444838
O 7.52981437 4.55759538 3.19603601 -0.34985254 -1.31451406 0.57018500
O 19.80653468 4.61496960 3.17275148 0.04668658 0.77825646 -0.04533224
O 6.14319859 1.58965808 8.86500739 -0.91941089 -1.22844785 0.23360233
O 18.48234894 1.52263547 8.74639183 -0.22560031 -0.49435959 0.24516787
O 6.13104701 4.58249823 8.81135424 0.10984431 -0.65776008 0.10922842
O 18.43413139 4.59787752 8.89219060 1.73223092 -0.29461506 -0.58842309
O 3.39181024 1.56572449 2.48643912 1.29898192 0.71814298 -1.11252321
O 15.71554130 1.48208259 2.54977756 -0.80424924 0.78942765 0.70371903
O 3.37969421 4.54694220 2.54925117 0.30995412 0.12898483 -0.17460514
O 15.72995036 4.62916131 2.41779266 0.14538658 -0.82312067 1.70220613
O 2.04892594 1.57295424 8.09055365 -0.08317445 -0.54661095 0.43656685
O 14.37205518 1.55944324 8.08096638 0.78881791 1.13348666 1.45775409
O 2.13625357 4.62320705 8.09170698 -0.62262225 0.66518077 0.69590291
O 14.36370715 4.65246989 8.09954016 -0.74512640 0.90034406 0.03685272
O 11.90790369 1.56442500 1.39571517 -1.78885265 -0.06597931 -0.07060308
O 24.25248129 1.53569274 1.42660557 -1.71127419 0.34196964 -0.32711556
O 11.86973449 4.57028881 1.48069885 -0.72058386 0.07091449 1.17805623
O 24.24336743 4.53295295 1.48773821 0.22961254 0.60058219 -0.05622471
O 10.57422467 1.51347270 7.12882480 -0.63665795 0.77206232 -0.34975467
O 22.89673682 1.59781222 7.13826943 0.70934546 1.18161140 -0.70116706
O 10.50136228 4.55016581 7.09257771 1.21282675 0.74295268 -0.65685069
O 22.90085410 4.56323838 7.06220984 -0.39434021 -0.68595260 -1.07862035
O -0.95212574 1.56956168 4.19738280 -0.15812616 0.61522719 1.57709916
O 11.37243081 1.48422800 4.19417053 1.05233446 0.15592108 0.60233319
O -0.99792385 4.60678123 4.20538345 1.46682188 -0.62389703 -1.54461115
O 11.34172584 4.56530071 4.12350147 0.87975378 -0.56551648 1.23886802
O -2.28352477 1.43541771 9.86567256 0.82386389 0.47181548 0.16983723
O 9.98283035 1.52063089 9.85219841 0.55325011 -1.03453760 -0.58429714
O -2.37415049 4.60122352 9.80205054 0.00464720 0.92294771 -0.02803059
O 9.99055741 4.55625905 9.83174990 0.12311548 0.16186895 -0.22678809
O 5.75226146 6.09872624 1.47558205 -0.04296703 -0.69592051 0.73952168
O 18.10515536 0.04098860 1.50166344 0.36305243 0.21546145 -1.75582848
O 5.77072771 3.08610109 1.52682010 -1.33008482 -0.60680281 0.26268050
O 18.03866990 3.09871749 1.50037678 -0.81400670 0.09200314 0.49920066
O 4.41625608 6.17527119 7.18116928 -2.20529083 0.60120462 1.03865592
O 16.70661686 -0.00896378 7.12641890 -0.90956105 0.12400565 -1.12025901
O 4.35977140 3.16012505 7.13116971 -2.45985997 0.70655457 -0.68181943
O 16.73111848 2.98967006 7.11361962 -0.56038771 -1.64341930 -0.28718157
O 5.14647271 6.13500525 4.10938607 -0.05382638 -1.09933550 0.57868229
O 17.57405663 -0.01007203 4.14421840 0.80478494 0.16338850 1.25624739
O 5.19972144 3.06329807 4.20200535 0.84742264 1.02545163 0.81216798
O 17.58006846 3.06959174 4.23492811 -0.92056264 -0.26391498 -0.07716270
O 3.80366213 6.11743554 9.80490443 1.58164842 -1.24828445 -0.41320310
O 16.16269002 -0.02610505 9.91716056 0.15220292 0.07275515 1.36699875
O 3.81896555 3.07842833 9.86684669 0.54738934 1.34986269 0.69483983
O 16.21663622 2.99477080 9.84763796 1.67944049 -1.38459318 0.07886574
159
Lattice="24.505629 0.000000 0.000000 0.000000 6.067259 0.000000 -2.733647 0.000000 11.233200" Properties=species:S:1:pos:R:3:force:R:3 Energy=-626.863965 Virial="-53.378716 0.265662 -2.588610 0.265662 -41.533212 -3.979675 -2.588610 -3.979675 -46.776929" pbc="T T T" defect_vacancy
Ga 12.22652930 5.96347224 4.44445373 0.18492203 0.54304495 -0.18859944
Ga -0.00303168 3.05461243 4.45939085 0.71340593 0.69239069 -0.16489979
Ga 12.23611016 2.98453924 4.46649973 -0.74905075 0.17646236 -0.22621250
Ga -1.36570193 6.07807118 10.06085823 0.04755496 0.31165786 1.26271670
Ga 10.90078137 6.06742682 10.05457304 -0.25126965 0.44604669 -0.46807451
Ga -1.35762867 3.06579501 10.08111619 0.18946396 -1.33131572 0.29715118
Ga 10.89575947 3.08152738 10.01425334 1.19845287 1.16309845 0.19950164
Ga 10.91695141 0.07387087 1.17519999 -0.44470199 -0.07819397 -1.00303764
Ga 23.07496313 0.07781443 1.13191783 0.11047836 0.65787915 1.32784820
Ga 10.89744437 2.99612985 1.16465207 1.03147262 0.36389489 -0.87838321
Ga 23.15789395 3.00495855 1.13228236 -0.29832646 0.88319167 0.27474384
Ga 9.49583221 6.07125416 6.72658250 -0.66956307 0.83408819 0.17527481
Ga 21.73413196 -0.09395818 6.75715036 -0.92011319 0.07761748 0.26911271
Ga 9.51323893 2.98659848 6.77935218 -1.59108309 0.04287517 -0.69481733
Ga 21.83184037 2.99154168 6.69117318 0.70723099 -0.59953055 0.55507073
Ga 6.11392878 1.52650697 4.43511000 0.85451792 -0.60315289 -0.51974402
Ga 18.39594284 1.45237593 4.47714420 1.13459572 0.36994633 -0.62695845
Ga 6.10261939 4.54305118 4.43252185 -1.08883090 -1.08230168 0.60936642
Ga 18.34488033 4.57392640 4.46901053 -0.19194592 0.05772550 -0.29663585
Ga 4.69574302 1.44517075 10.04713776 0.45435730 1.35291501 -0.39688513
Ga 17.09554789 1.54184385 10.08633566 0.93016687 -0.43324966 0.21660959
Ga 4.78932814 4.53793514 10.12577026 -0.84614923 -0.96514728 -0.50339772
Ga 17.05124693 4.51839646 10.07782802 -0.74842201 0.22930712 -1.48274976
Ga 4.68868363 1.49385053 1.07915833 0.09898189 -2.76344128 -0.41966037
Ga 16.94964512 1.44018917 1.14149757 -0.30456467 0.48548257 0.47038704
Ga 4.75585792 4.49215261 1.13082423 -0.87722997 -0.84232153 0.04616095
Ga 16.98507854 4.58970288 1.09813364 0.34933640 0.56950567 1.00205169
Ga 3.43070531 1.59173206 6.76222806 0.10654908 0.58360131 -0.12785112
Ga 15.68007988 1.50177524 6.79011454 0.89336112 0.51839513 -0.30899066
Ga 3.40181819 4.63514595 6.81488929 0.81137272 0.67399150 -0.61825366
Ga 15.60866538 4.63145656 6.79436063 -1.49242023 -0.82264854 -0.77032682
Ga 1.50607009 1.52131839 1.77651635 1.29178535 0.42158565 0.39511429
Ga 13.75009842 1.52412624 1.74600165 0.45839971 -0.53002575 0.74302881
Ga 1.54118691 4.52308496 1.78604518 -0.15940234 0.44465216 -0.27355754
Ga 13.85347186 4.60235812 1.75318437 0.23262061 0.72488640 -0.40466480
Ga 0.14912297 1.41419912 7.38837561 -0.09459091 -0.71069970 -0.43419309
Ga 12.40123123 1.53937371 7.40275433 0.00464971 -0.47291884 -0.36775694
Ga 0.09895442 4.57120464 7.37114128 -0.94549471 -0.49027935 -0.06906617
Ga 12.34827342 4.55713299 7.40143074 -0.40745392 0.41618890 -0.33518392
Ga 9.40412397 1.53388381 3.86380407 -1.12221131 -0.10783228 -0.96887793
Ga 21.67357359 1.43767461 3.82222216 -0.41758642 0.85501272 0.12495277
Ga 9.28265756 4.54100794 3.82034930 -0.20010477 -0.31837787 -0.40241741
Ga 21.57406682 4.53500057 3.92421903 -0.31610219 -0.46077934 0.24811154
Ga 8.04057109 1.55567292 9.49998406 0.69922377 -0.74984609 0.28593171
Ga 20.21586810 1.45488191 9.41015616 0.05505414 0.06200316 0.45693220
Ga 7.99860441 4.55499959 9.46481042 0.33510236 0.52467041 0.11369977
Ga 20.26412638 4.57863092 9.49899899 1.00908487 0.03584771 0.52232909
Ga 7.64490773 -0.01008871 1.79406190 0.49691033 0.46100951 -0.89562955
Ga 19.88168364 -0.03080102 1.73139131 -0.80033511 -0.03364537 -0.04399197
Ga 7.66252636 3.06774798 1.78245003 1.17731934 -0.06915537 0.20302604
Ga 19.80869080 3.08111409 1.71372677 0.12545432 -0.82772883 -0.44971554
Ga 6.21650890 0.06308721 7.38188533 -0.75405193 -0.52993494 1.05722934
Ga 18.55395349 0.05602274 7.34122106 1.14860701 0.15772592 0.86855147
Ga 6.31331390 3.08500122 7.43182539 0.73958556 1.07588800 0.33337720
Ga 18.51894603 3.04182133 7.38278751 1.22843452 -0.19282036 -0.00075842
Ga 3.32993034 0.00409097 3.87138643 1.08286819 0.18044794 0.21502535
Ga 15.43386146 6.07901072 3.88670809 0.29266297 -1.06542633 -0.08170727
Ga 3.18667189 3.09610799 3.93613146 0.33071184 0.55605830 0.26391283
Ga 15.53810924 3.04953475 3.86123380 0.43435076 0.48347692 0.33067428
Ga 1.85714090 0.01428140 9.51392454 1.24453272 0.26239791 -0.11002385
Ga 14.14057327 6.04514765 9.49597979 0.43267185 2.10921781 0.74978442
Ga 1.90924472 2.96921252 9.50369513 0.30568629 0.07697521 -0.00021071
Ga 14.10047936 3.00316307 9.50352288 -0.90091262 0.73388512 -1.15868449
O 1.83188622 6.00520418 0.55451705 0.21223327 0.44421362 -0.11344479
O 14.11027647 5.99091482 0.61603988 0.05489300 -0.06093633 -0.71747844
O 1.88661676 3.05082229 0.58812282 0.75007898 -0.00443804 -0.69230628
O 14.07484137 3.00764456 0.66634040 -0.70659776 0.89926889 -0.23661679
O 0.50126669 0.02095578 6.20921013 -0.47150212 -0.13720436 -0.90266458
O 12.74449709 6.05910829 6.26859746 0.59633499 -0.88274939 -0.36592183
O 0.51699203 3.02255017 6.20434439 0.27576477 0.29124604 -0.61666045
O 12.75333023 3.01593664 6.26391365 -0.92580691 -0.37444382 0.19587961
O 9.01394950 0.00149980 5.02759836 -1.32730260 -0.33431011 -0.43667550
O 21.31238046 0.01616962 4.96276053 0.19678064 -0.74047444 0.28794709
O 8.97633352 3.06544512 5.03270527 0.29564678 -0.28442684 -1.30718311
O 21.31005767 3.07592918 5.02580654 0.55948020 -0.11577604 -0.40552994
O 7.65974593 6.05915683 10.57723297 -0.42875823 -0.01370716 1.03685921
O 19.92643261 6.10398608 10.58624840 -0.48180515 0.11676718 -0.72202396
O 7.70533168 2.98717884 10.66576416 -0.32832409 0.44214108 -0.20628314
O 19.92045024 2.98196146 10.60562396 -0.08915623 0.35564594 -0.52249263
O 7.88639077 1.51060959 0.64485556 0.09601051 0.64060963 0.09553621
O 20.25507110 1.51599459 0.59943217 0.74324473 0.80149145 -0.45291586
O 7.98061584 4.51211548 0.63326871 0.19714286 0.15953393 -0.24294594
O 20.20810200 4.50681765 0.66304087 0.25221271 -0.25141503 -0.29563455
O 6.60008805 1.53847343 6.19017893 -0.22420491 -0.41747327 0.93402542
O 18.89011732 1.46661549 6.21112652 -1.59052975 0.23478579 -0.53143465
O 6.63035082 4.50835979 6.17908932 -0.88649883 -0.71785255 -0.28873618
O 18.81910473 4.57370024 6.22764433 0.34195104 0.71903463 -0.00934435
O 2.90323065 1.50456107 5.01900107 -0.11432935 -0.12499465 0.38922525
O 15.13822279 1.58289039 4.95406029 0.82942050 -0.57140582 -1.02776087
O 2.97008151 4.51855979 5.04003073 0.73588300 1.67809890 0.05157663
O 15.12564787 4.52374373 4.97005068 -1.08259057 -0.49480965 1.36769195
O 1.55223051 1.53477656 10.62984381 -0.26582500 1.03434426 1.11092810
O 13.86458264 1.53870152 10.58688387 -0.13133627 -0.38003348 0.23795416
O 1.58861067 4.56698868 10.55563288 -0.37057051 -0.90025686 0.53620224
O 13.80367128 4.54557073 10.61708829 0.80567672 -0.88060836 -0.12621952
O 1.34878789 6.04709697 3.06835973 -0.89660040 0.75679777 -1.41223820
O 13.59365985 -0.01729101 3.15260224 -0.45516550 -0.56835599 -0.26861942
O 1.39711453 3.02064380 3.08585026 0.11291178 0.76896870 -0.48429060
O 13.54312442 2.96560669 3.25031736 1.50371872 0.30659704 -0.31199250
O -0.05663279 0.03313953 8.76637149 0.36256057 0.03970283 1.50162120
O 12.28404592 0.08146727 8.77682859 -0.95193129 -0.38174045 0.17221183
O 0.03385072 3.12301331 8.76025223 0.32262680 0.93390642 0.19866256
O 12.22558299 3.03684707 8.74342823 1.42161126 0.21132563 -0.94398403
O 9.54612631 6.07501091 2.37513916 -1.28280557 2.15750557 0.14405333
O 21.74401408 6.01568553 2.34688264 -1.31779932 -0.68385029 -0.52079368
O 9.52156554 2.98948048 2.45124231 0.44522670 -0.06967781 0.42923237
O 21.85514569 3.02897851 2.49778494 1.16953905 0.93977020 -0.65099361
O 8.17098728 0.01710505 8.10724185 0.43639835 0.90921352 0.49445098
O 20.40611323 6.03697462 8.00645153 -0.34351613 -0.54310872 0.10756271
O 8.13153028 3.03160206 8.06897887 -1.30700358 -0.69228065 -0.16230414
O 20.38742657 3.03456397 8.04309375 -1.30639146 -0.34196432 -1.65680066
O 7.49635104 1.53699174 3.23685960 0.43205448 -0.17787753 1.07177523
O 19.73573018 1.55027865 3.14821895 -0.66504062 -0.37955214 -0.23603385
O 7.54747772 4.56770016 3.15154011 1.28696489 -0.99913001 0.85855954
O 19.69639648 4.53659847 3.22289911 -0.01600724 -0.72943717 0.73769479
O 6.06884810 1.52413099 8.81336128 -0.66591117 -0.60802278 0.46503754
O 18.34590291 1.51297219 8.82388867 0.67882264 -0.24535756 -0.34666092
O 6.16872278 4.57403343 8.81160949 -0.28290703 0.01834123 1.28777961
O 18.37005970 4.51990408 8.79732564 0.36037767 0.95219801 0.18579988
O 3.33576964 1.43870314 2.45965442 -0.71359179 0.49077592 0.54624773
O 15.65703499 1.54223282 2.49911443 -0.32019912 -0.85141014 0.46629447
O 3.32040870 4.58107951 2.50692329 0.03683707 0.69439172 -0.24210511
O 15.65560642 4.54970829 2.41409490 -0.34898413 -0.50865846 0.17582681
O 2.09563625 1.51948106 8.02817168 -0.80157234 0.60966076 -0.07193473
O 14.23420274 1.50381452 8.12702044 -0.31685901 -0.08501629 0.66720680
O 2.02916496 4.55243767 8.01621145 1.44055577 -0.21348044 1.11872313
O 14.32700451 4.49795905 8.02924197 -0.16662218 0.26967187 -0.90579870
O 11.80440639 1.44071122 1.47595810 -0.33388471 -0.04541628 0.79917888
O 24.10890804 1.57305085 1.42699661 0.89000343 -0.45704250 -0.27129597
O 11.90932274 4.48845151 1.42508768 1.01092654 -0.03193922 1.30914389
O 24.16925463 4.58635833 1.49272460 2.05350222 -0.09813122 0.47546733
O 10.46627126 1.55488022 6.99367013 1.53188584 0.58201486 -0.29619233
O 22.78729378 1.52548020 7.06361149 0.94093177 -1.58689221 -0.14499119
O 10.51304990 4.55121946 7.09131509 1.18159687 0.08426074 0.52750170
O 22.72078676 4.69134097 7.01773960 -1.26767287 0.18764457 0.20217453
O -0.96142819 1.47967786 4.20004450 0.06801747 1.83173829 -0.04506911
O 11.24984409 1.51708594 4.22352849 -1.47704838 -1.13690493 -1.07401944
O -0.97356081 4.54725367 4.16824686 -0.77305792 0.08857159 -0.97001077
O 11.29111051 4.56732175 4.13361897 0.22400777 -1.50073576 0.25476768
O -2.27304318 1.49366507 9.86196813 0.07134010 -0.60880327 -0.36937894
O 9.96240085 1.51196086 9.74272880 -0.60810650 -1.29507703 0.37266817
O -2.31333416 4.56764596 9.68010723 1.16308022 0.84323387 -0.39469061
O 9.87983266 4.51707247 9.65045193 0.39455783 -0.35294094 -1.43726472
O 5.72142366 6.05803210 1.39712872 -2.90260971 -0.75275648 -0.33587449
O 17.99714030 -0.08407107 1.47496284 0.85844449 1.37197189 0.39518387
O 5.74905633 2.95019032 1.43962390 -1.27559316 -0.91020256 -0.13039757
O 17.93676184 3.04584934 1.43029341 0.77789710 -0.84560827 -0.32814518
O 4.41414702 6.02242007 6.98666302 -0.41554543 -0.70377057 1.04473436
O 16.59544209 0.05944654 7.08827981 -1.55657554 -0.20767814 -0.34450899
O 4.31094749 2.97592347 7.09187865 -0.73687504 -0.21526170 1.24320664
O 16.65019581 3.04944696 7.04267668 -0.77935925 0.21407684 1.53740212
O 5.13735646 6.04862617 4.14196509 -0.19760778 -0.31572905 -0.98380948
O 17.42166534 0.05478092 4.18488535 0.00909250 -0.12004300 1.64117495
O 5.18206545 3.06183102 4.20647141 -0.73864754 -0.89894323 1.19766592
O 17.39542017 3.04205017 4.24429753 -0.35860033 -0.59373138 0.48528739
O 3.72457083 6.05880466 9.82732299 1.07526750 0.16001100 0.98633433
O 15.99604379 -0.02221962 9.87131472 -0.60046381 0.10416645 -0.40636592
O 3.80703872 3.02822115 9.80885102 -0.36242240 -0.29864566 -0.53151909
O 16.00171054 3.07753789 9.81175702 -0.51399359 -0.89836232 0.33725879
159
Lattice="24.481874 0.000000 0.000000 0.000000 6.061378 0.000000 -2.730997 0.000000 11.222311" Properties=species:S:1:pos:R:3:force:R:3 Energy=-627.224815 Virial="-54.135999 -0.728922 -2.916874 -0.728922 -47.647475 -6.119304 -2.916874 -6.119304 -39.669092" pbc="T T T" defect_vacancy
Ga 12.25485622 6.12650023 4.40956120 -0.82947998 0.13515320 0.41913944
Ga 0.00949753 2.99412878 4.43206429 -0.32140508 0.21926148 -0.16109009
Ga 12.25587779 3.09323420 4.47778949 -0.97818916 0.31096990 -0.42515307
Ga -1.38530894 6.04551568 10.11689420 0.72907973 0.82686705 0.16931375
Ga 10.86567809 6.06518580 10.09301870 -0.62179454 0.14259932 -0.98347030
Ga -1.36056358 2.99128727 10.07890024 -1.22230604 0.16205433 0.55018815
Ga 10.97266083 3.00740407 10.05069761 -0.15604110 -1.12339204 -0.24116412
Ga 10.89362628 0.09822041 1.11494952 0.05119111 0.57235147 -0.51201214
Ga 23.05316322 0.03808479 1.18400464 1.64581269 1.09403546 -0.09853015
Ga 10.82276714 3.01561652 1.11102037 -0.56079746 0.75046942 0.36401166
Ga 23.08850880 3.01661631 1.18591798 -1.12100533 -0.66459255 -1.02675215
Ga 9.54419037 6.05749216 6.82257113 0.70020921 -1.44840764 1.24094116
Ga 21.77720946 -0.05072780 6.80814123 0.28739626 -0.90993083 -1.00197013
Ga 9.52740814 3.10699396 6.77402666 0.17659166 -0.42888790 -0.72274108
Ga 21.80819695 2.96224503 6.74685915 -0.75228086 1.97384108 -0.55252131
Ga 6.05456007 1.50395513 4.46823871 0.59435902 -0.81055054 0.14347571
Ga 18.37829210 1.55126934 4.55906841 -0.92983742 -0.74577912 1.13123699
Ga 6.11774325 4.59615888 4.48915553 -0.17664078 1.85573847 -0.50770685
Ga 18.39064440 4.58066228 4.44527834 0.41554413 0.57924560 0.76195995
Ga 4.81111266 1.44927156 10.08245576 1.21785087 -1.19801248 0.84764025
Ga 17.00215080 1.60920793 10.02314805 0.00931019 0.04995584 -0.84102545
Ga 4.79291999 4.60049585 10.05260224 -1.70765125 0.81980407 0.05892130
Ga 17.01469765 4.52371691 10.05285432 0.05761868 -0.65213727 -1.02553551
Ga 4.80914452 1.43769979 1.16203132 -1.03449608 0.81469997 0.45203200
Ga 16.88986368 1.55736661 1.13547516 -0.32749098 1.56001862 -1.19199336
Ga 4.67032180 4.53862518 1.10474772 0.24215801 -0.41150882 0.43432134
Ga 17.01693814 4.59029271 1.10905712 -1.96022377 1.25784437 -0.21899012
Ga 3.39746090 1.49286055 6.74900766 -0.00496661 0.11025620 -0.44250059
Ga 15.70269550 1.49699337 6.82544843 0.18733218 0.69397985 -2.05605008
Ga 3.44338916 4.53234101 6.77827184 -1.03458524 0.58578354 -1.12790408
Ga 15.59556789 4.55183277 6.78715556 1.22842695 -0.00547450 0.87206584
Ga 1.50733462 1.53537125 1.73278283 -0.27953921 0.08695956 0.37242281
Ga 13.71965109 1.49952781 1.76834680 -0.13913888 -0.78291536 0.29692423
Ga 1.56628156 4.54124635 1.77857909 0.00529108 -1.81562770 -0.48378498
Ga 13.71559508 4.57474973 1.74751726 0.81085817 -0.46568691 0.10521223
Ga 0.13683719 1.51510111 7.35205142 -0.46947537 0.57478146 -0.18169101
Ga 12.34185318 1.53431277 7.40982291 0.53064376 1.96552646 1.32961134
Ga 0.09386640 4.55567364 7.37996159 -0.91981484 1.62804555 -0.32458877
Ga 12.37313722 4.53455874 7.41653192 0.38075445 -0.12804370 0.84035966
Ga 9.44981448 1.57163448 3.87127892 -0.33543646 -0.30277753 -1.01894767
Ga 21.65626175 1.53654060 3.82316875 1.68461474 0.44849806 -0.79811167
Ga 9.38070535 4.49427873 3.81549307 -0.51204450 -0.92935219 1.11672340
Ga 21.64662638 4.54160338 3.82189026 -0.25771558 0.02894804 0.61560399
Ga 7.97074177 1.46345390 9.47156906 -0.00334613 0.54044404 -0.32783584
Ga 20.21985098 1.51095025 9.47243029 0.15717112 -1.68345889 -0.57612878
Ga 8.00989152 4.49806075 9.41439677 0.42103054 -0.43522552 -0.19569801
Ga 20.23897563 4.57477601 9.43509216 0.26388115 0.86015588 -0.23591170
Ga 7.60798127 0.00906827 1.76507311 0.28091437 -0.20790842 -0.14732903
Ga 19.87337993 0.02154962 1.72992182 -1.14831415 -0.34729038 -0.06749095
Ga 7.69286399 3.01920924 1.83153685 -1.31692806 -0.10537972 0.05118861
Ga 19.77786071 2.96527414 1.75858502 0.83022158 0.43489912 0.26482526
Ga 6.30975574 0.01040868 7.36588016 1.06102761 -1.90942456 -0.58442309
Ga 18.51794803 0.00150450 7.45078798 -0.83590457 -0.57900708 0.91245777
Ga 6.24940347 3.08379942 7.35235995 -0.92183945 0.60546933 -0.67631614
Ga 18.49321719 2.99589724 7.40317967 1.01817114 -0.15832294 -0.70340509
Ga 3.29536685 -0.00391328 3.87539281 0.65130656 -0.87170680 -0.39750413
Ga 15.48935758 6.07997008 3.89897626 0.33411367 -1.00590894 1.91022129
Ga 3.19595108 2.99184276 3.83039942 0.77999259 -0.31936212 -0.64766318
Ga 15.47014416 3.03891255 3.84513204 0.37586210 -0.74188319 -0.45191964
Ga 1.86966899 -0.00019162 9.46631138 0.29430937 0.93206959 0.65488173
Ga 14.08900913 5.97540263 9.42922725 0.79191502 -0.41193290 0.92481331
Ga 1.92699184 2.92247692 9.50011343 0.91383965 -0.80561708 0.26232365
Ga 14.09705599 3.06734975 9.41797762 -0.21351907 0.50296858 -0.25526527
O 1.74743648 6.02695597 0.60718008 -2.15332693 -0.66248466 -1.19327085
O 14.11042578 5.99814976 0.61737384 -0.40407911 1.65463878 0.07181518
O 1.85890612 3.02059025 0.61003112 -0.68443449 -0.93744612 0.00768710
O 14.07885053 3.05437979 0.62443713 -1.19263552 -1.08526949 -0.29819843
O 0.48124306 0.08488932 6.14919119 0.38107784 0.77822541 0.72270498
O 12.65560682 6.10139555 6.15653016 -0.01253245 0.34001079 -0.05439801
O 0.52756818 3.04198813 6.17889893 -0.84593766 0.84004482 0.02266023
O 12.75330073 3.07327798 6.21976236 -0.55167145 0.66897647 -0.97460800
O 9.02836492 0.05462065 4.93730353 0.89515930 -0.08483813 0.76961019
O 21.30144323 -0.05631289 5.02255489 -1.00355558 1.25854729 1.34533693
O 9.02159660 3.03355693 5.07636515 -0.40119566 -0.12253381 -0.87946706
O 21.20578343 3.05851598 4.99900812 1.24876289 0.54142000 -0.28332774
O 7.67031233 6.09179700 10.65294458 -0.03802426 0.14677164 -0.76102936
O 19.93263058 6.01699881 10.62923764 -0.54601031 -2.00386641 0.47997076
O 7.69901551 3.04785066 10.63666887 -0.16533291 0.57650904 -0.18311401
O 19.91424084 2.96937254 10.59329615 1.24332360 -0.49055005 1.10568452
O 7.94234214 1.51029664 0.59026228 -0.94266206 -0.49129687 0.04822910
O 20.28557226 1.53939477 0.60874320 0.77606229 -0.14451437 -0.24020378
O 7.98591429 4.56624257 0.69289438 -1.30234001 -0.49480952 1.40469448
O 20.22316544 4.52997470 0.57320799 -0.35929372 -0.06291621 1.47407872
O 6.61286714 1.60050769 6.20818130 2.06047490 0.20211207 -0.67441065
O 18.80777382 1.54857383 6.22835834 -0.00033183 -1.48343982 -1.01932072
O 6.53627294 4.55601545 6.27376066 -0.37481621 -0.15774562 0.83416905
O 18.76153971 4.57806358 6.16719677 -0.41677827 -0.50669242 0.38771588
O 2.90112851 1.48896857 5.04169178 -0.21953573 -0.71928086 -0.48923831
O 15.18807669 1.46904936 4.92491056 0.67408319 -0.46780134 0.76237461
O 2.85797983 4.55907029 4.90978400 0.02047715 -1.04033373 0.67572277
O 15.12317946 4.57218678 5.01196625 0.11708181 0.98149612 -0.88278741
O 1.46954678 1.51400312 10.57090497 0.60095958 -0.40873992 -0.46469114
O 13.75476457 1.49619963 10.59068094 -0.34439856 -1.31109244 1.11095901
O 1.53992469 4.50884673 10.58341186 -0.36957716 0.93968357 -0.37412744
O 13.81709526 4.55330847 10.56520038 0.08460935 -0.44843734 0.04331020
O 1.35570587 6.00104988 3.17766214 1.51842255 -0.40366340 0.21295364
O 13.61147969 0.03383518 3.18619980 -1.08698042 1.44501882 1.46894642
O 1.30911374 3.00213875 3.22275163 -0.53385318 0.56368804 -0.58275032
O 13.60128961 3.01727863 3.19276101 -0.12750459 -0.32621286 0.15798552
O 0.05086973 -0.00109990 8.77461111 -0.33479724 -1.29166183 -0.32712557
O 12.31113613 0.08121467 8.77740077 0.09412418 -1.63635329 -1.38521671
O -0.00929564 3.07460549 8.78867752 0.95383597 0.11135305 0.26704128
O 12.23379464 3.05526334 8.74910353 -1.10990921 0.76797175 -0.31984924
O 9.56540241 6.07348074 2.45355993 1.45497741 -0.93616167 -0.94822292
O 21.73683307 6.03274962 2.37846470 1.75441662 0.42458357 0.43722164
O 9.44902352 2.95873288 2.47912661 -0.59301589 0.72946289 0.08857735
O 21.73076918 2.97940362 2.43244094 -1.44320122 -0.15487899 0.50789795
O 8.11473727 -0.01391267 8.07759892 0.25052607 -0.78810395 -0.05483840
O 20.37426690 6.04029214 8.04511068 0.24615510 -0.43507305 -0.69197806
O 8.09793043 3.05772485 8.11902602 -1.30566997 0.10195252 -0.56746785
O 20.37383115 3.04151698 8.01257854 -0.30272373 -1.68509213 1.27267465
O 7.44767687 1.56123435 3.16476830 1.14005805 0.97451233 1.49955673
O 19.74852432 1.51718488 3.16354679 -0.49569585 -0.64557028 -0.44446296
O 7.52386393 4.46465501 3.12880570 -0.52985432 -0.30499448 -0.82515835
O 19.70163378 4.56541984 3.16093097 -0.37838081 1.34628973 0.13488158
O 6.11215574 1.58739602 8.72765397 -0.78999915 0.98192961 -0.13722463
O 18.41308273 1.50663405 8.79086412 -0.05923746 -0.31742400 -0.08639626
O 6.11912909 4.55299923 8.82439726 -0.08200937 -0.14569867 0.43341996
O 18.30399341 4.51593794 8.79938869 1.78159084 -2.28264231 -0.26549676
O 3.36320692 1.44460278 2.46504164 -0.06163318 0.30876595 -0.64988204
O 15.60680759 1.53516260 2.44131774 -0.69782395 0.42267674 -0.29120964
O 3.44458043 4.54754600 2.42434912 -0.03351608 0.05767728 1.97653183
O 15.58675412 4.53176997 2.44265068 -0.28405084 1.78310132 0.42557492
O 2.00256740 1.46644729 8.03989313 -0.46079208 -1.02985164 -1.45784259
O 14.32285578 1.52822910 8.03088882 -0.14655311 -0.20750380 0.66263894
O 2.03730259 4.57286084 8.00876037 -0.59022512 0.35346944 -0.18138088
O 14.25609426 4.53614180 8.03742901 -0.78919163 0.07045078 -0.13489692
O 11.78892082 1.53375618 1.35672206 0.42882864 0.32285890 1.00819931
O 24.04916419 1.49188660 1.42158853 0.39385656 0.60155386 0.83905579
O 11.90216451 4.52125387 1.48500743 -0.80097981 0.36028181 1.46192800
O 24.09568152 4.56404694 1.41498908 -0.12226735 -1.33564649 -0.83103417
O 10.50367715 1.49196517 7.02153993 1.04231802 0.96546230 -1.19883745
O 22.69634579 1.47308498 7.05805066 1.87356458 0.49542277 -0.38681224
O 10.51329588 4.52900692 7.03222431 1.29021818 1.08296639 -0.87682208
O 22.79654059 4.52581550 7.08378464 -0.29072835 1.10374365 -1.22774920
O -0.96825921 1.56123733 4.16823489 0.23283658 -0.17642746 0.06788133
O 11.27774091 1.50931778 4.17357595 -0.49073495 -0.18815385 -0.92865554
O -0.96891290 4.51959441 4.18382290 -0.31310390 0.22640843 1.30078743
O 11.37913405 4.50868409 4.18365903 0.76868386 0.50098145 -0.01183935
O -2.32968855 1.46227868 9.80691849 0.29866014 -2.16323762 -0.13784952
O 9.88947741 1.49237499 9.83407971 0.67107150 -0.77100070 0.97271883
O -2.34385199 4.58783933 9.80304157 1.01778480 -1.59971802 -0.51365211
O 9.90717141 4.57479715 9.80715038 1.47839576 0.71108156 0.89872184
O 5.71842488 6.04528844 1.47899492 -0.64604190 1.11849596 -0.50842184
O 18.08329504 -0.06120784 1.40443020 0.10459194 1.68089353 0.21610746
O 5.67709737 3.02310916 1.39609775 0.41006652 0.23174149 0.05552054
O 17.98534465 2.97507149 1.41080575 1.12169183 0.43252033 -0.13770584
O 4.34643380 6.09360938 7.05548017 0.03992471 0.71349641 0.29925811
O 16.54240751 0.01330337 7.01539114 0.10436573 0.08292499 -0.80386110
O 4.30448298 3.07336955 7.02966226 -0.01323550 -0.33167844 0.06945579
O 16.62467904 3.00441218 7.06066603 -0.82642475 -0.39927055 0.13094971
O 5.21129102 6.06682469 4.16379845 0.42482498 1.41166872 -1.53069502
O 17.33593634 0.04242183 4.19985370 0.22851718 -0.29077124 1.42806990
O 5.17475619 3.03668493 4.21830312 0.92839123 0.76346037 0.11562277
O 17.37724769 3.05371865 4.24457067 -0.34514047 0.60624432 0.77052686
O 3.78851780 6.04158091 9.76185570 -0.55081722 -0.24940992 -0.20145854
O 16.00972455 0.00565682 9.85731979 0.57840535 1.00591141 0.16867794
O 3.80492787 3.03742441 9.78898800 -0.41924656 -0.37908041 0.42790703
O 15.96249186 3.03061309 9.74198890 0.64247639 0.36031843 0.78164014
159
Lattice="24.510519 0.000000 0.000000 0.000000 6.068470 0.000000 -2.734193 0.000000 11.235442" Properties=species:S:1:pos:R:3:force:R:3 Energy=-628.592066 Virial="-55.647866 -1.123684 -5.604285 -1.123684 -44.733230 -4.900140 -5.604285 -4.900140 -42.672028" pbc="T T T" defect_vacancy
Ga 12.27438791 5.96742087 4.45489873 -1.51301999 0.50115596 -0.50461892
Ga 0.01200832 2.98910641 4.44500404 0.48188699 0.50898076 -0.40036320
Ga 12.31431607 3.08427592 4.44237478 0.50825369 0.07011744 0.61568677
Ga -1.32768485 6.00440198 10.07073024 0.13974389 -1.40039382 -0.01654505
Ga 10.91103026 6.12794514 10.13616626 -0.41677102 -0.15662484 0.42886146
Ga -1.34501434 2.99488455 10.13496130 -0.68606482 1.48422818 -1.42928204
Ga 10.87957657 3.04752565 10.07900236 -1.51452139 0.00821220 1.34187520
Ga 10.95636558 -0.02151212 1.18695109 0.12198916 -0.29133599 0.22856957
Ga 23.12401549 0.02900540 1.21738167 0.12583623 0.20424219 0.21837203
Ga 10.79434050 3.02843498 1.12294186 0.62166799 0.48075351 -0.04800273
Ga 23.14804316 3.05935248 1.13038103 -0.49942927 0.68462781 -0.50936603
Ga 9.48544815 6.07657325 6.71945795 0.61534313 -1.40195386 0.69944342
Ga 21.77760018 -0.03064437 6.80009572 0.38825389 -0.28783207 0.20908068
Ga 9.45344790 3.01097426 6.74122522 0.20444832 -1.35974908 1.36108517
Ga 21.75078238 3.09016341 6.80633800 1.09512800 1.01027268 0.19358312
Ga 6.12179883 1.49882912 4.50222855 -0.35595982 0.14429940 0.64217669
Ga 18.35425628 1.51669576 4.44092442 1.23958742 0.00567786 1.26514599
Ga 6.13240845 4.58296009 4.43917120 -0.57940542 0.70826822 -0.20643034
Ga 18.43620283 4.63970955 4.48829314 -0.25664385 -0.06418049 -0.53814933
Ga 4.77106113 1.55501906 10.04354009 1.21712456 -0.13118004 -0.79277185
Ga 17.09512533 1.48129422 10.16470052 -0.35843040 -0.86713833 0.49727895
Ga 4.75006437 4.58169316 10.02441011 -0.48767995 -0.61102503 0.56163582
Ga 17.02452376 4.50611065 10.02429667 0.80384976 -0.32862559 0.40612140
Ga 4.79533140 1.46578424 1.12285393 -0.94218168 0.01261374 0.33111825
Ga 16.95899653 1.56651758 1.19277988 2.04340162 0.03234117 -0.37214907
Ga 4.79558321 4.51825266 1.20825575 1.59957671 0.11618659 1.54963560
Ga 16.96514383 4.52367138 1.12802298 0.05804714 0.22257062 -0.74971920
Ga 3.35295576 1.51668038 6.73476453 -0.43379502 0.63677895 -0.06283110
Ga 15.65034149 1.40921309 6.78367933 -0.93626808 -1.49698719 0.23073566
Ga 3.33281411 4.52322982 6.74868408 -0.03414073 -0.23866936 0.63616949
Ga 15.67002507 4.57619543 6.76155299 -1.16605812 0.32106637 -1.40778256
Ga 1.48328912 1.55214789 1.83378778 0.35161638 -1.25059292 -0.01371839
Ga 13.76986008 1.45140579 1.73589842 -0.39310504 -0.91908751 0.15879603
Ga 1.53807084 4.53546237 1.72913573 0.33617490 1.21330314 -1.25644036
Ga 13.73252383 4.54863107 1.70308377 -1.27620199 0.20524801 1.27240762
Ga 0.14378350 1.51724561 7.36372039 0.35624814 0.68180790 -1.05462084
Ga 12.35832020 1.55789299 7.32812468 -0.84917319 -0.98515522 -0.39789289
Ga 0.15361230 4.57943070 7.38489526 0.53565822 0.99557079 0.80878262
Ga 12.45060878 4.50838409 7.35003523 -0.81523436 0.02478417 -0.52127395
Ga 9.35490850 1.65240167 3.87379814 -0.02239484 -0.75165156 0.44742957
Ga 21.66143899 1.54492239 3.85767081 1.56379870 0.69112755 -0.69481600
Ga 9.41852968 4.47801473 3.86030916 -0.34073164 -1.16785132 0.90005156
Ga 21.65095377 4.59485056 3.81294953 0.54863192 0.45661534 -0.37323152
Ga 7.96060340 1.47304028 9.49035561 1.84243815 0.45121858 0.79801464
Ga 20.28186641 1.48439356 9.54337028 1.29823248 -0.15174010 0.84104971
Ga 8.01697335 4.55571144 9.46320209 -0.34696737 -0.11044614 0.54569420
Ga 20.30264522 4.56963524 9.54848708 -2.41506625 -0.22572227 -0.78299169
Ga 7.58951687 -0.05840217 1.73259362 -0.91050428 0.28050295 0.24346890
Ga 19.92081169 -0.01094139 1.81909154 0.36363765 0.57419982 1.46262599
Ga 7.62548554 3.07802248 1.73314269 0.56585516 1.02097135 -0.52408311
Ga 19.93548310 3.09135024 1.74137368 0.82862426 -1.02244149 0.01578057
Ga 6.29663707 0.01177992 7.39947991 1.37398740 -1.16132223 1.99829270
Ga 18.57957187 0.04127752 7.40147948 -0.47708947 0.18744478 -1.05870574
Ga 6.30385190 2.98559714 7.38896926 2.28271554 -1.58392377 -0.62318689
Ga 18.48257148 3.03755810 7.42236351 -0.30024364 1.32398991 0.85165280
Ga 3.25037086 -0.09717671 3.81621382 -0.31582933 0.11821248 0.65750025
Ga 15.52560640 6.04172584 3.88753280 0.22447599 -0.02750281 0.30339956
Ga 3.19716525 3.05290453 3.87422342 0.70440016 0.50700938 0.69996864
Ga 15.53746776 3.00784975 3.88036292 0.27599704 -0.39808104 1.18246911
Ga 1.94013724 -0.08813608 9.47056770 0.07962055 -0.43248061 0.51646452
Ga 14.06395022 6.03275506 9.44538665 0.79078345 0.72731714 0.31517790
Ga 1.88219998 3.04469756 9.50201569 -0.94827112 0.83528184 0.45136000
Ga 14.14682405 3.06378476 9.42675531 0.40896143 -0.99935026 0.33354360
O 1.89214407 5.93655858 0.67424044 -1.02103798 0.16846796 1.24897696
O 14.16532392 6.09177894 0.69214887 -0.79116282 0.51955661 0.05228678
O 1.78782887 3.08001758 0.61147086 -0.28121983 0.46339798 -0.94192791
O 14.10150264 2.99031652 0.63291619 0.78942715 0.04028069 -0.16951488
O 0.49149889 -0.02180453 6.23154223 0.04664307 -0.08101532 0.51626351
O 12.67001249 6.04906669 6.26088893 -0.16981135 -0.05521669 -0.02931599
O 0.53151212 3.06349899 6.27690231 1.30580464 -0.08558628 -1.27734724
O 12.76749726 3.00353952 6.23937002 -0.20406092 -1.13934091 0.50398568
O 9.08635894 -0.05245995 4.95568669 -1.13994472 -1.26280375 0.16041231
O 21.24091295 -0.07006525 4.96315034 1.51952891 -0.46634364 -0.34659864
O 9.01630596 3.09896344 4.99886867 -0.71788158 1.16029906 -1.33416053
O 21.23264541 3.03995869 5.00015002 0.56037401 -1.04896484 0.25628034
O 7.64399900 6.04100594 10.67574550 -0.88113763 1.18470783 0.23503401
O 19.87460886 5.99226619 10.63560649 1.06807237 0.07027422 -0.34313031
O 7.65299589 3.09335515 10.61763119 0.19449476 -1.17227596 -0.17245827
O 19.92965292 3.05083615 10.55501014 0.69355535 -0.40902308 -0.29747197
O 7.98382539 1.49627124 0.64795466 0.77798586 -1.16982809 0.12500280
O 20.21110033 1.53002866 0.59740869 -1.60371286 -0.00741128 -0.82374308
O 8.00042118 4.54451089 0.61726669 0.41910650 0.77323443 1.16828615
O 20.29884486 4.53990329 0.63095361 -0.61041366 0.53949504 0.21134271
O 6.70285593 1.53576843 6.12426351 -1.39743072 -0.53287842 0.01715939
O 18.84046665 1.46244131 6.26764982 -0.63673196 -0.61368307 0.37283272
O 6.60546247 4.59548555 6.25985305 -0.05817382 0.83556121 0.38032295
O 18.89186874 4.50570308 6.24470621 0.12117416 -0.18792411 0.01553604
O 2.96732757 1.45179335 4.99038369 -0.30815153 -0.64922961 -0.12471524
O 15.18004454 1.52890112 5.06784545 -1.01049449 0.57555947 0.48726634
O 2.95110221 4.56360581 5.03962633 -0.83393279 -0.62116405 1.04054246
O 15.19723549 4.54191841 4.97965730 1.00014193 -0.13371533 -0.40065503
O 1.57882481 1.47811609 10.61873020 -0.99289416 1.39961858 -1.69321459
O 13.75045187 1.55012929 10.67057826 0.34561732 0.21426465 0.68042972
O 1.50775652 4.53747989 10.60451223 -0.39052037 -0.03412754 0.12017040
O 13.84053039 4.61513759 10.60207429 1.75059652 -1.21196740 -0.50577163
O 1.22958692 6.11371723 3.17860402 -0.10653799 1.91296895 -0.71337876
O 13.60693141 0.04011131 3.15846530 -1.11612800 0.40954042 -0.21845615
O 1.32876988 3.01408002 3.20045242 0.90453001 0.36968389 -0.34962431
O 13.66495923 3.08960474 3.18549561 -0.62395829 -1.28391704 -0.63641542
O -0.01524023 0.03739372 8.76165206 0.51412901 -0.12648965 0.88860363
O 12.30643119 0.01101054 8.77702454 0.24400574 0.78290958 -1.15667594
O -0.04879541 3.06693972 8.77020023 0.63224011 -0.81117461 -0.41090009
O 12.24320114 2.96244347 8.76786109 0.01853331 1.04302567 0.68171778
O 9.50926287 6.07075462 2.42756648 0.85255430 0.01685177 -0.36680159
O 21.66062629 6.04808558 2.39376471 -1.58241227 0.23146323 -0.09292864
O 9.48896209 3.06932866 2.36549395 -0.47914280 0.47831446 -0.15524141
O 21.79431709 3.01103695 2.41090979 -0.32913187 1.36562377 0.84247621
O 8.12312300 0.01457958 8.08207736 0.86111567 1.49109272 -0.43534457
O 20.34228710 6.10652984 8.00788956 0.93435479 -0.18098539 -0.39378369
O 8.17895096 3.00248639 8.05304755 1.82963401 -1.04082092 0.74646064
O 20.36119269 3.01998517 8.04742891 0.15768422 -1.52226895 -0.13174083
O 7.43931310 1.53625092 3.17984499 0.01499317 -0.90529157 0.82295756
O 19.85333572 1.54540971 3.22058409 -0.71707253 0.36288244 1.23227194
O 7.41333595 4.46304767 3.15295909 -0.27489305 0.48469672 -0.55649249
O 19.81136781 4.66792046 3.14906291 0.26167195 1.26882343 -1.76035127
O 6.08748115 1.55617178 8.77607434 0.00121771 -0.28797101 0.40434473
O 18.36673136 1.54251349 8.90201696 0.13044385 -0.91428716 0.46205781
O 6.17750220 4.62192079 8.71278025 1.92689531 -0.67808386 0.28584593
O 18.41439837 4.51200148 8.85162802 -1.61742306 0.81062759 -0.16508188
O 3.45353624 1.54529006 2.41234065 -1.02157643 -0.09284419 -0.43941485
O 15.63659328 1.48560951 2.49262974 0.98227597 1.08238668 -0.37607900
O 3.41908445 4.59947514 2.51958100 -0.08721051 0.51983040 -2.55871900
O 15.62023477 4.56539696 2.46179659 0.06786509 0.49370744 0.82600126
O 2.02679692 1.55760895 8.07810459 -0.26496834 -1.02229088 -1.50308505
O 14.25509907 1.51440111 8.05224182 -0.31176824 -1.56556463 -0.00935550
O 2.00472099 4.54959093 8.00335503 0.16742474 1.74951537 0.02099353
O 14.30203949 4.60350721 8.06493690 -0.83484767 0.36224586 -0.66784727
O 11.88995202 1.51528101 1.40176134 -0.49422109 -0.56838294 0.84414001
O 24.18398909 1.42583254 1.44605558 -0.57350142 1.16106559 -0.47081440
O 11.82688635 4.60218701 1.45270943 -0.25381015 0.44128284 -0.62493592
O 24.22074722 4.55290097 1.39805855 -0.62963468 -0.21488873 -0.61024067
O 10.41859683 1.56264142 7.01418568 0.15175261 0.09219581 0.31357532
O 22.72693773 1.56580935 7.10929809 0.65071967 -0.38915524 -0.26975719
O 10.46645539 4.52969323 7.00219874 -0.47470814 1.82634282 0.25718820
O 22.66290528 4.57727119 7.09775137 -0.10755407 0.89283897 -0.60467177
O -0.95529238 1.52746667 4.14693241 0.24751078 -0.16710131 -0.26048075
O 11.35160698 1.44203161 4.16993412 0.72565725 0.90910677 -0.67303996
O -0.96610133 4.55570986 4.16878709 -0.03231339 -1.09635875 0.49715650
O 11.26302999 4.57302820 4.12728087 -0.18311057 1.44641080 0.40929227
O -2.33881641 1.52659942 9.77381508 -0.09366697 1.33789301 0.69823130
O 9.91900240 1.53028878 9.72038887 -1.22831172 -0.78361733 -1.02330613
O -2.39962043 4.55181505 9.76854061 -0.54847040 -0.32520920 -0.22876510
O 9.89303720 4.57742515 9.74759224 0.14587051 -1.57671136 -0.78040240
O 5.63560266 6.13338508 1.49477417 -0.18361070 1.06698023 -0.66737148
O 18.04107601 -0.04118346 1.44762796 -0.29237397 -0.52257393 -1.17518094
O 5.67157668 3.03724246 1.42284754 0.65350555 -0.54314236 1.45460795
O 17.93875416 3.05666642 1.41922366 0.41014371 0.12281328 -0.94128843
O 4.44026776 6.06434305 6.96377334 0.99483211 0.04567342 1.25928883
O 16.54289851 0.08527035 7.04633471 -0.35955427 0.78904788 0.79324868
O 4.36687556 3.03295334 7.11180559 -0.93853817 -0.72773432 -0.59277218
O 16.54820853 3.08017122 7.10946967 -0.28359342 -1.52301384 -1.13507248
O 5.16161670 6.08290805 4.16828695 -0.41364446 0.04672943 -0.36879509
O 17.34158142 0.03006205 4.19537221 -1.00039723 0.09053001 -0.89804153
O 5.17850250 3.06273629 4.15407230 -0.05780744 0.34368758 1.03078891
O 17.47485522 3.03555302 4.19842992 -0.80591331 -0.04102553 -0.42444277
O 3.77884226 6.10415916 9.79966970 -0.00907562 0.22288735 0.00516709
O 16.04780208 0.05249113 9.73368166 -0.35281803 0.34274542 -0.71495368
O 3.78084615 3.00829424 9.80958060 1.01059268 -2.51101506 0.70299017
O 16.05590718 3.03756685 9.76192744 -0.27365428 -0.77725223 -0.91287868
159
Lattice="25.218306 0.000000 0.000000 0.000000 6.243708 0.000000 -2.813148 0.000000 11.559886" Properties=species:S:1:pos:R:3:force:R:3 Energy=-626.138351 Virial="-56.429149 1.049754 2.402644 1.049754 -45.575660 -4.954628 2.402644 -4.954628 -41.385833" pbc="T T T" defect_vacancy
Ga 12.64383396 6.25853781 4.57337503 0.35252213 1.05241441 1.46571651
Ga -0.00792228 3.12192645 4.57177623 -1.14731653 -0.37064940 -0.16266539
Ga 12.56389191 3.15314163 4.61541192 0.65235367 -0.05891814 -0.52180377
Ga -1.41727956 6.20586947 10.39327431 -0.24215837 -0.87895966 -0.53652629
Ga 11.28669129 6.28289117 10.42780248 0.24857934 0.02120256 -1.12326846
Ga -1.40463152 3.13549947 10.36642133 -1.48446713 1.10524131 1.03728541
Ga 11.17870618 3.12489750 10.34038476 -0.15084986 -0.08787708 0.61845531
Ga 11.16095460 -0.01483074 1.16997872 0.63733211 1.13182602 1.36229179
Ga 23.79414135 -0.07622987 1.14857011 0.14174433 -1.60571140 0.51779754
Ga 11.25138044 3.11822378 1.21461979 -0.31798622 -1.30080337 0.54798877
Ga 23.81478801 3.11491419 1.14706802 1.30179227 -0.32594227 0.41064635
Ga 9.75884803 6.32199422 6.94456276 0.74330388 0.35509536 0.46333555
Ga 22.46162211 -0.01448889 6.95350043 -0.27976138 -0.10078224 -0.08927394
Ga 9.78372852 3.11422391 6.92926178 0.28928850 0.18177029 -0.80946086
Ga 22.39057885 3.06386795 6.98264434 -0.60749273 0.29412986 0.07441228
Ga 6.32731032 1.59102463 4.57592975 -0.34105425 0.42475645 -0.39110635
Ga 18.96170411 1.57679863 4.59919538 1.29413213 0.07685186 2.22768804
Ga 6.39564314 4.70083538 4.57634877 0.41280508 -0.84731172 0.70275884
Ga 18.98994255 4.70357416 4.66419618 -0.35266991 -0.23040750 -0.12742825
Ga 4.83809620 1.54027704 10.36727611 1.37019930 0.12556402 -0.77731999
Ga 17.45064315 1.56169760 10.35412796 -1.31905950 -0.55001471 -0.21037725
Ga 4.83678795 4.65611554 10.43352342 -0.50924393 0.11185412 -0.49061296
Ga 17.56126413 4.65219886 10.34345755 -0.09521014 -1.91238393 1.23983752
Ga 4.91862608 1.48000852 1.20927380 -1.21207925 -0.09205764 -0.19564300
Ga 17.41049690 1.63053063 1.21168323 0.03772032 0.64316363 0.02303078
Ga 4.80802345 4.66587299 1.20029518 0.86602982 -1.07002987 1.12375412
Ga 17.40828580 4.68361849 1.20861702 -0.20064387 1.19168261 0.30967205
Ga 3.39429524 1.59405848 6.95877059 0.59680981 0.71129416 1.37800043
Ga 16.12942286 1.54791726 6.92789806 -0.96184162 0.08429237 0.64364505
Ga 3.42771260 4.66891223 6.96257092 -0.13206167 1.72570662 -0.68936542
Ga 16.12627219 4.67640266 6.90120542 1.40072555 -0.30853069 -1.58177761
Ga 1.53724432 1.50378188 1.82687796 0.75506167 -1.36107839 -0.05071979
Ga 14.19183733 1.58910836 1.80285295 0.98589391 1.01931870 0.53910306
Ga 1.53147786 4.66422293 1.81075416 -0.33847758 0.11602853 -1.18913109
Ga 14.14583845 4.74059266 1.80074612 -0.59002347 -0.60732365 -0.73152688
Ga 0.14526947 1.52736236 7.56570912 0.63777214 -0.32806580 -0.67482193
Ga 12.70718708 1.51982698 7.66947518 -0.79389943 0.84684296 -0.33094456
Ga 0.17269378 4.66816425 7.56532267 -0.06112862 0.05295860 -0.42294407
Ga 12.80888605 4.65187247 7.52670284 0.29867752 0.25863290 -0.83489122
Ga 9.66303887 1.52761960 3.91342339 -0.75605155 -0.80481695 -0.29389504
Ga 22.21465325 1.57924672 3.96165478 1.31608443 -0.41395136 0.53151458
Ga 9.60793907 4.70307973 3.92728261 -1.19966362 -0.02712068 0.41989079
Ga 22.19311624 4.63329883 3.97149770 -0.29551836 -0.01303669 0.94215088
Ga 8.20367125 1.56171957 9.78740689 -1.42006951 0.22510203 0.71993564
Ga 20.82025960 1.67299981 9.75121954 0.78781413 -0.57479056 -1.07503745
Ga 8.22964103 4.62876629 9.73107360 -0.21440231 -0.60451173 -0.79734535
Ga 20.84068578 4.71595186 9.72260963 -0.97229917 -1.65832690 0.67524546
Ga 7.87593160 0.00520002 1.85207337 0.83403549 1.07442283 0.09167550
Ga 20.51543375 0.01970442 1.84991138 -0.72287411 -0.63604228 0.20778759
Ga 7.90682511 3.14387333 1.82849189 -0.31613362 1.09034084 -0.37468457
Ga 20.47883709 3.18873796 1.81940785 -0.00078609 1.31249389 -0.54248944
Ga 6.48747416 -0.02594944 7.65192477 -1.19049301 -0.70515000 0.93782095
Ga 19.08121144 -0.01139698 7.59124913 0.51893388 -0.93734385 0.39668352
Ga 6.44986372 3.12424755 7.61241411 -0.30416300 1.20212091 0.02067295
Ga 19.05375171 3.06249919 7.66171223 -0.17435746 -0.05967379 0.39720631
Ga 3.35517350 0.01398406 3.96757419 1.51546011 -0.44503382 1.02413472
Ga 15.98634434 6.24030767 3.95509590 -0.74276944 0.25018753 -0.89931345
Ga 3.32929191 3.17540559 3.97641770 0.32323935 -1.15231261 1.14064235
Ga 15.95222754 3.10425414 3.94750215 0.31102520 -0.75185440 -0.50336834
Ga 1.97738522 -0.03380151 9.76870800 -1.22925467 0.67863491 -0.44769113
Ga 14.57267811 6.25098868 9.74258640 0.60389607 -1.33924673 0.50035008
Ga 1.88000572 3.14364676 9.67535708 -0.27268297 1.49411033 0.20536253
Ga 14.55114743 3.12661770 9.77407722 0.55896128 1.15805964 0.83658338
O 1.86746779 6.20582134 0.65226274 -0.74746025 0.64821763 0.55120430
O 14.51209761 6.15613740 0.62015451 0.24270541 -1.28479597 -0.04101327
O 1.98600194 3.15882618 0.57614418 -0.46438715 0.70140934 -0.41671929
O 14.51745156 3.16386612 0.56594345 -0.30439145 0.09857216 0.09184569
O 0.47987923 0.05792778 6.35334828 -0.21975794 -1.21746489 -1.16821702
O 13.07878346 6.23141057 6.38551974 0.36401261 0.36726796 -0.32481778
O 0.56152937 3.16921862 6.40653624 1.22802719 -0.66566577 0.90762086
O 13.05543477 3.16767590 6.43656608 -1.11878013 -0.61084851 0.25285176
O 9.30334568 0.02899738 5.18170539 0.09628509 1.23243904 -0.29805844
O 21.87859188 -0.02236391 5.14994202 -0.72166229 1.02873875 1.05793639
O 9.22096026 3.11250577 5.12953076 -1.07157266 -2.02159442 -1.53702931
O 21.91503986 3.07585744 5.16949142 0.86778934 -1.32614869 0.44844223
O 7.90582356 6.23559996 10.95887913 0.04700880 -0.12390271 1.19269294
O 20.53024301 6.22434257 10.92493291 -0.25190891 2.42001292 0.94646667
O 7.87211177 3.09118711 10.99380707 0.42113879 -1.00652170 -0.67023780
O 20.50119873 3.10609507 10.92553523 0.06456406 -0.65511648 -1.07567557
O 8.21534057 1.53276718 0.60649584 -0.59005171 -0.08332293 0.19500310
O 20.85883159 1.50744130 0.63690967 -0.38740399 0.33033901 -0.42735597
O 8.18161831 4.60571702 0.62104854 1.25838635 0.43978357 0.14517481
O 20.76667917 4.62943756 0.73642999 -0.69887501 -0.66236556 -0.68098674
O 6.82399691 1.58673695 6.39916164 -0.26310366 -1.88519632 -1.22276563
O 19.36417445 1.54759250 6.39648776 -0.62226588 -0.44465751 -1.06591308
O 6.72309766 4.75607136 6.41187254 -0.15467897 1.27424336 -0.70001957
O 19.37910369 4.69108518 6.34910971 0.68916916 -0.80767971 -0.30636090
O 2.95925816 1.61473057 5.12675328 1.04409719 1.02814979 0.11782433
O 15.60308419 1.57315721 5.14810264 -0.13578045 2.05237933 -1.69223920
O 2.98479207 4.76943956 5.12186567 0.95098912 -0.50068577 -1.56286616
O 15.56887368 4.69101004 5.08666074 1.11914759 -0.57369653 0.35446629
O 1.62450914 1.54333760 10.93350153 -0.57411379 0.87152959 0.07662697
O 14.20694824 1.55119795 10.96461417 1.18395598 -0.31856020 -0.48867872
O 1.61578836 4.69550078 10.86992212 -1.50112284 1.02660460 0.29914467
O 14.18200021 4.68564090 10.99745338 -0.14971211 -0.32103683 0.41448681
O 1.33575051 6.21729119 3.31179962 -0.14194786 0.14928534 -0.26777128
O 13.96029121 -0.02469929 3.33161203 1.78841888 -0.01782459 -0.39426916
O 1.40771068 3.15007482 3.30164458 -1.31201242 0.95069174 0.61221235
O 14.02806974 3.11526856 3.29634728 0.41217275 0.93290748 0.98681060
O -0.04360746 0.07136301 9.03327067 -0.63838376 -0.90868556 -1.28279642
O 12.64431086 0.02286541 9.01799487 1.36215478 0.00097401 1.28452993
O 0.00897764 3.13480060 8.96438182 0.35803569 -0.64607679 2.22858406
O 12.59715688 3.06681876 9.05923816 0.16469883 0.40027836 -0.48026559
O 9.80159596 6.26393021 2.48081110 0.31385821 -0.77691022 -1.67964324
O 22.34329603 6.19676706 2.60355281 -0.72550172 0.10460874 0.02156555
O 9.92705195 3.19669940 2.44170725 -0.97954528 -0.52012612 0.50586057
O 22.35645669 3.07625654 2.54030518 -1.21652907 -0.92817292 0.51754051
O 8.48231204 0.03804242 8.30528986 -0.39563759 0.28682345 0.22540015
O 20.96372829 6.22409107 8.29149852 -0.68140154 0.12506480 0.52501055
O 8.43444693 3.11782906 8.32053454 0.01148064 0.50721055 -0.11136029
O 21.01279257 3.13296678 8.27226629 -1.16960353 -0.29822890 0.15720217
O 7.70627582 1.56383637 3.22206342 -0.30934111 0.31103431 1.10137766
O 20.35065158 1.61480270 3.27197320 0.17596042 -0.08792133 0.61901044
O 7.69837389 4.70287777 3.26364087 1.29884066 0.10496126 0.45404815
O 20.35553519 4.70513654 3.29174011 -1.47929779 0.90941879 -0.01286490
O 6.35673367 1.62943284 9.03134061 -0.87768641 1.20820649 -0.91897917
O 18.94743750 1.51821480 9.03928387 2.06600209 -0.55506726 -0.05406800
O 6.33554208 4.73965472 9.01021623 -0.30021791 -0.90708365 -1.08778960
O 18.90082298 4.68150749 9.03455315 1.06654127 0.99302646 -0.01779118
O 3.44875514 1.58509239 2.46155099 -0.20327273 -0.83043918 2.26716143
O 16.15355201 1.59908285 2.50769510 -0.79301714 1.07874606 0.01088034
O 3.45043117 4.67256406 2.50524818 0.97596774 0.85019058 1.15233204
O 16.09770159 4.68133702 2.47661906 0.11944512 1.47383755 -1.03116733
O 2.15559723 1.53818241 8.32858574 -0.42771992 -0.67001845 -0.33995039
O 14.65479317 1.56643561 8.31714987 -0.13261275 0.13652677 -1.03261524
O 2.09797748 4.67432285 8.26812187 0.03279310 0.13349207 -1.46966985
O 14.67926310 4.65164893 8.30907099 0.44150735 0.96183978 -0.60278512
O 12.26759642 1.56701675 1.50813610 -2.18568030 0.82140153 -0.76464551
O 24.84303610 1.54866016 1.41521533 0.78015627 -0.22951885 0.41799300
O 12.20015696 4.70418754 1.56618296 0.82934314 0.66466168 -0.85181032
O 24.77578686 4.72688411 1.48018330 1.32673089 0.27731182 -0.37056402
O 10.77428648 1.52038207 7.22773077 -0.05184259 -0.95266951 1.43904504
O 23.42342871 1.60939281 7.16227134 -0.95881053 -0.45823261 -0.93057859
O 10.81428221 4.65623957 7.25746371 0.53467051 -0.31861523 0.13430986
O 23.41859368 4.75486222 7.23802687 -0.38850870 -0.90124739 0.64453665
O -1.00140404 1.50085078 4.31328508 0.82730581 0.40170526 0.47833034
O 11.59138451 1.62013658 4.32404240 -1.09588186 0.38330794 0.08366029
O -1.01194250 4.67623008 4.30384192 -1.24399676 -1.61122953 -0.02913510
O 11.63728453 4.63606835 4.29053922 0.62094735 0.21198052 0.56563861
O -2.40053380 1.56137598 10.12197099 0.29265912 -0.74709112 -0.15260097
O 10.14821406 1.60384628 10.08812568 0.57888168 -1.10990811 -0.21555536
O -2.42020812 4.70999686 10.06033866 -0.94438602 0.74399213 0.19256433
O 10.12877667 4.54883671 10.02111134 0.22785001 1.03349722 -0.18614518
O 5.87589099 6.24917076 1.51203945 0.27636058 -0.24921666 -2.06532121
O 18.50245392 -0.05265230 1.47739662 -0.33778832 0.51263651 -0.68245853
O 5.87882535 3.19691832 1.50053102 -0.20620214 0.41578350 -0.92492058
O 18.43487795 3.11161902 1.49871455 0.75270073 0.24749494 -0.73989330
O 4.49843084 6.17098057 7.30246005 2.13856052 -0.10719878 -0.42168437
O 17.10972199 -0.00479345 7.23233237 -0.01137552 0.15403762 1.15200649
O 4.52363285 3.04757528 7.19671235 -0.27290048 -0.13964083 -0.55661611
O 17.07515472 3.12650092 7.20833458 0.00896874 0.27034109 -1.42224257
O 5.28862539 6.22789999 4.31763302 -0.53304848 -0.69279080 -0.24724789
O 17.90063611 -0.00387421 4.27814095 1.19311602 0.23342338 1.51914550
O 5.36059930 3.15771963 4.32385200 0.30956349 -0.43539185 0.87948049
O 17.88689775 3.10237171 4.31642966 0.60272002 1.90092303 -0.57732782
O 3.87566264 6.20014557 10.08992178 -0.33036846 -0.04916843 0.30934418
O 16.46240002 -0.00405872 10.12135554 -0.22588467 0.09980330 0.43893032
O 3.90736038 3.07849326 10.09636893 1.08408556 -0.60116274 0.69115561
O 16.48251453 3.15959342 10.09357182 -0.75658945 -0.13989475 0.11916451
159
Lattice="24.970594 0.000000 0.000000 0.000000 6.182378 0.000000 -2.785515 0.000000 11.446337" Properties=species:S:1:pos:R:3:force:R:3 Energy=-626.672413 Virial="-55.380530 -1.810948 -0.667777 -1.810948 -47.614302 -5.044561 -0.667777 -5.044561 -37.143640" pbc="T T T" defect_vacancy
Ga 12.53196604 6.12271918 4.59712582 0.69249989 -0.57732207 -0.90440927
Ga 0.00148912 3.12478064 4.53624485 1.22337914 -0.30598887 0.42708664
Ga 12.52130742 3.11970584 4.54042530 0.31248285 -0.13793843 -0.33650747
Ga -1.27060589 6.15443868 10.26034821 0.82871114 0.61151709 -1.06515387
Ga 11.13727157 6.14840603 10.25903312 -0.43389704 -0.60198206 -0.31561714
Ga -1.35976464 3.15883734 10.23997117 2.26558716 -0.48558459 0.50603340
Ga 11.10637933 3.13456178 10.26373845 -0.83335339 0.68390222 -1.53302517
Ga 11.01685956 0.00141227 1.18880697 -0.55843388 -0.64116067 0.47613100
Ga 23.57115243 -0.02985603 1.27185764 -1.40303818 0.68386722 0.34476938
Ga 11.09005827 3.08251888 1.17646171 -1.88912420 -1.32358349 -1.06945668
Ga 23.55370235 3.09307782 1.10832417 -0.86629438 1.16181019 1.61221821
Ga 9.68271129 6.18123903 6.86209202 0.60116185 2.12554683 -0.64286920
Ga 22.19665680 0.05816367 6.91718473 0.57733922 0.51825297 0.37408647
Ga 9.62811680 3.06671613 6.92568933 0.47635729 -0.03716769 -0.79584975
Ga 22.17469984 3.05445410 6.87783680 0.28388028 0.45888105 0.73317704
Ga 6.27883559 1.58164008 4.52954578 0.03597645 0.38311728 0.97984721
Ga 18.71597707 1.57478676 4.58460212 0.20758078 0.55429257 -0.26032974
Ga 6.21258945 4.52462338 4.52210439 0.17511813 0.81124209 -0.08965151
Ga 18.74286649 4.57920834 4.55075891 0.59363844 -0.27672365 -0.53832637
Ga 4.89179315 1.61284190 10.24545549 -0.10957832 0.09548316 -0.49173361
Ga 17.32666609 1.56796887 10.27491757 0.41514744 -0.25132605 0.74316948
Ga 4.86309503 4.63404547 10.18236748 1.00233949 -0.62429813 -0.64877231
Ga 17.27434365 4.66747292 10.25360578 0.12537986 0.60625075 0.38299766
Ga 4.78819657 1.47527782 1.14012375 0.63243046 0.13754513 -0.21145882
Ga 17.32927360 1.57568172 1.09634741 -1.35569818 0.53838097 1.80262863
Ga 4.80283723 4.66300687 1.20780638 0.49352491 0.08240399 0.21108009
Ga 17.30195178 4.59800523 1.17868413 0.02319496 -0.14244102 -0.30733898
Ga 3.39572951 1.54995193 6.94227176 0.35320837 -0.12331665 -1.75066802
Ga 15.97452099 1.49588489 6.88965927 1.17369102 0.53854878 -1.17038315
Ga 3.49996747 4.67232458 6.84630718 1.62807716 -2.40555783 0.46432506
Ga 15.94464894 4.62521922 6.86509451 -1.32872150 0.94070777 1.71417092
Ga 1.59993446 1.61733209 1.73274529 -0.79165654 -0.49137967 1.46464473
Ga 14.06528903 1.63448786 1.83128362 0.84273167 -0.64305507 0.89630995
Ga 1.47481747 4.65174607 1.78564140 0.71165606 -0.22340219 -0.15381364
Ga 13.96172717 4.62843164 1.75554277 0.32161606 0.65138044 -1.14866233
Ga 0.15826492 1.56000555 7.47530693 -0.41465826 -0.52521698 1.83543318
Ga 12.65187273 1.51801925 7.50235236 -0.11313290 -0.99686873 -0.57755311
Ga 0.20121933 4.55265550 7.52287783 -1.02397678 -0.96605334 -0.00523142
Ga 12.58692393 4.60671483 7.53781412 0.84011119 -0.60930478 0.08570704
Ga 9.55797463 1.51088295 3.86970502 0.23623627 0.31465956 -0.20255092
Ga 22.03298927 1.60652230 3.89433787 0.00166550 0.92645919 1.20210807
Ga 9.57867379 4.62676810 3.90296517 0.24897278 -1.08597699 0.89662741
Ga 22.04271092 4.62322944 3.93884971 -0.20661619 0.88499555 -1.04303667
Ga 8.09414124 1.49519658 9.66144051 -1.18533086 -0.43705526 -0.64991656
Ga 20.65355697 1.52531309 9.65840464 -0.66002531 1.60970230 0.25285430
Ga 8.19318690 4.56712595 9.65840303 -0.01123162 0.74672795 1.40512483
Ga 20.62440774 4.61809020 9.73154680 0.94233139 0.80285328 -0.16659516
Ga 7.77196186 0.03834006 1.79328734 1.99321397 -0.02230742 -0.87310809
Ga 20.24656850 -0.03437021 1.81600604 0.31238834 0.16554303 -0.85693738
Ga 7.77485420 3.15831765 1.79179601 0.36091836 0.27330855 -0.43982174
Ga 20.22269171 3.12285755 1.79297178 0.39837669 0.30350956 -0.34472114
Ga 6.39650011 0.01090415 7.44151206 0.34951936 0.76301270 -1.39547094
Ga 18.94664249 0.03824845 7.51774678 0.66110159 -0.23275789 -0.69686135
Ga 6.42526533 3.06675369 7.55966946 0.02422181 -0.72535927 -0.16763458
Ga 18.87522413 3.04429561 7.49133349 0.75973127 -1.16520782 -1.90924850
Ga 3.29346158 -0.03912182 3.99177256 1.06301717 0.33464128 0.26869109
Ga 15.84299775 6.13729777 3.88986495 1.73950344 -0.59289698 -0.44430191
Ga 3.28304847 3.08037798 3.83948172 -0.24251534 -0.01285219 -0.13965711
Ga 15.78536530 3.14217016 3.92561379 -0.09922075 -0.59129639 1.35472556
Ga 1.85844205 -0.06045922 9.71633081 0.25052554 -0.05600896 0.90694848
Ga 14.43438241 6.19517905 9.72269839 -1.10356231 0.88371410 -0.98116870
Ga 1.92362612 3.14066776 9.70568515 0.25326643 -0.64734778 0.56673668
Ga 14.41682657 3.12164290 9.64847274 -0.82387129 0.42786052 -0.39054478
O 1.87346613 6.16270216 0.61554175 0.77311199 -0.40553704 -0.73052118
O 14.36460884 6.16816057 0.60448419 0.98239333 -1.11404081 0.22432282
O 1.88957307 3.15364986 0.54300575 0.36081699 0.01765416 0.56908097
O 14.33361238 3.12751570 0.67503588 0.02034833 0.17028307 0.51807709
O 0.47887696 -0.02332705 6.26608069 0.36270891 0.26839440 0.67287548
O 12.88611539 6.17727342 6.38960824 -0.94677020 -0.75799283 -0.04465222
O 0.46257353 3.09786419 6.35931344 1.05223146 -0.43933975 -0.03792823
O 12.97165233 3.12010072 6.36002987 0.84282628 1.17757260 0.60754957
O 9.31769460 -0.06079258 5.10296985 0.67216900 0.62024553 -1.22933893
O 21.66686544 0.02947603 5.09051814 -0.34684694 0.35455880 -0.95013578
O 9.18476663 3.11338530 5.13498877 -1.41490092 -1.15877218 0.84747911
O 21.70309371 3.10351792 5.05043144 -0.94752647 0.71456587 1.40358147
O 7.80709756 6.08223633 10.83894318 -1.09995916 -0.06704258 -0.65641478
O 20.27001781 6.11314665 10.80401757 -0.47699208 -0.54209562 -1.44202302
O 7.77782399 3.08003270 10.84451550 0.31556425 -0.68209365 0.23417242
O 20.32652139 3.10130339 10.84993716 -0.01638854 -0.26645929 -0.32577158
O 8.11774531 1.54071719 0.63658099 -0.14678195 -0.25175093 0.49414394
O 20.64504019 1.54263826 0.67350861 0.36269249 0.37134836 0.33455251
O 8.15266830 4.58972274 0.56402819 0.53531419 1.01854765 1.15517551
O 20.58130134 4.62094098 0.63695708 0.50928849 0.85812927 -0.67968961
O 6.80375722 1.45843713 6.31974958 -0.10406090 0.67534987 -0.69573009
O 19.28918602 1.45877776 6.39059358 0.31004747 0.53298617 -0.64458590
O 6.74267189 4.60992887 6.41294471 -1.18575090 -0.23410379 -1.56176679
O 19.21238913 4.67025196 6.33475606 0.14007258 -0.31730139 -1.13734358
O 2.95039931 1.49409355 5.06278168 -0.97656900 1.94040384 -0.76909731
O 15.47791097 1.56217639 5.09835232 -0.00281097 0.48096141 0.26338300
O 2.95711665 4.63316620 5.11331130 0.28584151 -0.11344475 0.37025324
O 15.42977502 4.63906813 5.10925426 -0.16465188 0.27790181 0.79159970
O 1.55627036 1.53170220 10.85108595 0.09200792 -0.26067645 -1.08224333
O 14.01845955 1.58206031 10.86687713 -0.42691042 -0.05360226 0.17638353
O 1.52571456 4.68788059 10.84207837 -0.93219177 -0.07995392 -0.91937382
O 14.03770154 4.64504716 10.87989750 -0.88585332 0.08653090 0.47043766
O 1.42508225 6.14195392 3.20231756 -0.38646100 -0.30668996 0.23576094
O 13.82178406 0.09864656 3.33742257 0.20054621 2.15642148 0.88580952
O 1.35337072 3.12800970 3.25935707 -1.17911106 2.03746676 -0.63592179
O 13.91265131 3.13735350 3.23583787 -1.12251678 -1.21604603 0.16630532
O -0.07109024 -0.00729741 8.99292278 -1.09996644 -0.47610904 0.84431626
O 12.48050072 0.03664505 8.96102578 -0.86620023 -1.10182541 0.17025740
O -0.06643684 3.11237591 8.96033029 -0.63489080 0.28438117 0.33791501
O 12.48349977 3.06534163 8.90175660 0.01003555 0.92704386 -0.78674826
O 9.76077652 6.20650533 2.47774538 -1.80414294 -0.87021582 0.36553851
O 22.12056345 6.21435747 2.47333714 0.96569104 -1.23937374 0.88440280
O 9.65655940 3.12262337 2.46234169 -0.59043272 -0.56575615 1.24233954
O 22.25460072 3.11259985 2.44403304 0.87929747 0.17263180 1.00360089
O 8.29446893 -0.00534313 8.27864632 -2.17896153 0.33224225 0.30896710
O 20.77873777 6.22896633 8.20817366 0.60171692 -0.45520099 0.71487100
O 8.30624763 2.98149601 8.21753114 -0.82695258 -0.79914900 1.37421103
O 20.76215852 3.14854392 8.31784774 -0.09426226 -0.93977350 -0.88790581
O 7.67207266 1.58857631 3.23898039 1.20340838 1.34920852 0.74793968
O 20.11404734 1.56161687 3.19388870 -0.17888833 0.07865829 0.11813642
O 7.61500501 4.61129691 3.18203770 -0.34197189 0.30597968 -0.46914757
O 20.13656996 4.68106687 3.21022213 0.69253413 0.33199105 -0.60890787
O 6.20582076 1.58898758 8.93149691 -0.90777936 0.60230711 1.58317068
O 18.69880322 1.56472240 8.99936940 -0.28810565 1.39846022 2.06601881
O 6.28373275 4.61845444 8.95906789 -0.75095253 -0.76293716 0.51445879
O 18.69921327 4.62432655 9.00895312 0.28186982 -1.09823754 0.82796513
O 3.46675979 1.52533903 2.45436203 0.28919191 0.73526247 0.38833598
O 15.95302603 1.54175054 2.47960676 -2.16272256 0.22766905 0.78004756
O 3.44909501 4.65094774 2.46627982 -1.02727310 -0.59669985 0.41807243
O 15.90399245 4.66042950 2.44979276 -0.54403700 -0.40530413 0.05349542
O 2.03384683 1.57266897 8.27549263 1.01951019 -0.53255518 0.98314029
O 14.44047800 1.59012369 8.22892125 -0.32222444 -0.61997898 0.58572291
O 2.04888269 4.58152694 8.17936418 -0.15913664 -0.88690742 -0.01333568
O 14.54562926 4.66923002 8.17366816 -2.16442095 -0.97240070 0.09820510
O 12.06222668 1.53341246 1.50309673 -0.42090243 0.34169529 1.42224270
O 24.48079767 1.55382716 1.47911716 -1.16394306 -0.72891170 -1.47158302
O 12.13787498 4.62528074 1.42618741 -0.86177367 0.64183894 -0.59409507
O 24.53753507 4.58974090 1.40140549 -0.89985684 -0.51319872 0.75849796
O 10.64180672 1.39872063 7.20510068 -0.17322528 -0.13557315 -0.72037382
O 23.14497378 1.57045384 7.22195686 0.85708240 -0.13179780 -0.60984681
O 10.67514826 4.59917806 7.24126422 2.09271250 -0.93592248 -0.49530170
O 23.11262792 4.61143874 7.17723849 0.51761593 0.85765081 -0.48845042
O -1.00135832 1.50599475 4.22796001 1.08379233 0.93346776 0.58991191
O 11.52176732 1.57974124 4.25470723 -0.54667805 0.30680517 -1.18523242
O -0.99949614 4.66771732 4.26009542 0.61830019 -0.41898358 0.33809302
O 11.54673717 4.65471645 4.26966153 -0.49856744 -0.86686388 -1.46858142
O -2.36864553 1.54299308 10.00541139 -1.07910126 -0.26455193 0.65640341
O 10.11502487 1.58481631 10.04801196 -0.29050470 -0.47560113 -0.48389607
O -2.39611297 4.61649008 9.97320957 1.30400375 0.32440683 -0.30005065
O 10.11578559 4.69648052 10.02874759 0.91984377 -0.56113776 -1.62632029
O 5.83122238 6.17178386 1.51649808 0.67297505 0.68816515 -1.26656042
O 18.25097772 -0.01539546 1.46005020 -0.07712810 -1.15747360 -0.39512537
O 5.75224987 3.15532076 1.43957774 -1.05744443 0.30460797 -0.18905926
O 18.36663154 3.08987192 1.45920276 1.18376135 1.04230741 -0.00785932
O 4.42570708 6.13465654 7.18976469 -0.12207781 1.00640962 0.00089214
O 16.93039386 0.03413004 7.17124337 -0.02119055 -0.66077661 -0.00987137
O 4.46127720 3.05782455 7.13960104 -1.07182526 0.57561433 -0.06126684
O 16.94456764 3.15309800 7.21945571 0.56701907 -0.58837455 -0.06673749
O 5.22350897 6.17883380 4.28045366 0.36003978 -0.10335276 -0.26828435
O 17.70712249 0.01580927 4.19406406 1.47803959 -0.16974722 -1.15203708
O 5.16167257 3.06960240 4.26560795 -0.61141409 -0.59377139 0.10682569
O 17.79986379 3.01556224 4.27705547 -0.35497531 0.53040059 0.97712179
O 3.84452148 6.17439355 9.96021494 0.62309561 0.70140428 -0.69652467
O 16.30067893 -0.03487535 9.96381323 0.09425486 -0.44117357 0.85640156
O 3.84346769 3.12918965 9.96891576 0.19271650 -0.08796470 1.33621199
O 16.37699332 3.14929046 9.90717055 -0.29619954 -0.92933994 -0.62061582
159
Lattice="24.807427 0.000000 0.000000 0.000000 6.141980 0.000000 -2.767313 0.000000 11.371542" Properties=species:S:1:pos:R:3:force:R:3 Energy=-627.646165 Virial="-56.085152 -0.991914 -3.011812 -0.991914 -44.206326 -5.714075 -3.011812 -5.714075 -41.263933" pbc="T T T" defect_vacancy
Ga 12.48225465 6.16793810 4.48870125 0.39218278 0.61375350 0.50429716
Ga 0.01896038 3.06504679 4.46124765 -0.20822054 -0.15291747 -0.23691658
Ga 12.48137655 3.05590445 4.64097657 1.14724409 0.72643932 -0.14888880
Ga -1.36379162 6.18752013 10.20569061 -0.77921857 -1.19800222 -0.63815304
Ga 11.04600424 6.12355998 10.13865300 -0.00907688 -1.33945811 0.26018159
Ga -1.30309231 3.04350203 10.26122424 0.58135175 0.02308739 0.69942915
Ga 11.10873517 3.03993377 10.17218591 -0.15991393 -0.01422128 -0.32849778
Ga 10.98506202 -0.07353105 1.17799712 1.20341809 -0.86744929 1.96765436
Ga 23.45936358 -0.03160835 1.18526880 0.01563374 0.10981441 -0.55187317
Ga 10.99713933 3.05891130 1.17191811 -0.42084205 0.66962188 1.55156036
Ga 23.42362396 3.04284924 1.16353356 -1.28383776 -0.60516960 0.69687524
Ga 9.59737192 6.14699609 6.81559122 0.45675532 0.17411314 -0.73596366
Ga 22.06422731 -0.01191647 6.80273151 0.16436921 -0.17259535 1.50568651
Ga 9.61267748 3.06740462 6.83366666 0.25692956 -0.30287537 0.23630019
Ga 21.96181343 3.06663586 6.86099059 0.12460541 0.56345242 0.07107734
Ga 6.23223650 1.57694243 4.54091664 -0.81216669 -1.62319925 0.88728143
Ga 18.63686034 1.55688783 4.49654511 -0.06745270 -0.40906712 -0.49936989
Ga 6.25097169 4.60261918 4.51240318 -1.25772981 0.12049617 0.38993131
Ga 18.57019214 4.62452173 4.53167291 0.53074890 -1.21980006 -0.15258878
Ga 4.86199616 1.47160343 10.23883472 0.07873018 0.32952436 0.21610534
Ga 17.23349541 1.49386393 10.18155524 -1.04125055 -0.21791608 -1.55063671
Ga 4.80396930 4.62356781 10.19155942 0.38484174 -0.54060630 -0.62351593
Ga 17.23607512 4.58571625 10.19903332 -0.16480799 1.02754465 0.30993014
Ga 4.75914685 1.45285749 1.27259748 0.34500567 0.08337726 0.79330921
Ga 17.20037758 1.65738555 1.16300052 -0.18708991 1.75338441 0.28323135
Ga 4.80099859 4.59302991 1.19060939 0.55247015 1.00553351 -0.05602776
Ga 17.20665190 4.55504213 1.12749496 -0.67669775 -0.21313844 -0.85490936
Ga 3.37153650 1.54275295 6.85614887 -0.28423310 -0.03851602 -0.17534552
Ga 15.83451863 1.50280339 6.80764184 -0.92590885 -0.74350728 0.00376836
Ga 3.46232806 4.61270144 6.87910996 0.10469474 -1.09918384 -0.03016377
Ga 15.85930070 4.52864085 6.85197263 -0.35550900 0.70122331 -0.97620381
Ga 1.57424628 1.48916411 1.73738976 1.70195440 1.37574057 0.30657958
Ga 13.89098101 1.47173073 1.80759219 0.13358547 -0.84108807 -0.88773274
Ga 1.54070962 4.55736120 1.71042400 0.65426254 -0.54984963 -1.48037760
Ga 13.89996215 4.64177866 1.73736300 0.61235149 0.15217128 0.53115242
Ga 0.07527225 1.52384313 7.41957087 1.02544609 1.40619796 -1.79601210
Ga 12.61445411 1.53771684 7.45164242 -1.14003049 -0.49815680 -0.12282697
Ga 0.12989329 4.57751352 7.44391880 -1.58127058 -0.66466992 -0.03485759
Ga 12.64398525 4.64313066 7.45805717 -0.90147702 -0.00035581 0.84515452
Ga 9.49120694 1.50486199 3.93586315 0.43777070 0.73565196 -0.14518233
Ga 21.75618609 1.50834631 3.85221017 -0.25511068 -0.25477009 -0.52337753
Ga 9.51938495 4.60058150 3.81835015 0.21350718 0.91238890 -0.53581957
Ga 21.88341025 4.60036338 3.95641823 0.24238165 1.24180235 0.52636796
Ga 8.10322554 1.52141274 9.57727424 -0.37610483 -0.43429543 0.33347086
Ga 20.40502564 1.49871163 9.49322815 0.14386827 -0.08732215 0.76690538
Ga 8.17387355 4.57717814 9.60279734 -0.87908483 0.67987742 1.20682253
Ga 20.46059936 4.58402339 9.56469842 1.62309074 0.70056576 1.11618363
Ga 7.74193597 -0.01235531 1.74752425 0.47952463 0.49788580 -0.02641341
Ga 20.04749163 0.08543608 1.75868563 1.78910934 -0.13945461 -1.09682301
Ga 7.70800364 3.03812058 1.83368937 2.11675072 0.39036757 0.10947201
Ga 20.09232704 3.04371149 1.78344090 0.08184925 0.95047098 0.14838153
Ga 6.39162660 -0.00966167 7.46004328 -0.64098730 0.80435271 -0.94239113
Ga 18.73786655 -0.02652594 7.53421304 0.71930796 1.05005899 -1.15185803
Ga 6.31082663 3.07906662 7.44757194 0.32630032 0.57688509 -0.08223921
Ga 18.76490983 3.06276495 7.46684093 -0.41331562 0.89496162 0.46714271
Ga 3.28355023 -0.05106855 3.89227892 0.81010240 -0.27454694 0.21113013
Ga 15.60735580 6.13553446 3.87252538 -0.56958260 -0.74926244 -0.92237624
Ga 3.26567309 3.06541286 3.89945699 0.66057244 -1.10493570 0.52023457
Ga 15.59113758 3.04563544 3.89617269 -0.41815423 0.56714448 1.01018235
Ga 1.95557912 0.09630065 9.65280301 0.48332245 0.60790908 -0.31242876
Ga 14.26814624 6.15283068 9.62664271 -0.06256857 0.07171361 0.89696540
Ga 1.92518043 3.05585887 9.58359425 -0.02862034 0.10721233 0.08461323
Ga 14.31542236 3.04172333 9.58815376 -1.06738238 -0.07087303 -0.55897024
O 1.81596008 6.23052605 0.60014810 -0.26044215 0.33289904 0.01215311
O 14.29934090 6.13972949 0.61087111 0.07105178 0.41017504 -0.22749692
O 1.90266091 3.12652524 0.61344397 0.63522453 -1.25287236 0.87376254
O 14.29112603 3.08907945 0.56957224 -0.56417868 -0.52349181 1.51094680
O 0.48114784 -0.00620543 6.33115833 0.91441035 -0.50377901 1.33085098
O 12.90152851 6.14023204 6.31040251 -1.50664530 -0.51538292 1.59565142
O 0.50169329 3.04384742 6.36113443 -1.06854756 0.67472973 -0.01030381
O 12.90396180 3.14019675 6.29187899 0.77726514 -0.57616076 -0.22767269
O 9.12745408 -0.08344612 5.16259295 -1.19557770 -0.64602705 -0.45780464
O 21.57631838 0.03163201 5.13331509 0.39582403 0.52105154 -0.40155320
O 9.15180563 3.04624453 5.11269642 0.57542332 -0.73625908 0.03975016
O 21.54145330 2.99668032 5.12844579 0.66294955 -0.69930060 -1.25569176
O 7.72378231 6.10786027 10.79242254 -0.53581630 0.19808438 0.44086272
O 20.09135143 6.13536713 10.75492775 -0.00728982 0.62110814 -1.59713567
O 7.81261797 3.09146779 10.78085788 -0.62816357 -0.23429667 -0.27616284
O 20.21036118 3.11392200 10.73142048 -0.08300462 -0.33558357 1.04396576
O 8.02635608 1.49078323 0.63846171 0.38768290 -0.14023744 -0.42795280
O 20.46982470 1.51652392 0.66133908 -0.31984878 -0.46876054 0.01081174
O 8.10274600 4.67184810 0.62446218 -0.00971584 -0.03896520 0.99658453
O 20.49511219 4.58969797 0.53701611 -0.92541082 0.39771655 0.09326677
O 6.66954063 1.50875344 6.24252587 -0.74036287 0.44603031 0.60525433
O 19.10224730 1.56536878 6.28730204 0.87406559 0.56414356 -1.82540670
O 6.70475633 4.58489671 6.30455405 0.72560046 0.32099871 -0.07040100
O 19.07185891 4.62167980 6.32311241 -0.51905652 0.40134232 0.96045576
O 3.01634841 1.50496572 5.05502527 -2.74194731 -0.39015261 -0.54874821
O 15.39457062 1.52980134 5.09115314 -0.16194692 -2.07194299 0.69656666
O 2.93714981 4.61819558 5.09142813 -0.67993774 0.55194083 -0.84681901
O 15.40252068 4.56470032 5.07389053 -0.57143941 -0.14575889 -1.79842643
O 1.55216510 1.46047773 10.72528703 -0.52414776 -0.11481935 0.13998735
O 13.93391022 1.55640798 10.71491431 0.62260608 0.20494942 -0.32856144
O 1.56753801 4.59919134 10.77833732 1.07756279 0.92495220 0.00552855
O 13.94555469 4.55446906 10.78695054 -0.32206921 -1.10857412 0.70310365
O 1.34717060 6.18506738 3.21450814 0.44913089 0.69926785 -0.71999012
O 13.77255162 0.02592459 3.23721451 -0.46880043 -0.15922587 0.55451151
O 1.36736344 3.04760984 3.21762926 -1.05579766 0.43827078 0.04998065
O 13.72269524 3.10017300 3.17337142 0.16011362 -0.33249619 -1.00008880
O -0.03008413 -0.01393840 8.92207915 -0.56772737 0.47323298 0.63165993
O 12.39282183 0.02923131 8.91323083 0.00828074 1.17364572 -1.38863335
O -0.04281648 3.04629614 8.87695897 -0.86585995 -0.03877283 -0.29323093
O 12.42394691 3.08743319 8.91705047 0.94146030 -0.67562566 0.30959267
O 9.63714140 6.16748250 2.48172164 -0.58548793 -1.63035651 -0.08208873
O 22.00660436 6.12761548 2.51414939 -0.16455811 -0.54924758 -1.21197066
O 9.70627187 2.99668755 2.47316587 -0.44096785 -1.20654453 -0.57754256
O 21.98219923 3.03809055 2.48717962 -0.82501825 0.15085471 -0.44596773
O 8.26580027 -0.03069561 8.14493792 -0.27302638 -0.78654155 0.06639826
O 20.69574244 6.13709246 8.15285397 -0.82960371 0.01968363 0.29076549
O 8.30307029 3.11772800 8.15380938 -0.06331126 -0.01719349 -0.26130223
O 20.68410218 3.06780606 8.15687064 -0.12336533 0.06661246 -1.21670083
O 7.50725732 1.51939025 3.20651995 0.65561426 0.06290854 -0.75068340
O 19.93941316 1.51335533 3.14761611 0.15382920 0.14806292 -0.24031850
O 7.60284953 4.65214466 3.16287555 0.56569741 0.31081676 1.25583292
O 19.91574097 4.64591377 3.22492051 0.97210331 -1.68897132 2.24168680
O 6.20286276 1.58102967 8.89590714 -0.74678248 -0.14953175 -0.78517420
O 18.65082149 1.59465768 8.97643961 0.29576341 -0.45071354 0.37094226
O 6.28198406 4.57364111 8.93577174 -0.17469509 -0.63478520 -0.00691828
O 18.60153742 4.52869653 8.91170642 -0.98286045 -0.53045218 -0.55027932
O 3.41182028 1.53951896 2.42599571 -0.90787172 0.28806666 -0.79401447
O 15.89779363 1.48406972 2.46245634 0.10403320 0.47765485 1.29259030
O 3.48976018 4.60870016 2.55666433 0.74960347 0.14554949 0.82836854
O 15.87919913 4.64545505 2.43114636 -0.44364706 -0.28241889 0.07142488
O 2.06914010 1.61146889 8.11255828 -1.14598768 -0.84618516 0.27011023
O 14.45145066 1.53451724 8.17489772 -0.59209510 1.04908528 -0.32149625
O 2.08892646 4.61357981 8.23390977 0.54583844 1.33740207 -0.16792555
O 14.36189510 4.49499340 8.15061097 -0.56482735 -0.90670404 -0.14480638
O 12.04672307 1.52110222 1.44327522 1.33002691 -0.76807373 0.17623738
O 24.31969463 1.52894263 1.44197333 -0.09096748 0.35015073 0.51196421
O 11.99447824 4.58823823 1.48920337 -1.37602876 0.48210073 0.14960101
O 24.39326212 4.57250814 1.44652372 -0.97606200 -0.01325130 0.29568995
O 10.61327921 1.48772449 7.14791533 1.19812083 -0.73572145 -0.47409423
O 22.96866475 1.56115740 7.13172127 1.57086216 -1.19181571 -0.26146709
O 10.57241895 4.71383300 7.16234454 -1.01002239 1.18847506 -0.19898278
O 23.06293375 4.59887162 7.20084742 1.57866748 -0.44483090 0.30649519
O -0.95184775 1.52736107 4.26462604 0.51807800 0.73194512 1.00410560
O 11.47722286 1.51506809 4.23882042 1.43856407 -0.44006239 -0.58025341
O -0.90071669 4.61877943 4.26388859 -1.38321346 0.30058928 -0.52621103
O 11.45359136 4.65021824 4.26641231 -1.48594595 0.20620723 0.05392292
O -2.47035191 1.50646547 9.89361247 0.59126768 0.94226897 1.55222159
O 10.05067592 1.50492049 9.90510687 0.53339544 0.15109205 -0.11921564
O -2.41144758 4.52076872 10.01892238 1.58090491 -0.08974240 -0.23365072
O 10.01789189 4.66083639 9.94163984 2.09458052 0.12444066 -0.67404733
O 5.78494682 6.20161646 1.42819682 0.93233442 -0.01694729 -0.20965562
O 18.20814745 0.02812231 1.46957689 0.22544395 -0.38486946 1.35101979
O 5.78532382 2.99831867 1.48495679 -0.72540888 -0.49407068 -0.44350822
O 18.23629748 3.05411709 1.48427251 1.02322598 1.04673753 0.49588630
O 4.43433634 6.17853433 7.18263090 0.10739768 0.81145636 -0.21041276
O 16.80477758 0.08534036 7.11062806 -1.60482766 -0.06145587 -1.61407001
O 4.28906531 2.96447264 7.15842741 0.27527431 0.01900330 -0.79286460
O 16.73527086 3.03832202 7.18936219 0.17786953 -1.28938992 0.81487436
O 5.12340101 6.13022982 4.23076749 0.52720181 1.33484491 -0.16439879
O 17.55824762 0.01704242 4.22846632 0.26857357 0.78728273 -0.20224820
O 5.25497378 3.07826193 4.20929515 -0.49699346 0.58861540 -0.25806178
O 17.64054988 3.12278915 4.28256432 0.28945123 0.62948918 -0.58753297
O 3.85957548 6.16844473 9.88788616 0.27864252 -1.09430492 1.49907773
O 16.23514125 0.02298840 9.93119258 -0.19012471 -0.62253260 -1.46982744
O 3.86241092 3.12721504 9.90863533 1.26458382 0.07786511 1.49846421
O 16.17841461 3.03919977 9.91741955 0.34461376 -0.67476207 0.86885819
159
Lattice="24.558609 0.000000 0.000000 0.000000 6.080377 0.000000 -2.739557 0.000000 11.257486" Properties=species:S:1:pos:R:3:force:R:3 Energy=-627.917210 Virial="-56.225020 0.283869 -4.859980 0.283869 -43.283088 -3.991609 -4.859980 -3.991609 -42.652343" pbc="T T T" defect_vacancy
Ga 12.27627286 6.08690841 4.48781691 -0.75953869 0.19853839 0.81118419
Ga 0.05169798 2.98851028 4.57318471 -0.69524932 0.76963851 0.46587154
Ga 12.35663906 3.05063429 4.48534957 0.74523037 -0.08931043 -0.64508334
Ga -1.34351959 6.03710678 10.04707919 -1.71695797 -0.50260764 0.69983068
Ga 10.87653238 6.02706043 10.17487036 0.22087196 2.52256031 -0.03955167
Ga -1.37627940 3.08072313 10.08999660 -0.26666597 -0.49461944 -0.56612108
Ga 10.90892219 3.02535859 10.07986950 -0.42358728 -0.71283834 -0.71855843
Ga 10.96731941 0.00750179 1.20794076 -0.71701104 -0.41109483 -1.80635735
Ga 23.18149444 0.06236928 1.15805401 0.60425628 -0.65244425 -0.50260326
Ga 10.88460120 2.97766347 1.19019059 0.52008010 -0.10129566 0.03661788
Ga 23.23650985 3.07700853 1.13399578 -0.97619574 0.62484578 -0.25350774
Ga 9.55649664 6.03752972 6.74284222 1.74293157 -0.72239957 -0.66846702
Ga 21.77896240 -0.02538443 6.80731391 -0.24310327 1.03966945 0.03314112
Ga 9.55763705 3.02295188 6.84803270 -0.47540543 0.91883466 -0.28057659
Ga 21.78482003 3.08766876 6.77103152 -1.12040264 0.05484165 -0.86647361
Ga 6.15347181 1.52372348 4.50904373 0.14710104 -1.16676749 -1.72818541
Ga 18.42882378 1.45158371 4.50462130 -0.11384415 0.92302439 -0.26214600
Ga 6.15103430 4.62914271 4.42289467 0.57689574 1.52946298 -0.44466329
Ga 18.42501940 4.49617496 4.47692907 -1.17584729 0.30040835 -0.46960818
Ga 4.78788389 1.56777231 10.12704782 0.28710194 -0.58854124 -0.36945708
Ga 17.04733653 1.51791096 10.13700182 -0.12896624 -0.86747526 0.50273108
Ga 4.71774479 4.58578375 10.07794945 -0.66522681 1.31341141 0.10486492
Ga 17.05187107 4.55891071 10.04102266 -0.01515654 1.52065603 0.94956502
Ga 4.69612178 1.54391890 1.13751833 -1.19622545 0.79593767 1.23877756
Ga 17.02486153 1.53293299 1.10460488 0.78006205 1.29205065 0.90549485
Ga 4.72430662 4.52278967 1.06344895 1.44512070 -0.88936399 0.76659430
Ga 17.02236817 4.55621724 1.17722134 0.32376799 -0.21689344 0.36833802
Ga 3.40015246 1.45389677 6.71307084 -0.93502559 -0.10149056 0.22057610
Ga 15.64690974 1.52489089 6.76710605 -0.07766582 0.47464748 -0.30896908
Ga 3.35174995 4.61157780 6.81074102 -0.37757714 -0.44357086 -1.12788759
Ga 15.69122041 4.57882041 6.73714206 1.86770962 -0.65973962 -0.53509796
Ga 1.54412659 1.62468918 1.78974918 0.89981757 0.14053661 0.23238341
Ga 13.79390440 1.45685457 1.73718907 -0.97416854 -0.17225600 -0.89236687
Ga 1.54645807 4.58795993 1.72559646 0.00445035 0.71928019 -0.19957832
Ga 13.81487902 4.51522139 1.80247816 1.50719187 0.39914201 0.05624985
Ga 0.16977085 1.55584338 7.37652755 0.13835579 0.88394314 1.49049945
Ga 12.45339463 1.52471917 7.41179616 -0.68258991 -0.00624272 0.41202514
Ga 0.14957840 4.52467165 7.40604827 1.14392791 -0.38528962 1.29990971
Ga 12.44380960 4.51856111 7.41899492 -0.79463803 0.20733922 0.78071595
Ga 9.41248789 1.49671101 3.87164462 -1.13175589 -1.56242214 -0.61500061
Ga 21.65148937 1.54523690 3.82659417 1.20751072 -0.06687296 0.36133460
Ga 9.44788055 4.61257899 3.88947600 1.52406167 0.81244833 -0.59271048
Ga 21.75424237 4.62016685 3.90423219 -0.44891700 1.39798191 -0.08337213
Ga 8.08210774 1.51180720 9.46592039 -1.36285699 -2.17072849 -0.79199048
Ga 20.33936852 1.52100542 9.52224672 0.24907728 -1.08569384 0.29559550
Ga 7.99039635 4.53332442 9.43172913 0.08545868 -0.71535013 0.06377283
Ga 20.26070701 4.57673173 9.43509071 1.24233199 -0.52799549 -1.02507014
Ga 7.61347069 -0.02860499 1.74934107 -1.79293599 -0.46094049 -0.23665226
Ga 19.94123632 0.08460347 1.80349613 0.07024573 -0.28043345 1.04952028
Ga 7.63264249 3.04158225 1.74832342 0.74797855 0.92572552 1.99367920
Ga 19.96257772 3.06504041 1.74572873 -0.47808457 0.23274115 0.39302335
Ga 6.30478286 0.01922724 7.39546824 -1.36363344 -1.33257793 0.00507115
Ga 18.58021110 0.02546292 7.48060114 0.11305677 0.13142092 -0.76124931
Ga 6.33757163 3.00385820 7.41515293 -2.32482235 1.40996224 -0.47146504
Ga 18.64811340 3.05883225 7.46595638 0.32664600 0.89325774 1.61295738
Ga 3.36191684 -0.03410564 3.86287075 1.05997927 -0.88666328 -0.70513499
Ga 15.53570153 6.02303071 3.91936868 -0.61496541 -0.06787837 1.66635850
Ga 3.26559660 2.97749941 3.87743624 -0.24270259 -1.00636328 -1.02607598
Ga 15.50477988 3.03909941 3.75703486 -0.40895148 -0.41573321 0.33680619
Ga 1.87615388 0.03646596 9.47022503 -1.30965609 -0.87539324 -1.26724666
Ga 14.09286974 6.07675262 9.48705023 -1.00664669 -1.47000098 0.49885606
Ga 1.95129908 3.05320446 9.47516486 0.53006345 -0.44744384 -0.21741680
Ga 14.11591408 3.04100609 9.56594405 1.78210977 -0.21568584 -0.16060953
O 1.86870849 6.10658916 0.51542833 2.08773542 -0.54707963 -1.21473657
O 14.17580464 6.07742007 0.60510550 1.54825031 -0.43967779 0.54434521
O 1.87055243 3.06286070 0.59692440 1.81133971 -0.67845877 -0.86009919
O 14.09959550 2.98669788 0.60355096 1.22734376 -0.40716630 -0.28385262
O 0.52300581 -0.01654195 6.27837889 -0.24589685 -0.57222039 -0.98064285
O 12.70470768 6.02259519 6.21749764 -1.21601404 -0.97285561 -0.10586292
O 0.53024531 2.97990371 6.32170945 0.74129274 1.70299341 0.79758545
O 12.83903631 3.06352452 6.21654977 0.53991118 -0.78549882 0.86669431
O 9.04164462 -0.02481354 4.99333672 0.51012882 -1.48439744 0.13256528
O 21.33159574 -0.07175396 5.02897103 -1.84116953 -0.72679453 -0.99450393
O 9.00978364 3.01000489 4.99576323 -0.26364699 -0.23554416 0.60671315
O 21.34954900 3.08347870 4.97689640 0.41467983 1.54274545 0.78050730
O 7.73849688 6.03147585 10.62479450 0.28640547 0.64967645 0.59476821
O 20.00598182 6.00431676 10.61569040 -0.98416177 1.04271082 -1.13239806
O 7.65549245 3.01888496 10.61719022 0.53584158 -0.12423178 -0.23912686
O 19.90313075 3.04959251 10.65659596 -1.05469770 -0.38611810 0.56372447
O 8.02175541 1.49752126 0.60431559 -0.63260472 -0.56907283 0.38859652
O 20.31238384 1.53491088 0.64919964 0.38183476 -0.32479358 0.30908889
O 8.03290723 4.56527642 0.61177585 -1.60865529 -0.86435919 -0.92081205
O 20.26569074 4.56413085 0.59418225 -1.72595457 0.38428344 0.34248334
O 6.63799550 1.53050794 6.20971237 0.71726971 -0.37722369 -0.50606377
O 18.91960459 1.56286829 6.24332590 0.20011219 0.07248138 0.22599625
O 6.62495467 4.56924565 6.17140195 0.82282463 0.85729195 -1.33934223
O 18.89003712 4.65618347 6.23842977 -0.21534185 0.59332020 0.58870675
O 2.88247863 1.51111147 4.99032007 1.14233668 -0.36521070 -1.24971052
O 15.20239075 1.53530306 5.01769956 -0.09849344 -0.49875583 0.69820584
O 2.96336701 4.50785854 5.02996375 0.69130060 0.09145283 1.30611515
O 15.23819290 4.53811115 5.03613021 0.64414164 0.08667955 0.81316424
O 1.53307312 1.46714014 10.56637561 -1.91452705 1.88891535 -1.91452677
O 13.80156572 1.51121833 10.72983575 1.38002614 0.14363673 -0.90687058
O 1.55003924 4.52999789 10.66579728 1.49385454 0.27058650 0.02230250
O 13.80899865 4.60872754 10.70376564 0.33470089 -1.19177484 0.54902678
O 1.36234219 6.00828518 3.17901545 0.18339933 -0.52941462 -0.98908000
O 13.62520631 0.06702627 3.19711938 -1.78312821 0.36865535 0.90713369
O 1.34098816 3.09017455 3.18241085 -1.65516182 0.47841500 0.43025550
O 13.65144251 3.01019589 3.22198110 1.58961748 -0.90160393 0.85679305
O -0.03095769 0.02794238 8.83379314 0.08902500 0.29716643 -1.17195937
O 12.27642987 0.03906133 8.86507317 -1.62360275 -0.44951735 -0.56191737
O -0.05935396 3.04131437 8.78891463 -0.48388177 -0.46134648 0.12725796
O 12.27525874 3.01204994 8.76137280 0.01491743 -0.69745562 1.76900330
O 9.54637213 6.10657619 2.43496603 -0.72261064 -0.52817538 0.81735679
O 21.82591196 6.13782879 2.46340489 -0.96531733 -0.20390141 0.38893892
O 9.58898849 3.07844802 2.48748780 0.72281148 -0.39263183 1.18814131
O 21.90852508 3.03217708 2.48022640 0.22739753 0.20072732 0.88238309
O 8.18700705 0.02174601 8.09708315 -0.38674471 -0.47790453 -1.30727808
O 20.49909583 6.05210658 8.08686318 -0.79486264 0.42201714 1.32244088
O 8.12858167 3.02380855 8.06417032 -0.04598292 -0.34143523 0.96404299
O 20.47607664 3.06387134 8.12727930 -0.69392281 -0.79860243 0.08347636
O 7.53945357 1.52605136 3.28870876 -0.70328049 -0.42473439 -0.23367354
O 19.79140087 1.45527079 3.12913922 -0.52919764 -0.49310691 0.79487242
O 7.52667871 4.48777121 3.17833315 -1.02757605 -0.65909601 0.48779186
O 19.76522252 4.65424649 3.13610601 0.98340011 -0.18276627 0.69462622
O 6.16273004 1.52349313 8.78360841 0.67971661 1.02592892 -0.90865895
O 18.47060421 1.49947585 8.77468289 -1.66309595 -0.20469838 1.25093110
O 6.11854520 4.51573111 8.74255887 -0.13724365 -0.11634503 -0.54064446
O 18.37622256 4.49447056 8.76725156 -1.01509790 1.55363701 -0.37373818
O 3.37035184 1.53407509 2.39511670 0.74555254 -0.19906591 1.24480714
O 15.71042742 1.41832983 2.42981122 -0.07938102 0.78720766 -2.14435273
O 3.40099678 4.53541467 2.46218551 -0.09707483 0.44437909 -0.95242441
O 15.63093006 4.63131161 2.51285635 0.94808236 0.01748322 0.03667403
O 1.93070738 1.54701635 8.06013336 0.65868160 0.98519907 0.05461532
O 14.30109862 1.51890631 8.05002996 -0.27553842 -0.77821960 -0.69642479
O 2.03304711 4.62283926 8.14376359 -0.29933780 0.54205295 -0.26824551
O 14.30620038 4.49107730 8.06828638 0.08604261 0.72281775 1.10544166
O 11.86272306 1.56928092 1.39693570 0.16732673 0.43338096 0.47370531
O 24.07539824 1.49709120 1.47436311 -0.58229583 -0.41420246 0.07302552
O 11.84282758 4.53721681 1.47609080 1.69248188 -0.69155535 1.40366610
O 24.10349562 4.55537849 1.44013447 -0.21446293 0.39104001 -0.62745436
O 10.53253640 1.50394521 7.12217152 -1.08950645 -0.48225491 1.40571574
O 22.76788163 1.55116456 7.12515011 0.10255576 -0.40007733 -0.86369079
O 10.40859385 4.61759869 7.04197961 1.15409106 -0.14799097 -1.15281563
O 22.77144471 4.59853025 7.05841180 -0.49808948 0.76330970 -1.20868796
O -0.97569213 1.55915943 4.18932217 -0.46993996 0.56265261 0.91320267
O 11.27399050 1.56327295 4.20991074 1.75977464 0.66475491 -0.08716851
O -1.03776379 4.55914421 4.18972368 0.19506965 0.71128600 0.31850665
O 11.28912539 4.49431385 4.12791752 1.05579943 -0.56300709 0.41060878
O -2.36522224 1.52587425 9.85201158 0.96154332 0.00994627 1.31115537
O 9.88124923 1.50048285 9.72516161 -0.16134251 1.00938156 -0.73787099
O -2.33983178 4.61480633 9.85206998 -0.23243987 0.05829705 0.73167672
O 9.92255827 4.54921221 9.79081363 -0.30348452 0.92389785 0.83809722
O 5.73033824 6.07889768 1.43356240 -0.61917366 -1.33532373 -0.99254083
O 18.02704345 -0.04261896 1.47032860 0.01143109 0.72234237 -0.49226084
O 5.75718194 3.14384194 1.45832173 1.12250739 0.26113951 -0.56728172
O 18.00995889 3.10570469 1.48761203 1.26562083 0.70684680 0.28168248
O 4.35043176 6.14152785 7.09238522 -0.80007230 0.49508200 -0.28564228
O 16.59130583 -0.02810612 7.04923621 0.94523989 0.65524678 0.63688515
O 4.42485011 3.04528506 7.07275478 0.09310167 -0.88772367 -0.38988833
O 16.65450952 3.11194775 7.06438038 -0.43156773 0.63203495 -0.07702194
O 5.15464046 6.12557693 4.19775861 0.77163441 0.48730162 -0.71397155
O 17.49939056 -0.00994865 4.20064169 -0.81331400 -0.07046257 -1.24059388
O 5.24962713 3.02933066 4.22522193 0.90631690 -0.64384383 0.33969299
O 17.38719459 3.07050425 4.15866540 0.51874443 -0.20455388 0.70396702
O 3.83238199 6.02887420 9.85534196 1.57067466 -0.56338895 -0.25198024
O 16.07969415 0.02009928 9.82613111 -0.79704798 0.28547502 -1.22286770
O 3.79471864 3.01169968 9.77469148 -0.08415727 0.95060455 0.24538075
O 16.10196739 2.99781602 9.80267810 -0.44883698 -1.51332836 -1.96513754
159
Lattice="25.324944 0.000000 0.000000 0.000000 6.270111 0.000000 -2.825043 0.000000 11.608768" Properties=species:S:1:pos:R:3:force:R:3 Energy=-626.109464 Virial="-55.413187 1.005995 -3.038665 1.005995 -44.568074 -2.593471 -3.038665 -2.593471 -44.824831" pbc="T T T" defect_vacancy
Ga 12.62179625 6.27770735 4.59031188 -0.45108257 -1.39466146 -0.22210699
Ga -0.00358388 3.13284219 4.61058327 -1.51366337 -0.21876319 -0.17881959
Ga 12.67750075 3.20702438 4.63851339 1.97028588 0.79153534 0.54642025
Ga -1.30912315 6.24828577 10.44894489 0.42129895 -0.27113142 -0.39244033
Ga 11.24870174 6.24601002 10.50949062 -0.41735317 0.56848642 0.95272078
Ga -1.42906670 3.04280029 10.38725719 -0.23369246 -0.15462501 0.41584780
Ga 11.17480928 3.09219888 10.38462039 1.18466941 1.13852362 1.59553116
Ga 11.23949263 -0.07899821 1.23636072 0.60019277 0.54416028 0.85181794
Ga 23.82091050 0.00133857 1.17791246 -0.55115320 0.59014625 -0.05107476
Ga 11.26887137 3.14582672 1.24468030 0.76816525 -0.10607489 -0.09953557
Ga 23.88431646 3.11384537 1.20389688 -0.45341037 0.89805659 0.42243131
Ga 9.86337051 6.30306259 7.00822215 0.59545705 -0.70003295 -0.14337001
Ga 22.49675173 0.00068104 7.01212253 1.03637384 1.21998231 0.57932139
Ga 9.90342717 3.12476336 6.98168395 -0.31617979 0.62592056 0.69168250
Ga 22.46818831 3.15153403 6.91266315 -0.37004759 -0.12609984 0.29093251
Ga 6.33963375 1.60371828 4.59418820 1.01405760 0.04207231 -1.36687788
Ga 19.01969702 1.65054026 4.62678518 -0.18126267 0.67412580 -0.31633332
Ga 6.25370014 4.64540562 4.60429348 -0.30554601 -0.60139105 -0.50595833
Ga 18.97637928 4.70710418 4.60068200 -0.19378310 0.24382221 -1.28985017
Ga 4.97970994 1.51521194 10.41479009 -1.10040707 -1.28617680 0.11045331
Ga 17.60898049 1.57528297 10.41871560 0.00573385 -0.75888763 0.76169491
Ga 4.84108446 4.70991581 10.41592250 0.92210502 0.54038219 0.00500758
Ga 17.63358513 4.72937931 10.42659006 -1.31446086 0.62394944 0.46435303
Ga 4.91737213 1.61931773 1.23655537 -0.29531790 -0.88309743 0.59278634
Ga 17.56871221 1.65728463 1.16523288 0.04170353 1.38397679 -0.97571176
Ga 4.85501089 4.70045350 1.17767296 -0.18146717 -0.21701942 -0.29724359
Ga 17.46309661 4.67907731 1.20812563 -0.15526819 -0.29631661 -0.67646598
Ga 3.48941792 1.53976966 6.99489983 -2.25014745 -0.00307983 0.17033353
Ga 16.16572311 1.59248488 6.97399539 0.28611549 -0.84705875 0.44907771
Ga 3.52354517 4.65756596 6.97945941 1.71958175 1.00217550 -1.08380140
Ga 16.21968112 4.66644144 6.96671395 -0.25690931 -0.58867564 0.50198466
Ga 1.51201076 1.53827569 1.82608086 0.06761311 -0.04693435 0.97440328
Ga 14.25681770 1.56494402 1.80964057 0.78310907 -0.10743500 0.96935659
Ga 1.51635434 4.67537646 1.76023835 -0.81803956 0.84960794 -1.02774146
Ga 14.25557097 4.72822495 1.82144694 1.46854985 0.35220965 -0.43089381
Ga 0.16765145 1.59905307 7.63102558 -0.12585230 -0.67722522 -0.40026131
Ga 12.86780204 1.52661656 7.61275622 0.33338974 -0.36688685 0.43303385
Ga 0.13286795 4.72740617 7.56632126 0.02426227 -0.59710606 0.11614454
Ga 12.87134756 4.72758259 7.69695854 -0.57132739 -0.66329297 -1.54246225
Ga 9.68318887 1.54929264 4.00781219 0.36734034 -1.60039963 1.38391230
Ga 22.39369407 1.54067721 3.90269039 -0.05712950 0.59362176 1.02233066
Ga 9.61506156 4.71456164 4.03873829 -0.25897925 0.14282909 -1.32995643
Ga 22.30063087 4.69453178 3.97346987 -0.07298369 1.30267471 -0.53428212
Ga 8.34665789 1.65444300 9.80108810 -0.21564506 0.41481754 -1.38822330
Ga 20.96952691 1.60777884 9.73014505 -0.26937952 -0.12389372 1.05812981
Ga 8.29946330 4.66116907 9.77936086 0.13840264 1.33161629 -0.35269308
Ga 20.98438572 4.70861299 9.83175404 0.59142217 -0.14867753 0.66135044
Ga 7.94383796 -0.06674331 1.73364153 -0.31947151 -1.10757532 0.10123582
Ga 20.60634600 0.05448396 1.83726887 -0.52246504 -0.54154609 0.35519317
Ga 7.91081591 3.17130528 1.86004178 -0.96812999 -1.17200257 -0.63919769
Ga 20.53682880 3.17571642 1.80871846 0.99607912 -0.79257814 1.71439950
Ga 6.49536790 0.00910782 7.58961401 -0.01339632 -1.06821157 -0.93347811
Ga 19.11412171 0.09179147 7.59048937 -0.12662344 -0.08122878 -0.34750111
Ga 6.50070857 3.16045096 7.63400925 -1.48024284 1.12420342 -0.36122832
Ga 19.16908611 3.15239861 7.58802381 -0.34253995 1.51571880 0.32125788
Ga 3.38013700 -0.01864012 4.05590739 -0.56947540 0.67476501 0.56944697
Ga 16.03463367 6.23675263 3.99800208 0.01081735 -0.09699195 0.46995200
Ga 3.31629799 3.14888019 3.97607470 -0.53348777 0.99531926 0.29972264
Ga 15.98801924 3.10129485 4.07446716 -0.41999279 0.65975747 0.37162183
Ga 1.94599424 -0.01440578 9.75891804 0.80919152 -2.46375146 0.68181804
Ga 14.62476252 6.24322011 9.74762692 1.08243492 -0.01309619 1.73682091
Ga 1.94619069 3.12866325 9.76366099 -1.09686956 -1.62954156 -0.92355223
Ga 14.57032512 3.12210759 9.76577133 -0.29124782 0.69229731 1.10768922
O 1.88701008 6.28108936 0.72259611 -0.60767851 1.53292651 -0.61169628
O 14.63359519 6.34087164 0.60031848 0.98300043 1.31770655 -0.64078206
O 1.98877180 3.15923707 0.66565927 -0.74408120 -0.69635976 -0.36825928
O 14.57828157 3.12403607 0.66640932 -0.55530540 0.08755950 -1.38616829
O 0.51285220 -0.06475616 6.43647528 1.85084182 -0.99344736 -0.71752377
O 13.18022960 6.27750079 6.44799214 0.07177539 0.12735608 0.59193069
O 0.47858016 3.14377028 6.44192285 -1.29143885 0.92915464 0.02528034
O 13.14335955 3.10276679 6.46925043 1.36370355 -0.91478003 -0.30857331
O 9.35717964 0.01259492 5.25963749 0.39481862 2.49292918 0.17437452
O 22.02518948 0.04942130 5.18240994 1.79028953 -0.09628880 1.24228200
O 9.32348647 3.09706673 5.19270493 0.01321335 -0.73819535 -0.55114102
O 21.89428517 3.14499939 5.18671847 -0.01069742 -0.75488744 0.20648910
O 7.92161259 6.26236399 10.93632593 -0.48214660 -0.75874549 0.03489984
O 20.64868714 6.24672933 10.93082419 -0.16117107 -0.56931274 -0.18097273
O 7.95444761 3.13641865 10.96247305 -0.20179813 -0.21462799 0.92204213
O 20.57745374 3.11947498 11.02866896 1.18609971 -0.32233273 0.00146941
O 8.25393820 1.55972303 0.66114497 -0.75966969 0.50611571 -1.07426694
O 20.91049799 1.58962198 0.63813990 -0.50883121 -0.29063530 -1.16324993
O 8.27278215 4.68812780 0.58136220 0.16144397 -0.14408690 -0.88819168
O 20.93714021 4.76276993 0.59159815 0.61547633 0.16806627 0.02681243
O 6.83824951 1.55273113 6.46369540 0.18931408 -1.30916269 0.92724547
O 19.50389138 1.69388344 6.42574732 -1.71490658 0.74335472 0.37831904
O 6.89031507 4.76961333 6.46392154 0.28344538 -0.69412216 -0.06858949
O 19.49598618 4.70976832 6.43174394 0.01759439 1.33462795 1.32300475
O 3.05477669 1.52493466 5.16286988 0.23297265 -1.25552834 0.56786803
O 15.65850522 1.50660409 5.21122136 1.61839218 0.85234562 0.61977099
O 3.06156837 4.67309117 5.21449541 -0.17195378 -0.60400100 -0.28036121
O 15.60726893 4.69209614 5.15473326 0.03223042 0.01921735 -0.54949123
O 1.59386666 1.56124288 10.97147030 -0.90511366 -0.00017121 -1.06905894
O 14.23964176 1.56704857 11.02872538 -0.61660701 -0.14846383 1.14980693
O 1.57337220 4.78482466 10.95130847 0.74215195 0.31790843 0.80737999
O 14.26557762 4.73277348 10.96248568 -0.25821224 0.34081787 0.89038450
O 1.45349312 6.29102541 3.27416147 0.37038430 -0.96816524 0.63346659
O 14.11188400 -0.03900498 3.25583860 -0.15842794 0.08468565 -1.20855864
O 1.42147321 3.16099033 3.29948704 1.12826663 -0.50673560 -0.34360033
O 14.07759794 3.11471024 3.31992606 -1.17331604 -0.20153737 -0.50312935
O -0.00015359 -0.03287881 9.05572556 -0.51703852 1.37847459 0.98315723
O 12.71722035 -0.02611009 9.08902451 -0.68160292 1.22854422 -0.69540126
O 0.04362710 3.16462009 9.04290457 -1.22419994 -0.60699704 0.49478543
O 12.61328175 3.20474274 9.03551409 0.55420331 -0.96674380 -0.42814626
O 9.82659724 6.27007234 2.51053505 0.55598583 -1.38793008 -0.18068789
O 22.51278393 6.20748994 2.52500021 -0.02811948 0.17634043 0.31084429
O 9.87446460 3.15706826 2.49099961 -0.14301156 -0.66879100 0.89419958
O 22.46543517 3.14059786 2.46745178 -1.88391040 0.06316797 0.51365006
O 8.48488000 0.00815477 8.30490654 0.99396279 0.06058425 1.38320333
O 21.04733062 6.23656256 8.26052223 -1.13643926 1.13850477 -0.40212651
O 8.45444789 3.11894615 8.35559022 1.32248081 -0.70277687 -1.01021304
O 21.11209912 3.18082419 8.33320540 -0.20952397 0.76644314 -1.08017497
O 7.77901305 1.62974564 3.27742280 -0.21316809 -0.43096806 1.26677827
O 20.41391703 1.53607880 3.23947087 -1.20868223 -0.61456907 -0.67161713
O 7.78405786 4.71651525 3.29747176 0.79120323 0.01571462 0.17870393
O 20.37217545 4.78571775 3.27296928 0.06695181 0.00993348 0.58626501
O 6.28190776 1.56245397 9.13867800 -0.67585191 -0.04036958 0.58457852
O 18.93967713 1.53748275 9.20151977 -0.67504150 -1.13264632 0.68860278
O 6.36649022 4.66892442 9.03524327 -1.11257578 0.50982510 -0.11392421
O 18.91493636 4.70506609 9.10558077 -1.59812467 0.60853523 0.92639214
O 3.57294368 1.49592181 2.47018471 0.63442322 -0.79453165 -1.47318728
O 16.17137296 1.66313129 2.57938330 -1.33619521 -0.21875158 0.20197327
O 3.53091197 4.64461890 2.45192739 0.63281825 -0.57656879 0.99351353
O 16.17574901 4.69347976 2.51374693 -0.84830258 1.11848672 -1.53882336
O 2.08285234 1.54050805 8.28712317 0.85799117 -0.58891926 -0.01402220
O 14.80808759 1.53513341 8.32318529 0.64130895 0.37313594 -1.00835146
O 2.09983750 4.73254025 8.28881455 -0.67300517 0.45947130 -1.09348655
O 14.79679903 4.67525295 8.32435330 -0.29652433 1.25560474 0.02064322
O 12.31163512 1.52044137 1.51941732 0.53004390 0.50307860 -0.04142881
O 24.94479841 1.58572222 1.48897726 -0.35886219 0.01772712 0.22723346
O 12.33665676 4.68918271 1.50021675 -0.50566633 -0.30010474 -0.12780461
O 24.90646706 4.70873793 1.51452225 0.13577513 -1.44354800 -0.17049766
O 10.82445311 1.48448631 7.30229145 0.19515170 0.23462831 -0.60813704
O 23.45631549 1.59675588 7.30193512 0.15371535 0.44418591 0.88873634
O 10.87715024 4.66103392 7.28603264 0.94572742 -0.09314282 -0.82395301
O 23.48728947 4.63850853 7.34192582 1.01533230 -0.49804810 -0.47849986
O -1.06681450 1.61437538 4.33088605 0.58554428 -0.10401776 -0.19494371
O 11.66016195 1.57748345 4.34056263 0.55644825 0.68818148 -0.91050398
O -1.02086128 4.71902804 4.33663775 0.14661508 -0.74977652 -0.30138872
O 11.62094586 4.71647137 4.20959844 1.48217928 0.05712368 0.07279563
O -2.48776197 1.58205558 10.09560516 -1.28614397 0.94342780 -1.09956628
O 10.21425134 1.57010852 10.10030881 1.87000338 -0.05733493 0.21059816
O -2.44999027 4.63196366 10.03954303 0.73390343 -0.08115416 -0.61268713
O 10.27395969 4.68910530 10.15113077 0.37863962 -0.32545191 -0.85882953
O 5.90529108 6.28289782 1.48942396 -0.02527724 0.59839107 0.15273624
O 18.59283698 0.00748908 1.48110050 0.96171703 0.31821194 0.17808355
O 5.86326711 3.17128597 1.54825015 -0.48962342 0.36103491 0.68525906
O 18.64573900 3.11530084 1.44774778 0.75919085 -0.69505024 -0.05514792
O 4.49443810 6.25526770 7.29836638 -0.21851413 0.19273462 0.35724938
O 17.12755519 -0.05769661 7.29730363 0.04524491 0.95834519 -0.50303698
O 4.36084052 3.12930263 7.25178846 0.04614427 -0.00052360 0.64300855
O 17.20808229 3.16948641 7.33645984 1.19766560 0.18570194 -0.41445222
O 5.31901223 6.22254177 4.28952172 -1.55316927 1.01826350 -1.31034038
O 17.99895429 -0.05875635 4.38032528 0.13299488 0.11406022 0.46892428
O 5.32629661 3.16457774 4.24582151 -0.48496919 -0.92763054 -0.26240832
O 17.95674747 3.05985382 4.35639269 0.99800290 -0.31614980 0.87478685
O 3.90924249 6.28643296 10.12352749 1.04681250 -0.82882397 -0.78893489
O 16.60328838 -0.00916137 10.12017107 -0.12070431 0.21695167 0.20704492
O 3.91437803 3.14979790 10.13736170 0.42819847 -0.40525035 -0.00292852
O 16.68881155 3.20624948 10.04465124 -1.04394145 1.07153684 -0.18776483
159
Lattice="24.736243 0.000000 0.000000 0.000000 6.124356 0.000000 -2.759372 0.000000 11.338912" Properties=species:S:1:pos:R:3:force:R:3 Energy=-625.656366 Virial="-56.816135 -1.615156 -1.699134 -1.615156 -43.688436 -5.997146 -1.699134 -5.997146 -41.657639" pbc="T T T" defect_vacancy
Ga 12.38740018 6.11811801 4.50291210 -1.55093885 1.33474157 -0.67657374
Ga -0.02593469 3.11161505 4.47736199 0.15277338 0.60063634 -0.84866285
Ga 12.43980224 2.99575070 4.53928670 0.06822082 -0.58808697 -0.02781567
Ga -1.34115089 6.10806960 10.10875285 0.94245443 0.80484084 1.49118769
Ga 11.00431115 6.04849592 10.16286041 0.50960213 -0.69587356 0.24398463
Ga -1.33458616 3.05106814 10.16518087 -0.26856281 -0.83646496 -1.12244527
Ga 11.04835685 3.06248233 10.24503351 -0.07702717 1.21430341 -0.21020641
Ga 10.96331370 0.04333867 1.15453898 0.43168424 1.63821333 0.51512380
Ga 23.35395552 -0.02705643 1.17286964 0.17857544 0.91305203 0.35865685
Ga 10.98696639 3.06364731 1.09968225 0.79017218 -0.60644171 1.49233695
Ga 23.38401379 3.07164542 1.17712790 -1.26379742 0.28221367 0.90161274
Ga 9.65408622 6.12103951 6.85965273 0.20998045 -0.33953660 0.60950167
Ga 21.99528252 -0.00919532 6.83312090 -0.44807590 -0.79342548 -0.77039558
Ga 9.56190229 2.96342268 6.80340176 -0.46804003 0.50142666 -0.11317104
Ga 21.90774525 3.00282679 6.80641626 1.20684696 0.04755258 -0.28586857
Ga 6.29194307 1.48525553 4.52821380 -0.53353575 0.25711508 -0.21593198
Ga 18.49489047 1.54138387 4.53309450 -0.97143667 0.77527484 0.15056120
Ga 6.15102010 4.56627409 4.46950514 1.34627200 1.11309349 0.98664179
Ga 18.58635091 4.60490613 4.53691862 1.40608247 0.52658504 -1.06091835
Ga 4.81183842 1.46102612 10.13604883 0.01880905 0.24827922 -0.34442472
Ga 17.13645951 1.49056439 10.14700540 -0.54482939 0.38283680 -0.22853033
Ga 4.80362827 4.59079233 10.10442162 0.83088975 0.42245186 -0.62002525
Ga 17.22203931 4.60198952 10.15915155 -0.41797606 0.30775172 0.15915365
Ga 4.76833624 1.50747365 1.14767573 -0.64771806 -0.66836734 0.26711317
Ga 17.16686328 1.52813056 1.17347156 -0.10873135 -0.16209378 -0.80624997
Ga 4.79122195 4.56713034 1.10003786 -0.20838217 -0.13235056 -0.49131614
Ga 17.20800043 4.62005341 1.21762541 0.18010343 -0.48983684 -1.78922667
Ga 3.39022034 1.54748089 6.80588640 -0.64678188 0.43899797 0.25540916
Ga 15.81121793 1.59016535 6.89751092 0.64838306 0.28383683 -0.18697519
Ga 3.40884802 4.62129009 6.85749473 -0.91650799 0.11300250 -0.09897113
Ga 15.78174339 4.61511230 6.79958161 -1.43019898 -1.35993532 -0.54144544
Ga 1.46429063 1.55208428 1.73434273 0.90909571 -0.26946319 0.88035096
Ga 13.86387146 1.51163550 1.84040090 0.20796091 1.02736679 1.29744617
Ga 1.52694016 4.55979894 1.73038120 -0.21632911 -1.17497465 -0.61313766
Ga 13.88828473 4.57817406 1.73394251 -0.44373939 -0.08905982 0.46615251
Ga 0.15183578 1.46187377 7.40656290 -0.38380499 0.85573528 -0.31925070
Ga 12.56870635 1.48431640 7.44396794 -0.11229668 -0.29966097 -0.55896938
Ga 0.16334688 4.66491258 7.50728058 -0.09421084 1.24274157 0.64221586
Ga 12.54149259 4.55256010 7.41124460 1.00166908 1.57803212 -0.59134831
Ga 9.44042504 1.63211588 3.90870938 0.88262691 1.40041260 0.21964558
Ga 21.83048624 1.54013638 3.94435859 -0.66688882 0.11325517 0.46435756
Ga 9.43839605 4.59753455 3.87534127 1.20437774 -0.07230081 0.27450637
Ga 21.80390486 4.58583677 3.90853651 0.49407492 -0.99638420 0.31507032
Ga 8.08909631 1.58335541 9.53148605 -1.43093012 -0.10731600 0.71713401
Ga 20.45616215 1.48840089 9.55072864 -0.04693668 0.79812919 0.43299672
Ga 8.01743147 4.61141486 9.63105575 1.88983832 -0.02460816 -0.12176267
Ga 20.49309316 4.58016965 9.59887233 -0.02136388 0.10437064 0.73302907
Ga 7.64877660 0.02074187 1.87984647 0.38400138 0.54672643 0.49036598
Ga 20.09885062 -0.00469306 1.77086402 0.94474553 0.33603363 -0.26018336
Ga 7.72233520 3.06048779 1.76308815 0.21375890 -0.93455208 1.74054363
Ga 20.06465003 2.99738280 1.80900220 -0.35504486 -0.67340518 0.74715645
Ga 6.37727101 0.02821440 7.43207669 -0.13464047 0.73672655 -0.65947145
Ga 18.71257994 0.01809318 7.43622779 -0.81622276 0.36037515 -0.44998348
Ga 6.38051131 3.09721073 7.49810960 0.70888954 0.52005807 0.14041307
Ga 18.70973078 3.00545613 7.35601089 0.08960992 0.03903915 1.20114677
Ga 3.26031251 -0.03138491 3.89032513 -1.37170815 -0.88125838 -0.51509275
Ga 15.59824870 6.07253995 3.80939728 -1.11758773 0.03905572 -0.85438491
Ga 3.21925492 3.04695720 3.86797701 -0.18656271 0.39916121 -0.27632891
Ga 15.68945449 3.04823546 3.81965607 0.12269130 -0.74880413 -0.35010700
Ga 1.88497423 0.02099366 9.46028075 -1.71764518 1.24208828 0.50280286
Ga 14.31423972 6.13919303 9.61902186 0.74268947 0.31070181 0.79580465
Ga 1.92050222 3.03959974 9.54977333 1.04804522 -0.51097207 -0.35411743
Ga 14.24638281 3.09724343 9.52518269 1.17204636 -0.74002803 0.01615014
O 1.87975114 6.16948969 0.62728178 0.67806860 0.89937621 -0.34930745
O 14.24389141 6.13379767 0.58058725 -0.95313018 -0.27070267 1.52084956
O 1.78972337 3.03680488 0.57990477 0.30329994 -0.04568515 0.61748279
O 14.23458707 3.02831498 0.59148704 -0.29591578 -0.12960208 -0.51408596
O 0.51181224 0.02120303 6.33954914 0.39355667 1.37814508 -0.21201403
O 12.83532491 6.05928949 6.36490444 -0.34164122 0.52748366 -0.38947692
O 0.52095334 3.03692750 6.33036080 0.58828467 0.37298829 0.54320294
O 12.85348514 3.10584518 6.29228879 -0.32410563 -0.53034557 -0.15112118
O 9.10922918 0.01364870 5.09596528 0.24483939 -0.41762212 1.76969353
O 21.46294415 0.00339905 5.00303311 1.03389934 0.89069139 -0.68547888
O 9.13975633 3.06851082 5.08782958 -0.37951870 0.27661058 -0.68705807
O 21.52959131 3.03460284 5.06126318 -0.80555044 -1.40026508 -1.10488000
O 7.75509084 6.09451575 10.69108480 -1.15926989 0.39852076 0.46441029
O 20.17565745 6.09790270 10.69773895 -0.95349968 0.10272812 1.12469144
O 7.73807441 3.07940360 10.70259494 0.71427360 0.17657940 -0.21904566
O 20.08593676 3.05328601 10.74792086 0.89131567 0.21655542 0.38368929
O 8.06199541 1.49988753 0.56878216 0.95136205 -1.54862620 -1.85571678
O 20.38464392 1.55015472 0.63857385 0.03617264 0.52223077 0.33718279
O 8.03806881 4.57463422 0.56404485 -0.79760610 1.69238027 0.00765770
O 20.41225961 4.62067274 0.59346319 -1.34167772 1.03434083 -1.66599278
O 6.71420450 1.49219191 6.24716505 0.14061234 -0.32129274 -0.45138299
O 19.03456624 1.53069772 6.27815611 -0.17847747 0.20263114 0.30151549
O 6.68060375 4.60379246 6.34024192 -0.57963169 0.85628154 -1.92774160
O 19.04416070 4.58326497 6.29785600 -0.16659087 -0.11603407 -0.08329437
O 2.86831255 1.46854136 5.08501038 -0.91065136 1.31120073 -0.20040742
O 15.28392876 1.50702277 5.07401432 0.74952840 -0.96665857 -0.20728804
O 2.94363210 4.62732730 5.03630666 -0.57301787 -0.29813052 -0.58579357
O 15.35713997 4.56805523 5.07692961 -0.74723983 0.31697139 -0.75811527
O 1.55682849 1.48896195 10.71646659 -0.65416365 -0.16659346 1.07107900
O 13.92808138 1.53099314 10.68777586 0.09987508 -0.81657293 -0.93537272
O 1.61671238 4.59521517 10.63341923 -0.29845216 -1.91438640 -0.06221014
O 13.93274563 4.62071736 10.63894356 -0.51428340 -0.13150168 -0.20552610
O 1.33723232 6.16046665 3.21247917 0.56819781 0.60102916 0.90196482
O 13.73675213 -0.04636823 3.16803858 0.49259335 0.04017101 0.26238448
O 1.31209220 2.98067331 3.10784329 -0.45456531 0.15638517 -1.74937955
O 13.83865278 3.02298054 3.20987241 0.20370529 -1.40609977 -1.20178716
O 0.03549986 0.00794934 8.87767684 -0.35007331 -0.19496736 0.34202803
O 12.37679955 0.08447559 8.86930521 -0.73154185 0.16433870 0.13811769
O -0.06852541 3.02590635 8.82433302 -1.06007008 -0.31292090 0.23241819
O 12.35171328 3.00886080 8.84217862 -0.43021647 -0.47288198 0.12319097
O 9.61295182 6.14898208 2.42457714 0.25005624 0.11859317 -0.60095215
O 21.99037191 6.12983473 2.50178926 0.08449915 -0.18114990 0.61891011
O 9.52263903 2.98503430 2.39387395 0.97564867 -0.90514426 1.20989331
O 22.03668581 3.02765471 2.41403989 0.57641378 -1.15520356 -0.41929099
O 8.23228873 0.08388041 8.11140763 0.76022794 -0.65777068 -0.61334146
O 20.57225881 6.15425956 8.13877901 -0.19707522 1.47200799 1.76647250
O 8.23801809 3.05855344 8.15692350 -0.16244887 0.25266702 -1.55087997
O 20.49199938 3.07952673 8.07891389 -0.34778234 -0.72629737 0.30705872
O 7.61203100 1.57896591 3.22114130 -0.81375897 -0.00328124 -0.91375798
O 20.00567587 1.62788509 3.20194930 -0.00668794 -0.48772422 0.59098151
O 7.55401086 4.61141121 3.21809407 0.01812258 -0.87613182 -0.13582018
O 19.82572550 4.59918639 3.16890897 -1.09663755 -2.16131440 -0.61379008
O 6.18277737 1.56563705 8.86452810 -0.65734990 -0.05790430 -0.79802944
O 18.51387252 1.50839509 8.94708539 0.33094171 -0.45948744 -1.30564228
O 6.08423074 4.70985261 8.94147147 0.65266642 0.28455450 -0.12877143
O 18.53325390 4.61699898 8.86025509 1.07229212 -0.38769436 1.37895266
O 3.42311653 1.51627262 2.43704093 -1.56992763 0.16738956 -1.52156504
O 15.82784060 1.48021113 2.48660069 0.35754191 -1.16539592 -0.75236099
O 3.41745895 4.66212002 2.52058266 -0.31494787 0.14838567 -1.61956207
O 15.76797477 4.63976214 2.48094129 0.40037818 0.07725173 1.08278789
O 2.09329586 1.57143752 8.07465327 0.87214732 -0.10207712 1.20313899
O 14.43188352 1.53123140 8.21778685 0.28549147 -0.53068179 0.34135351
O 2.01489476 4.62323059 8.08039564 1.26727138 -0.53252634 -0.01029810
O 14.50111666 4.61197963 8.11590218 1.62941960 0.33892479 2.28039180
O 12.01880738 1.59348320 1.47201920 -0.55316259 -0.06306072 1.46760570
O 24.31750066 1.48989159 1.41827226 0.91432569 -0.81230119 0.87937552
O 11.91493391 4.62584536 1.50447947 -1.23463051 -0.54454344 0.32642180
O 24.29603177 4.64205790 1.42856001 0.55460703 -0.07547137 0.85353991
O 10.55924490 1.55023856 7.10843865 1.00488636 -0.68670039 -0.69436800
O 22.87954291 1.51514027 7.07564247 0.44277889 0.88427922 0.26130737
O 10.51627171 4.56313396 7.13269692 0.18468896 -0.24838634 -0.33754421
O 22.89895861 4.59011453 7.13025283 0.30003416 0.42178794 0.54471559
O -0.95130610 1.52512312 4.24166561 0.30617313 0.25671283 -1.25856661
O 11.42840540 1.46425768 4.29682569 -0.63091798 0.51745761 0.18663413
O -0.93270066 4.58520811 4.16788699 1.26232497 1.13475291 0.45908235
O 11.42138374 4.56498072 4.17102006 -0.88365959 -0.18640840 -0.13056389
O -2.36899663 1.57105359 9.93570315 -1.24504729 -0.22427920 -0.81370776
O 10.08457243 1.52561963 9.87432542 0.05977446 0.68749779 -0.66333192
O -2.36083209 4.56245241 9.85589822 0.45223923 -0.45172173 1.28931948
O 9.98875166 4.67162500 9.84288265 0.55136751 0.33150539 0.56674709
O 5.79365023 6.14710531 1.54444505 -0.72486004 -0.01649725 0.77462330
O 18.17087347 -0.00746902 1.42478015 -0.34453602 1.48433433 0.75575520
O 5.73925695 3.06717536 1.43769997 0.00959284 1.24824716 0.36407220
O 18.14512481 3.08772096 1.41658416 -1.32777262 -0.27595209 0.05603075
O 4.42663910 6.15830852 7.05770643 0.93244846 -1.01294652 -0.89379099
O 16.77545207 0.05890446 7.14257938 1.47309849 -0.54179364 0.12980269
O 4.37237132 3.08510968 7.09917698 0.83812987 -0.83170372 1.21060313
O 16.81295632 3.07372956 7.20040627 -0.53141896 0.59989212 0.27255577
O 5.20477970 6.14005932 4.20807370 -1.03121049 -0.78145663 -0.33054244
O 17.57365026 -0.02712170 4.27702836 0.33286713 1.57378295 0.64616484
O 5.22491753 3.07283559 4.25315950 -1.65310923 -0.04759702 -0.30385294
O 17.63684688 3.15411703 4.18148189 0.46113658 -0.84815764 0.97510880
O 3.85257899 6.15628599 9.88229683 0.64283572 -0.77019627 0.29915747
O 16.17352174 0.05127479 9.85646025 -0.62224875 -1.35401639 -0.55580807
O 3.84347732 3.03294906 9.88681781 0.31443740 -0.81943873 -0.54943573
O 16.12915511 3.02471193 9.80830872 -0.07849442 -1.07738668 -1.09733436
159
Lattice="24.634630 0.000000 0.000000 0.000000 6.099198 0.000000 -2.748037 0.000000 11.292333" Properties=species:S:1:pos:R:3:force:R:3 Energy=-627.206299 Virial="-54.515160 -0.409552 -2.395794 -0.409552 -48.011598 -3.724592 -2.395794 -3.724592 -44.756210" pbc="T T T" defect_vacancy
Ga 12.30451340 6.06909543 4.47460485 -0.54266756 -0.41750536 -0.61629878
Ga 0.01695633 3.09695442 4.55845869 -0.49341326 0.55273909 -0.22719240
Ga 12.32317595 2.99675900 4.46271408 0.60241086 -1.31167324 -0.83613408
Ga -1.36741449 6.10627900 10.06188522 1.07162033 -1.27496407 -0.77109164
Ga 10.99934353 6.06170236 10.15189089 0.26582497 1.14450525 -1.19408588
Ga -1.36505396 3.02004977 10.18538768 0.25069992 -1.67062878 -0.34230396
Ga 10.93043806 3.00681058 10.15634787 -0.21876380 0.75878120 1.77250023
Ga 10.96702615 -0.00492903 1.16354371 0.92629543 0.10775377 -0.68043631
Ga 23.28313108 -0.00205578 1.14864432 0.82417257 0.02429196 -0.00385855
Ga 10.96114149 3.04053567 1.13373406 0.96069630 -0.02203759 0.51483584
Ga 23.24727472 3.00864798 1.15240948 -0.40624014 0.00700338 0.22598316
Ga 9.59326003 6.05048531 6.80297062 1.73245007 0.29175468 0.01263807
Ga 21.89840548 -0.00022471 6.86083373 0.21336252 -0.31898891 -0.32709876
Ga 9.55665898 3.06472544 6.86104061 -0.12439066 0.34595082 -0.46181959
Ga 21.89366518 3.04990930 6.78965906 -0.95158010 -1.01452212 1.09887282
Ga 6.16608713 1.53957797 4.45866813 0.14938172 0.34463349 -0.79698305
Ga 18.54676098 1.61567174 4.48827443 -0.18181739 -0.94107325 0.15635621
Ga 6.10202566 4.60482445 4.49296310 -0.51990223 0.23768513 -1.82343587
Ga 18.51722928 4.57360280 4.52487724 1.85989232 0.08347742 0.79117935
Ga 4.77003387 1.53325623 10.15192568 -0.65815459 0.73955855 1.00098815
Ga 17.13684415 1.55062435 10.16603791 -1.23864525 0.23635766 0.21831566
Ga 4.75778493 4.61037208 10.14542438 -1.59968804 -1.74504040 0.19060900
Ga 17.11171552 4.58382742 10.14272639 0.93122812 0.13517701 -0.45231481
Ga 4.77518003 1.45222377 1.16376776 -0.78054023 1.25379443 -1.02552467
Ga 17.07122366 1.54252840 1.15583740 -1.07667822 0.76523640 0.48732772
Ga 4.85392502 4.56485300 1.09912875 0.18095280 -0.27464760 -0.09309894
Ga 17.07912325 4.55914204 1.17015809 -0.50395392 0.83635729 0.55611596
Ga 3.37858898 1.55338398 6.80205632 1.39660478 -0.33370286 -0.35501246
Ga 15.73446082 1.58017622 6.81156182 -0.93799797 1.23935138 0.59294912
Ga 3.34016786 4.55385550 6.75370049 0.66755904 -0.29492174 -0.35587251
Ga 15.68787250 4.43850699 6.83600020 0.02126443 -0.72726668 -1.06347834
Ga 1.46017669 1.55738489 1.74526449 0.11987600 0.82765839 0.26409200
Ga 13.82988281 1.58807818 1.76043406 -0.89578984 -0.02879103 -1.02171067
Ga 1.48447815 4.55619319 1.72264537 1.05349487 -0.21293703 0.51510156
Ga 13.87232012 4.58999792 1.76135276 -0.70577961 -1.57405477 -0.00439768
Ga 0.17661885 1.54528919 7.40802812 -1.37551541 -0.24968815 0.07319137
Ga 12.47256870 1.51530858 7.39239538 -0.23459969 -0.87208673 -1.63220938
Ga 0.04527836 4.56181487 7.41523140 0.68162670 -0.78428687 -1.16160390
Ga 12.40799228 4.61005751 7.40952868 0.52994011 -0.09747846 1.17340219
Ga 9.43705098 1.53880036 3.86790352 1.01052597 -0.24551902 0.55637599
Ga 21.71944992 1.49713831 3.80531371 0.67583972 1.44351613 -0.71493461
Ga 9.48167165 4.58798944 3.82894923 0.67783930 0.04415155 0.77610289
Ga 21.76498363 4.52976804 3.90178800 1.19185846 -1.73839918 0.16396051
Ga 8.06067462 1.49445816 9.45303612 1.54883402 -0.75826492 0.79822773
Ga 20.34192540 1.53308409 9.45096411 0.23965750 0.82341859 0.50967813
Ga 8.01714713 4.62486776 9.51544305 1.31867621 -0.49542301 -0.27741227
Ga 20.47270566 4.59347941 9.51205148 -0.00667901 -0.44882219 -0.17900581
Ga 7.63967443 -0.04343176 1.77607340 -0.11907445 0.12957749 1.51711643
Ga 19.97909295 -0.00772479 1.78361905 -1.13006086 1.66673893 0.00143634
Ga 7.65159543 3.08357035 1.78546133 1.34681835 0.89723367 -0.34375460
Ga 19.96433261 3.06037856 1.68052399 -0.81998872 0.41786356 -0.07908624
Ga 6.32362371 0.01519199 7.33329321 -0.52860081 0.40853308 0.94678637
Ga 18.54717088 -0.01066022 7.39238598 0.87251099 -0.42193821 -0.93477877
Ga 6.30641357 3.05349330 7.48887620 -0.91187410 -0.34894389 -0.44169977
Ga 18.60570937 3.07761175 7.39583030 1.37091521 -0.08042686 0.55609346
Ga 3.28228311 -0.01391370 3.82455068 -0.71677409 0.26926624 0.46304750
Ga 15.55588746 6.10878016 3.82891757 0.81620998 -1.10239622 0.14000423
Ga 3.26462037 3.06542752 3.88953152 -0.37310034 0.41682383 0.47787728
Ga 15.61357101 3.13032841 3.81726681 0.13956836 0.34494483 0.77821794
Ga 1.87373702 0.00004156 9.49582847 -0.62714773 -0.39520171 0.87237255
Ga 14.25410849 6.14723156 9.61362330 0.70544582 1.04635528 -0.32413070
Ga 1.88833269 2.99855836 9.50417129 0.26232966 0.49526963 1.37628853
Ga 14.16878597 3.08506143 9.54766815 0.24308310 -1.16377345 0.21957814
O 1.88976139 6.18239379 0.61660105 0.62972626 -0.32966456 0.37430555
O 14.15692436 6.09043983 0.56697219 0.13473992 -1.42860627 0.85480355
O 1.84156905 3.06458908 0.62867019 0.51633520 0.16624925 -0.61839253
O 14.12954043 2.99949614 0.64856581 0.18446866 -0.08665158 -1.27919593
O 0.44473180 0.01156324 6.31139294 0.46702197 0.04630524 -0.77321913
O 12.81921155 6.11909568 6.29730454 0.75933087 0.74105804 -0.42569105
O 0.50410783 3.00364872 6.36830618 -0.28301563 -0.00814013 0.06516841
O 12.81056963 3.06345857 6.26415627 0.25120671 0.63999567 -0.17171863
O 9.02043204 -0.03230959 5.10188926 0.66345370 0.16580146 0.14280218
O 21.32920884 -0.00349345 5.04117124 -0.67859669 -1.03428895 0.07556757
O 9.06892100 3.13464747 4.98012369 -0.15312281 0.98534572 0.06886435
O 21.37190603 3.06143596 5.04882306 -0.09439283 -0.23675665 1.13844584
O 7.71805944 6.10597114 10.66127581 -0.11258291 -1.74188085 -1.16073519
O 20.01822453 6.04747786 10.68653619 -1.41276712 -0.13959342 0.09608233
O 7.64822281 2.99186847 10.71260676 -0.49949664 0.80942613 -0.43208983
O 20.01086319 3.13104238 10.65703294 0.10822048 1.03028838 -1.54595943
O 7.99225543 1.57116603 0.64905009 -0.61977050 1.47172809 1.58191297
O 20.33157389 1.52694233 0.65502752 0.01803228 -0.17299245 -0.20882104
O 8.03237834 4.56422532 0.60245470 0.69356552 0.32951614 -0.16726470
O 20.41002407 4.56189527 0.60534254 -0.60910467 0.84479820 0.81674316
O 6.64322824 1.53028406 6.22348582 -0.72274433 0.64140955 0.24007233
O 19.02652067 1.50361991 6.28244446 0.36311509 -0.09588009 -0.55065651
O 6.70850801 4.56282861 6.28324448 -0.51765758 -0.77019390 -0.37600070
O 18.91437421 4.54704774 6.26213691 -0.42304787 0.48406079 -1.45687841
O 2.91203337 1.54811609 5.00853528 0.24017043 -0.38608272 0.12637387
O 15.23295794 1.50849728 5.08096333 -0.52418174 0.28819039 0.06093727
O 2.92963769 4.54531229 4.99822025 -0.21285588 0.18233647 -0.03664672
O 15.20066069 4.59153774 5.01655997 -0.26887299 0.79789094 1.03755032
O 1.66532693 1.49427508 10.61393434 -0.35916991 0.74784815 0.19765131
O 13.85863224 1.61961285 10.68961324 0.92771669 0.26260613 -0.39030138
O 1.55023143 4.54582500 10.66489839 -0.69264538 -0.56185222 0.61828937
O 13.91562349 4.54832756 10.67640943 -0.73124616 -0.08119785 1.05372959
O 1.36612981 6.09889027 3.18066125 0.32393351 0.28799618 1.04930176
O 13.61596931 0.01033414 3.17823533 0.17784243 1.00109288 -0.19654251
O 1.41022132 3.03691611 3.19497513 1.85224616 0.03360853 -1.86647251
O 13.70516900 3.05861896 3.11348042 0.38329598 0.08050799 0.40846834
O 0.00302144 -0.06584710 8.83032363 -0.78537131 -0.68385264 0.28008024
O 12.33735313 0.08534717 8.79095870 0.14801467 -0.50131288 0.32856750
O -0.04334876 2.98990800 8.79695077 0.84997786 0.64851361 1.43022204
O 12.40064648 2.98107869 8.70533694 0.63256094 -1.00163435 -0.38681769
O 9.61554684 6.11902880 2.45257899 0.27512266 -0.27717909 1.69038447
O 21.88194629 6.12685548 2.49663738 0.79873926 -0.53192197 -0.34651510
O 9.53807202 2.99450998 2.40516149 -1.51232406 -0.13043993 0.97315721
O 21.86199752 3.07565884 2.49346680 -0.37118479 -0.28081388 -0.60430948
O 8.18992264 0.01310528 8.10192901 -0.16422185 1.18650543 0.01180776
O 20.48124952 6.05598651 8.09875401 -0.65531586 -1.07861151 1.21232970
O 8.23501509 3.08152313 8.10424284 0.32788270 -0.59786823 -0.06229409
O 20.57145408 3.11905077 8.03586150 -1.13617320 0.67873855 -0.09893673
O 7.47572716 1.47340085 3.21410901 0.56130173 -0.01107848 1.20220160
O 19.83383030 1.51823756 3.21372049 -0.62787543 1.79235587 1.16036752
O 7.52153244 4.53865225 3.13694859 -0.16777380 0.21908474 -0.30299977
O 19.83041585 4.62410821 3.12504334 0.25876770 0.73881420 -0.18126618
O 6.12235246 1.46482820 8.86529942 -0.06088806 0.29840829 -0.65694636
O 18.40003443 1.46051244 8.87128140 -1.49097887 0.33741238 -1.02657006
O 6.13052325 4.49749037 8.85219060 0.68585777 0.07782761 -0.02533041
O 18.46892790 4.65060213 8.78003205 -0.57586917 -0.76662702 -0.12580151
O 3.37678244 1.49902919 2.49359496 -0.55693144 -1.29683216 -0.42721738
O 15.65596636 1.49454738 2.48411621 0.72844149 0.26341820 1.09024938
O 3.46666753 4.53001511 2.47783920 -0.67118357 -0.00180067 -0.14385689
O 15.70677322 4.51871504 2.44970908 -0.47447094 0.17479765 -0.02914372
O 2.02818486 1.54632193 8.17665051 0.85245083 0.31665707 -0.34259730
O 14.36642396 1.52611782 8.12744381 -2.20983434 0.89208883 -0.39450306
O 2.01287179 4.60593654 8.06789381 0.85469013 0.17768138 0.52474171
O 14.36658156 4.55959275 8.09114866 -1.11122008 -0.80329641 0.72762087
O 11.97389236 1.47898529 1.46729596 -0.87770388 1.28827572 0.71945738
O 24.20656453 1.56442238 1.39821457 -0.91454212 0.06135794 1.87883957
O 11.90228672 4.52307105 1.51236247 0.09939235 -0.26880218 -0.84952254
O 24.29027823 4.54422943 1.38774695 -0.09145891 -0.46900421 0.80483926
O 10.52035821 1.55645519 7.09311702 -0.07123666 0.08008470 0.90530307
O 22.84190174 1.56845805 7.11569477 -0.44321218 0.89809652 -0.48153147
O 10.50878468 4.48691808 7.18983143 1.47029576 -0.62881734 0.60551873
O 22.84809332 4.47397820 7.11009619 -0.11696215 0.18337125 0.29136501
O -1.04189287 1.57850546 4.24473017 -0.82562589 0.56192576 -0.47181119
O 11.34043389 1.47645148 4.22907987 1.06474275 0.15097710 0.57671500
O -0.92919833 4.57452466 4.17471052 -0.17087883 1.29816802 -0.19976982
O 11.31084842 4.56039635 4.19062251 0.52348657 0.10852918 0.80451060
O -2.36477758 1.47806975 9.90269571 0.96741392 -0.72917944 -0.08724526
O 9.95925890 1.50808197 9.84816618 -0.32579690 0.45352126 -1.32409166
O -2.33521341 4.56690560 9.79686224 0.68724510 -0.32445235 -0.21601765
O 9.96477836 4.58351669 9.84955122 0.41372055 -1.04975821 -0.85341901
O 5.77172842 6.10524926 1.41078484 -0.91604256 -0.53819609 -0.18275823
O 18.18592944 0.02180533 1.48842648 -0.05455181 -0.13931002 0.36620292
O 5.77571988 3.05022490 1.40402415 -0.31695899 0.44748868 -0.30396673
O 18.06414100 3.01357494 1.37592139 -0.01588898 -0.44167457 0.27054389
O 4.47694899 6.12408769 7.10543055 0.10339198 0.53540496 -0.34095350
O 16.70212906 0.02575050 7.09125494 -1.24085048 -0.09640123 0.12358111
O 4.35440384 3.10203868 7.05380189 -0.98570438 -0.01909135 -1.92460719
O 16.75560480 3.04284632 7.10439599 -0.51912141 -0.28080069 0.13036212
O 5.17286130 6.05047968 4.17415350 -0.27535724 0.03866001 -0.86778321
O 17.50852494 -0.02864975 4.17168570 1.74541648 -0.54354997 -1.71181475
O 5.22204603 3.07432287 4.14658741 -0.65548020 -0.01130194 0.09324704
O 17.54975155 3.10057122 4.18681135 -0.50309749 -0.61484070 0.11070472
O 3.73969926 6.03594820 9.82179514 -1.77644935 0.04602810 -1.01543789
O 16.17946270 0.00961617 9.80276828 0.09573736 -1.42385940 0.03457073
O 3.86915721 3.04573487 9.87594562 0.24307446 -0.77507542 0.03552091
O 16.11137191 2.97612298 9.76919429 -0.07184137 0.92076935 0.15186772
159
Lattice="25.104044 0.000000 0.000000 0.000000 6.215419 0.000000 -2.800401 0.000000 11.507509" Properties=species:S:1:pos:R:3:force:R:3 Energy=-628.378533 Virial="-56.349228 -1.548867 -4.381015 -1.548867 -41.510236 -5.006159 -4.381015 -5.006159 -43.450533" pbc="T T T" defect_vacancy
Ga 12.54569208 6.20082677 4.60695139 0.01248338 -0.67341353 0.77687510
Ga 0.02237595 3.04916116 4.54777846 -1.23365965 -0.47124140 0.95695989
Ga 12.57942019 3.14278405 4.54411610 -0.25696112 0.45783674 -1.76173433
Ga -1.34332195 6.12195450 10.32192107 -0.14105403 0.36815141 0.56391537
Ga 11.10168921 6.17833732 10.36205897 1.41495336 1.08023820 -0.31331963
Ga -1.40418728 3.06918471 10.29231969 0.54052192 1.05870185 0.87135622
Ga 11.20977894 3.13644344 10.32684360 0.99249868 -0.11393761 -0.52868906
Ga 11.07417801 -0.07143171 1.15266975 1.40757054 1.14243092 1.88859806
Ga 23.67335513 0.11437278 1.14981312 1.46118592 -0.67857261 -0.44066016
Ga 11.12400378 3.09433415 1.15089652 -0.69132706 0.53781145 -0.28124911
Ga 23.76335875 3.09208482 1.10040427 -0.86909033 0.67501090 -0.17874811
Ga 9.75893414 6.23522227 6.97080926 0.51480605 -0.81299651 0.74513639
Ga 22.27667048 -0.05116354 6.93742381 0.30843069 0.92589846 -0.33865961
Ga 9.73936170 3.08322971 6.90547191 -1.06689135 0.48601056 1.30974079
Ga 22.30869190 3.07840343 6.99022653 0.00726577 1.00674695 -1.70662881
Ga 6.32232881 1.60066609 4.53624360 0.72793953 -0.13440145 0.07559379
Ga 18.84647155 1.52938031 4.54728319 0.26957113 0.76109295 -0.04113674
Ga 6.35468401 4.70410502 4.58327557 1.64033471 -1.77247280 -1.39481822
Ga 18.90410109 4.70687806 4.55184617 -1.11185240 0.64614661 0.10528309
Ga 4.82482979 1.44687194 10.28526371 -0.33523716 -0.74764167 0.14196053
Ga 17.50586632 1.54066596 10.35129121 0.76395538 0.40740963 0.18002622
Ga 4.91118875 4.65971646 10.30779931 -0.05051138 -0.53612976 1.10520477
Ga 17.46219902 4.73686268 10.33782557 0.16333453 -0.10742739 -0.62594075
Ga 4.79600173 1.47356734 1.18643254 1.31078089 0.05407481 -0.32148647
Ga 17.38906761 1.50063016 1.22500914 -0.51116567 0.06679315 -0.30956825
Ga 4.83768759 4.68136970 1.22050459 -0.72028142 -0.20886278 0.44080979
Ga 17.35029052 4.65823243 1.14962696 0.03406950 -1.14246667 -0.91410950
Ga 3.48720249 1.60790203 6.94014375 -0.64004672 1.24849169 1.12185274
Ga 16.03203353 1.53927749 6.96188305 0.15062005 -1.23570805 -0.81690355
Ga 3.41929256 4.58163782 6.96661843 -0.29047048 -0.54536310 0.32601731
Ga 16.03002340 4.70269616 6.95365165 -1.11519263 1.34920371 0.45009419
Ga 1.50005662 1.51380781 1.84465984 1.03209042 -1.26278948 -0.50941415
Ga 14.06105337 1.54278179 1.76606957 -0.81684466 -0.06498498 0.28862825
Ga 1.60504328 4.60676120 1.82889199 0.67193036 1.27707945 -0.09299301
Ga 14.06503414 4.67875886 1.83033864 -1.02106054 -0.61948395 -0.42289795
Ga 0.16111420 1.60737592 7.64003964 0.92945571 0.04277579 -1.04280315
Ga 12.55035305 1.54689825 7.53810969 0.81129158 0.17355132 -0.17259629
Ga 0.18838734 4.70261164 7.49488684 -0.70161844 -0.87491315 -0.95674199
Ga 12.70035673 4.63584302 7.58277917 -0.33605030 -0.70285500 0.53951258
Ga 9.64618001 1.51498473 3.94715527 1.21056426 -0.30259254 0.32297170
Ga 22.11785156 1.49109812 3.99504071 0.96868746 -0.34848874 0.31990007
Ga 9.64740114 4.62197603 3.98753965 1.33639894 0.90672135 -1.48988560
Ga 22.10862018 4.69679176 3.91190106 -0.48803615 -0.25317639 -0.30267710
Ga 8.19876527 1.54565034 9.60138337 -0.76691107 -0.40769325 -0.09948793
Ga 20.73753034 1.55467595 9.64953500 0.55637190 -0.39973796 -0.39673543
Ga 8.17848524 4.70343133 9.69733999 -0.06558946 0.46811801 0.45585540
Ga 20.73537497 4.60992846 9.67068983 0.25799472 0.33164922 -0.61111852
Ga 7.81874234 -0.00890698 1.76513683 -0.58748683 -1.20933345 1.46243134
Ga 20.35244417 -0.03050219 1.86919746 -1.68765481 0.20522332 -0.42627351
Ga 7.88051338 3.10861887 1.82677622 -1.08243053 0.20929384 0.80779655
Ga 20.42972794 3.14856901 1.77395005 -0.95750489 0.51445512 -0.42652912
Ga 6.44337171 -0.01112154 7.59314317 -0.93332784 -0.60332787 -0.97591270
Ga 18.88321062 -0.10873860 7.57614470 -0.55576909 -1.15165502 -0.49198210
Ga 6.43866230 3.13087582 7.53434243 -1.30386779 -0.33383199 1.05410448
Ga 18.91564918 3.09096809 7.48541173 -1.52537960 0.22803823 0.71072387
Ga 3.28327497 0.03673370 3.93652757 0.19211098 -0.67659764 0.40081733
Ga 15.85510148 6.16877323 3.92657017 -0.66023519 1.01139101 0.47976702
Ga 3.33140156 3.12945562 3.89821396 0.23725141 0.50468551 1.34122511
Ga 15.88605063 3.18196135 3.90977896 -1.01899577 -0.58760975 0.38619353
Ga 1.94073991 -0.00912775 9.69620785 -0.32222967 1.45219150 -0.31492128
Ga 14.51099835 6.22722133 9.72836450 -0.20463054 0.25192253 -0.09923767
Ga 1.88702259 3.08087697 9.73189483 1.56474037 -0.10643558 -1.02016769
Ga 14.44013832 3.12260173 9.73798113 0.14533492 -0.65241915 0.21010911
O 1.92342692 6.19345662 0.61872557 -0.33529755 -0.78822075 -0.10191483
O 14.46419465 6.17623475 0.58251235 -0.72523102 0.94329875 0.07532779
O 1.88404668 3.17109087 0.56793852 -0.57380953 1.17726073 -0.15650473
O 14.44464254 3.12403883 0.70094635 -0.33936306 -0.28239830 0.10542163
O 0.57180697 -0.03290804 6.41119914 -1.29418654 -0.00218120 0.16223343
O 13.00811043 6.23185572 6.32856537 -0.27637453 -0.51712789 0.37908070
O 0.51847647 3.17824902 6.34429442 -1.43502311 0.14282063 -1.50267942
O 13.07347795 3.12783452 6.43064323 -0.66383316 -0.45288241 -0.38795077
O 9.27138104 0.01138295 5.16645447 0.17855451 1.36638380 0.73365658
O 21.89821976 0.00139407 5.14147385 -1.27987146 -0.01547925 1.26120410
O 9.26760845 3.06392313 5.10889277 -1.23155089 -0.39192435 -0.17456133
O 21.76928766 3.13036574 5.12007339 0.18627314 -0.25928804 -1.84938748
O 7.84936618 6.23141691 10.85680766 -0.48651268 1.12777323 -0.49424595
O 20.40888837 6.23989043 10.88052313 1.07764636 0.58147396 -0.34803698
O 7.89884501 3.03487523 10.88986839 -0.06913882 0.12514685 0.93288187
O 20.41867004 3.11071453 10.82698106 0.26154516 -0.50977309 -0.82758464
O 8.14101140 1.50035964 0.60401800 0.24073038 -0.40210783 -0.22760528
O 20.80754663 1.54734351 0.58709004 -0.66368394 1.40384367 -0.18977856
O 8.12412960 4.63262248 0.61343002 -1.03292894 0.92362624 1.20102700
O 20.74479289 4.68117637 0.65846466 -0.31695863 -0.48459389 0.61533400
O 6.81561252 1.58513243 6.40756569 -0.31015747 -1.16045641 -0.24879706
O 19.42818203 1.56806593 6.38393583 -0.46748673 1.01125653 0.46260591
O 6.76955042 4.64615196 6.35143435 0.26770404 0.18397755 0.05962582
O 19.26406182 4.77195635 6.34506584 1.54819530 -0.98932125 1.60822749
O 3.01602652 1.55054267 5.12190934 0.70490424 1.45724580 -0.51087242
O 15.54623112 1.56772748 5.05323909 -1.15451574 0.03320106 0.35825671
O 3.00152246 4.68672014 5.15574250 0.22537635 -1.61590217 0.24896066
O 15.49765424 4.67602276 5.07896029 -0.60706453 0.78749511 1.18563814
O 1.45933916 1.47344709 10.81117645 0.11068093 1.53141001 -0.15980981
O 14.19602925 1.56296893 10.80952098 0.51289388 0.81505310 0.77769286
O 1.61598387 4.69116725 10.90692685 -0.88435205 -0.56654176 0.46466105
O 14.13432454 4.68439201 10.84259564 0.90682727 -0.00055331 -0.57630831
O 1.40696420 6.21908896 3.17512759 1.13744071 0.08442260 -1.77644110
O 13.90917888 0.00136733 3.18504032 -0.68312797 -0.02335676 0.33307152
O 1.37387149 3.06581706 3.18704288 -0.26696670 0.58847608 -0.19935311
O 14.00639634 3.11391941 3.22470218 0.12334000 -1.28880837 0.69557496
O 0.02892340 0.06358822 8.96987458 -0.86647989 0.60560658 -1.09729891
O 12.59842473 0.03879128 9.03015039 0.03035042 -1.46290577 1.19852750
O 0.04923415 3.20890775 9.02609889 -0.83060799 0.53292475 -0.31719420
O 12.57356493 3.09143942 8.97732067 1.12032783 0.23801456 0.84079791
O 9.79944201 6.17503882 2.55291098 -0.41648819 0.15765924 -0.81302156
O 22.27221706 6.29326096 2.53907799 0.18812558 -0.41382618 -0.07887400
O 9.76005937 3.05517926 2.44193600 0.66984578 -0.89265266 -0.08465675
O 22.33493447 3.16319112 2.43975058 0.19950675 1.47784251 -0.21758715
O 8.39770718 0.02367939 8.31708907 -1.36262975 -0.23786946 0.61383721
O 20.94024453 6.23939289 8.26443173 0.86366907 0.27042502 1.02112597
O 8.37921154 3.11634478 8.24235020 1.20865113 -0.81447853 -2.78127417
O 20.90211017 3.08758114 8.23410038 0.73791783 -0.10381018 1.20808061
O 7.70534876 1.52515584 3.23591287 0.44406113 0.29535464 -0.66476170
O 20.16781049 1.53568362 3.30474361 1.34414708 0.73476999 0.29128445
O 7.66846953 4.60906338 3.23629055 0.45505949 -0.30389078 -1.19942954
O 20.20806348 4.66141590 3.27087109 1.46067478 0.83991653 -0.39446214
O 6.24400709 1.57889253 8.96670882 0.28813066 -0.66280625 -0.55837513
O 18.84954229 1.62228768 8.99042939 -0.39975531 -0.80747592 0.15714776
O 6.27277720 4.66873589 9.00276724 0.11337805 -0.32668820 0.26864262
O 18.83963151 4.69618266 8.94235576 -0.22130260 0.75896140 1.01517288
O 3.49657226 1.56788259 2.56330970 -0.16601544 -0.25847773 0.00369702
O 16.04010338 1.50539691 2.57982704 -0.63195349 -0.84113877 -0.05648958
O 3.53682456 4.69803603 2.57128335 0.95465111 0.28167093 0.80358822
O 16.00110876 4.62189947 2.52441323 0.22856017 -0.22790874 -0.48169778
O 2.07796614 1.51072182 8.24973126 1.63922969 0.24272850 -0.77847324
O 14.66443745 1.46645509 8.28941266 -1.17522072 0.49329025 0.13980168
O 2.01590459 4.65959144 8.24509268 -1.05342027 1.16452517 0.34860374
O 14.60647935 4.66047329 8.32338778 -0.29727250 -0.36484753 0.81283932
O 12.12542243 1.55297458 1.48020175 0.51932454 1.58451793 1.07153931
O 24.68987122 1.54594031 1.43669687 -1.09155804 1.02207935 0.52457376
O 12.12873544 4.72309214 1.51839870 0.22703141 -2.12842392 0.60965498
O 24.68273678 4.72760130 1.39543968 0.09962242 -0.51224623 1.23918032
O 10.74517737 1.48748758 7.27936608 0.39419770 -0.35782511 0.16108550
O 23.25810925 1.58999356 7.27694303 -0.28382206 -0.64768093 -0.73354281
O 10.78635924 4.65378263 7.15154368 0.71181158 -0.37593252 0.42634543
O 23.30275372 4.64297704 7.22596454 0.56973785 0.11468171 -0.07998935
O -1.02110241 1.51701432 4.22645268 -0.26463233 -1.44710229 -0.41634199
O 11.57735976 1.53787685 4.25406380 -0.15617549 -0.27554612 -0.76183372
O -1.03304206 4.63753288 4.19807622 0.93303883 0.19779704 1.58776109
O 11.54984499 4.64756688 4.22025185 1.75253728 -0.67903721 0.20929938
O -2.38134806 1.52679531 10.04348947 0.24074529 -0.83986923 1.31095887
O 10.20983567 1.53945432 10.08214674 0.61583807 -0.29645384 0.21792843
O -2.39821469 4.68625893 10.05430361 0.53667342 0.99764472 -0.97261330
O 10.10969702 4.67027541 10.03494338 -1.58566745 -0.98986558 -0.43505833
O 5.90281799 6.21476826 1.48214391 0.84174776 -0.63956308 -0.89034509
O 18.38632358 0.01419533 1.43916289 0.35006805 0.79897007 -0.89425259
O 5.85835510 3.12185300 1.53228332 0.23416656 0.65321253 2.06797178
O 18.34174274 3.15057870 1.51521286 -0.81020653 -0.71185102 -0.35654134
O 4.47465972 6.23218504 7.22022238 1.55166402 -0.78313012 -1.06228906
O 16.96577548 0.05435196 7.23549411 -0.83548439 -0.72323017 0.67207200
O 4.48301572 3.02463387 7.23084325 -0.13935327 -0.39758329 -1.22545662
O 16.97731399 3.16910822 7.24716527 0.57214358 0.07644345 -1.30430347
O 5.31244936 6.15548238 4.31950139 -0.10569821 0.02270444 -0.23994376
O 17.83602668 0.04746412 4.31712759 0.03515780 0.50481218 0.32687483
O 5.35684949 3.10984410 4.31543692 0.59925573 -0.34393724 -0.80973524
O 17.83799440 3.06315766 4.29320116 0.79316105 -0.36476587 -0.82908820
O 3.83858885 6.22110030 10.00351421 -0.34229312 0.67003037 0.46985628
O 16.42824408 -0.03873179 10.10973722 -0.60369858 1.36750009 -0.05547985
O 3.85366252 3.09993059 10.02132439 0.32269420 -0.12821090 -0.33176095
O 16.43192436 3.07231345 10.02419995 1.06287239 1.58539977 -0.64594015
159
Lattice="25.013745 0.000000 0.000000 0.000000 6.193062 0.000000 -2.790328 0.000000 11.466117" Properties=species:S:1:pos:R:3:force:R:3 Energy=-627.887602 Virial="-52.398709 0.888265 -3.940306 0.888265 -45.970316 -4.584353 -3.940306 -4.584353 -43.730530" pbc="T T T" defect_vacancy
Ga 12.53152305 6.21724463 4.55181290 -0.41383083 0.01103680 1.20960104
Ga 0.03524966 2.99578279 4.55868186 1.43260888 0.48218898 0.19840905
Ga 12.49661608 3.04890487 4.57350402 -1.57447594 0.36833277 -1.40742179
Ga -1.31842646 6.18830039 10.32477375 0.99335499 -1.94408945 0.80921459
Ga 11.10891455 6.27354145 10.23253239 -0.03014339 0.48935494 1.06838679
Ga -1.38519239 3.12363954 10.28635119 0.78615818 -2.08604778 1.21029280
Ga 11.17189282 3.00886350 10.28648843 0.96652317 -0.91196582 1.22065243
Ga 11.09001171 -0.00146348 1.11060029 -0.11393872 -0.62768679 0.46066402
Ga 23.59064829 -0.00713112 1.18597158 -0.38485322 -0.63562282 -0.84229477
Ga 11.14171877 3.09774045 1.19920460 0.54831035 0.98414074 0.33150083
Ga 23.65540115 3.14151132 1.07741799 1.27134555 -1.37519463 -0.87498872
Ga 9.73340072 6.22465654 6.89890069 0.86430640 -0.60592264 -0.34120683
Ga 22.19277304 -0.04305852 6.83211176 1.15817173 1.18564722 -0.13156034
Ga 9.73532583 3.12655374 6.90629301 -0.28311859 -0.44288824 -0.00773705
Ga 22.23791326 3.13836662 6.83971413 0.34859755 0.38156025 -1.20996833
Ga 6.27703942 1.53950961 4.57581430 0.74130052 -1.52059923 -0.12140073
Ga 18.78605565 1.57771694 4.49351528 -1.29958355 0.34864053 0.83636089
Ga 6.31788018 4.62307760 4.55226120 -0.39367151 0.94822340 -0.46412246
Ga 18.70456863 4.64103530 4.55505890 1.48754639 0.29969338 1.38150176
Ga 4.86925654 1.51027234 10.24622377 -0.79181976 0.06605894 -0.05067324
Ga 17.40966575 1.47296213 10.31707142 -0.40529839 0.04737143 0.37656223
Ga 4.94464255 4.73741960 10.25054249 0.88490790 0.19342240 -0.28545724
Ga 17.40639304 4.62019807 10.33793092 -0.78136977 -0.29201657 -0.66908695
Ga 4.86029520 1.53429802 1.13949817 0.10374760 1.78017625 0.32701269
Ga 17.32716285 1.52518396 1.17476037 0.69986803 -0.87762172 -0.57671692
Ga 4.84327399 4.62093971 1.15220570 -0.43434019 0.82640754 -0.95351046
Ga 17.37100466 4.67537412 1.14719464 1.20015435 -0.15481840 -0.69941592
Ga 3.44665016 1.51695641 7.01158810 -0.59950541 0.26012795 -1.44662124
Ga 15.92458735 1.55479653 6.93144517 -0.49965410 0.76287189 -0.79628600
Ga 3.41910862 4.60900920 6.90240326 -0.01119446 0.70878841 -0.37609769
Ga 15.91864320 4.65708753 6.87314350 0.40527507 0.92322541 -0.26112367
Ga 1.54880426 1.46948137 1.76589707 0.89976342 0.53135701 -0.56669451
Ga 14.03691054 1.58647674 1.72632085 0.35899728 -1.30449246 -1.38004575
Ga 1.58743476 4.67304072 1.72826791 -0.69320659 -0.18904438 -0.30248755
Ga 14.07281707 4.60107442 1.82351087 -0.36840718 0.39237623 0.32267398
Ga 0.17337278 1.57651118 7.51039624 -0.65216246 -0.69273899 -0.55690562
Ga 12.68190403 1.60990395 7.52133310 -1.45511861 0.16618229 0.10959601
Ga 0.14314461 4.67215926 7.41613936 -0.19038216 -0.57983852 0.71703647
Ga 12.61671270 4.68758056 7.53937543 -0.66781396 0.03707991 0.65187396
Ga 9.55718292 1.51433266 3.93366577 0.33633703 0.10506925 1.14617013
Ga 22.05656295 1.48009621 3.98575999 0.05349295 -0.22016806 0.15181546
Ga 9.54126720 4.63542785 3.85693336 -0.62077335 -0.61544386 -0.20253363
Ga 22.05658424 4.68784255 3.97564738 1.53591563 0.32931651 0.30228238
Ga 8.16922551 1.51988235 9.66491333 0.98199931 -0.63395920 0.35026257
Ga 20.69659658 1.49376298 9.67118626 -0.01591575 0.15977255 -1.42466201
Ga 8.20053978 4.64176334 9.66518761 -0.29409195 0.06231963 0.08203746
Ga 20.65243958 4.65944197 9.73171104 -1.56741031 0.21311893 0.52458752
Ga 7.85114275 -0.01953376 1.78339372 0.70406930 0.41659942 0.21247617
Ga 20.36183908 0.03010909 1.82754877 1.86092694 -0.24764256 0.79711641
Ga 7.72578011 3.13364521 1.79141977 -0.30925321 -0.90359152 0.55250460
Ga 20.30582422 3.07071058 1.86616497 0.60440215 -0.24020554 0.59170362
Ga 6.36693113 0.07919412 7.53145261 -0.71538656 -0.51326915 0.48833509
Ga 18.90190235 -0.03292517 7.51154336 1.62561883 1.11787791 0.14775001
Ga 6.39807732 3.10409869 7.56392142 -0.88280936 -1.07180346 -1.14518770
Ga 18.89865818 3.12221011 7.57647328 1.02362093 -0.33102041 1.54820746
Ga 3.35974107 0.02817739 3.95730864 -0.40655231 -1.27118896 -0.04688338
Ga 15.77823111 6.19613315 3.89196087 -0.11500267 -1.60142123 0.52308782
Ga 3.35276554 3.11154476 3.98132055 -0.70511076 1.34819276 -1.27306232
Ga 15.87123447 3.11399658 3.90114523 -0.73571282 0.54796175 0.13482479
Ga 1.82876882 0.02454160 9.65617408 -0.68848094 0.94275807 0.20585765
Ga 14.45844853 6.21965892 9.69502810 0.58992648 -0.19189244 -0.08127608
Ga 1.93344027 3.02544837 9.71071109 0.86880119 -1.07944299 -0.61296949
Ga 14.37621543 3.07329853 9.65110276 0.44064317 0.56552202 -0.67735003
O 1.88859178 6.18021697 0.60353083 0.57859211 -0.18374100 0.31829092
O 14.43326054 6.13296733 0.59879447 -0.39499020 -0.06262707 1.27060521
O 1.81430359 3.07019925 0.55598551 -0.93842673 0.22260952 -1.28877693
O 14.41041744 3.10668081 0.59743952 0.91995181 -1.41843286 0.15915206
O 0.35944028 -0.05513513 6.31832572 0.56914090 -1.10113318 0.32255036
O 12.96937853 6.21971399 6.29266179 -0.90052341 -1.10028917 -0.74227215
O 0.44835621 3.02797863 6.36668068 -0.87235658 1.47323558 -0.78311136
O 12.90312200 3.02086839 6.37246535 -0.23869695 -0.12901531 -0.42021680
O 9.28950802 0.00532667 5.10142180 -0.52725336 -0.17606672 0.57062639
O 21.82294055 -0.01947956 5.08721311 0.54192655 1.55050655 -0.06450911
O 9.20141336 3.16088027 5.14091729 1.84669080 0.69705557 0.63070263
O 21.75160801 3.10865057 5.09225536 1.13777480 1.70553591 -0.28569160
O 7.81993843 6.15047658 10.83552415 -0.61321025 -0.01895276 -0.07217751
O 20.35151150 6.17547354 10.86727918 1.24066459 -0.80439169 -0.08214217
O 7.84568347 3.10109462 10.80720635 0.22926290 -0.85230516 0.32508033
O 20.29386620 3.03631293 10.88348895 0.23868286 -1.00349477 0.92168582
O 8.06487482 1.54951175 0.62695984 -1.26840063 0.47858442 0.26576429
O 20.62508661 1.55278741 0.63117680 -1.68822226 0.42994682 0.48447599
O 8.10161698 4.61648887 0.61386832 -0.11385151 0.30557256 -0.07958612
O 20.63989936 4.58790953 0.62759881 0.46721876 -0.07454860 0.06952236
O 6.74878232 1.58801691 6.34515839 -1.45836475 -0.10784588 0.23206445
O 19.23499955 1.56895410 6.39989740 -0.07068049 -0.56788530 -0.67330160
O 6.68616127 4.62205511 6.27539073 -0.12905976 -1.68080065 0.43022286
O 19.21301002 4.70402279 6.30579736 -0.38980981 0.87177356 -0.06135210
O 2.98749616 1.55346152 5.07880609 0.86785998 -0.77599903 0.69010109
O 15.45542991 1.60834371 5.14734513 0.41252731 1.15232733 -0.49270015
O 3.06779883 4.53488218 5.12743447 -0.25166141 -0.32852261 0.56455001
O 15.37901338 4.62817413 5.08370687 -0.85431181 -0.13640253 -0.47856666
O 1.52112038 1.51073119 10.82383105 1.09602695 -0.10805011 0.40693285
O 14.09357431 1.50232500 10.80592961 -1.13443569 0.09559673 1.37554450
O 1.59376902 4.66176647 10.94309492 -0.98152973 -0.44130231 1.77316363
O 14.08356322 4.67341951 10.82636634 0.19255908 1.16254450 -0.05604211
O 1.43315076 6.15090493 3.23537004 -0.99889941 -0.55062417 0.10978886
O 13.89036522 0.01715840 3.27163887 -0.13173309 -0.41823478 0.04135997
O 1.36965972 3.12220730 3.18563078 -0.77831012 0.57780653 -1.09213057
O 13.91572828 3.00687826 3.22139870 -0.64725894 -0.37549175 -0.43698688
O 0.08638323 0.00864050 8.95811136 0.75598725 -1.13641568 0.28367763
O 12.51774773 -0.00328326 8.91756960 -0.49066825 -0.10414329 -0.50615913
O -0.08806448 3.09981847 8.94993542 0.20330983 -0.50928384 0.29260923
O 12.48426318 3.12124156 9.01730277 0.23855864 -0.02031746 0.51512795
O 9.75349486 6.16168303 2.49050130 1.05784022 -1.08736215 0.51798454
O 22.25479037 6.22165769 2.52265745 -0.36398347 -0.65759427 0.92479991
O 9.70430032 3.13284573 2.53681901 0.54445489 -1.02689295 0.40824639
O 22.26254050 3.21129078 2.51894145 -0.61144990 1.34134654 -1.81441243
O 8.37577052 0.02746352 8.22519993 0.21739739 0.94528340 0.61581895
O 20.78331489 6.15416633 8.19036780 -0.10905213 -0.73767802 -0.98483010
O 8.28265343 3.10087311 8.23725352 0.30383600 1.15446510 1.24733633
O 20.87908537 3.05536391 8.25653134 -0.15408409 0.40877160 -0.60758943
O 7.64969231 1.57001668 3.22309957 -0.11343259 0.24411308 0.99636031
O 20.23415727 1.50777836 3.21634900 0.81783227 0.92509056 -0.00402035
O 7.64246182 4.65044914 3.23881256 0.42779584 0.99352398 0.50590128
O 20.14317749 4.68380781 3.26584705 -0.88512198 -0.64219934 0.33596600
O 6.23484925 1.63938878 8.98196951 -0.98129897 -0.62863523 -0.38572967
O 18.73981558 1.59800357 8.89276257 -1.66027225 0.13259292 -0.96032846
O 6.20606961 4.63235590 8.91982513 0.07715474 0.10848205 -0.83654436
O 18.78072301 4.67418258 9.03017035 1.64680439 -0.43960203 -1.25646964
O 3.44592829 1.57506787 2.54338377 -0.31757090 -0.67384723 1.21693759
O 15.98387984 1.57199311 2.50868437 -0.82703599 -1.23006402 -1.08241043
O 3.52538304 4.60549862 2.44349383 0.65720812 0.14306128 1.49555884
O 15.96028708 4.63621655 2.51094027 0.92915104 -0.19299423 -1.37171620
O 2.09032896 1.52276765 8.18397277 -1.26549132 -0.95690959 -0.59873698
O 14.63628214 1.54578607 8.21278905 0.92203188 0.12363681 -0.86286034
O 2.08833464 4.60768977 8.19201866 -0.50626032 -0.25079572 -1.06429567
O 14.60800529 4.60012432 8.17528896 0.36854383 -0.98821820 0.38269158
O 12.08120527 1.55041209 1.52725261 0.14477992 -0.38591102 0.63793465
O 24.61220019 1.57463749 1.43441703 -0.21198322 0.36675951 -0.29293784
O 12.10855052 4.58733705 1.51033557 -0.29504115 0.42430241 -0.04696511
O 24.61824828 4.64283473 1.47804700 -0.51719922 -0.16478840 -1.62147891
O 10.68269093 1.53014875 7.15423174 -0.22754035 -0.65624371 -0.63593298
O 23.28192529 1.53870989 7.19961926 -0.64221325 0.18656383 0.54246101
O 10.73397790 4.64169239 7.12477870 -1.33552519 -0.28203530 0.10907980
O 23.29301646 4.62088560 7.17420735 -1.74054306 0.99048684 -0.17226266
O -0.99599409 1.53053942 4.24102196 -0.07532813 -0.64715125 -0.85884828
O 11.52938645 1.47006076 4.30406347 0.64609631 1.49446900 1.68942671
O -0.95433043 4.58167930 4.27268297 -0.38883084 1.20632349 0.48816708
O 11.48122789 4.62732330 4.27570094 1.16988147 -0.34172427 -0.79275186
O -2.34629965 1.55355384 9.93248772 0.63526830 -0.32526997 0.02046890
O 10.12501956 1.57248754 9.96092926 -0.42070876 -0.01400308 -1.20853848
O -2.41465887 4.63694365 10.01687873 -0.40282653 1.37607436 -0.85212789
O 10.09585319 4.65779395 9.93766374 0.71136481 -0.38946077 -0.07222465
O 5.86063809 6.11881115 1.48846875 0.44449310 0.39878489 0.46971993
O 18.39786346 -0.00295455 1.50280497 -0.83441151 0.76909652 2.21905036
O 5.84961010 3.04696263 1.41902328 -0.32483559 -0.21132434 1.46596026
O 18.33658056 3.09293508 1.42762216 -0.66988314 0.38609914 -0.22656234
O 4.41229866 6.07109588 7.27769788 -0.34867950 0.55458713 1.45606037
O 17.02470249 -0.03232378 7.14804161 -0.26539232 0.96208204 -1.36317874
O 4.50493411 3.01003703 7.24111721 0.68812762 0.82770069 0.14066899
O 16.99127306 3.07516428 7.25970536 0.80345607 1.69332295 -0.57989480
O 5.24094830 6.22454549 4.25900775 -1.65186589 1.57728045 0.57716252
O 17.71774971 0.08870702 4.24310270 0.86399757 0.34125007 -0.24334278
O 5.25673725 3.13846497 4.31364142 1.80592371 0.04484719 -0.06477990
O 17.71992485 3.15517794 4.26226279 0.90183629 0.45233041 -0.85391361
O 3.86401837 6.17991494 9.99595282 -0.28492880 -0.06224749 -0.40373481
O 16.31838119 0.02054579 10.01202224 0.17549961 -1.97031677 0.29570728
O 3.85520881 3.10329366 9.98751424 -0.17784518 -0.09765790 0.03987742
O 16.36969728 3.11711793 9.98245918 0.31328363 0.90477762 0.48908737
159
Lattice="24.767792 0.000000 0.000000 0.000000 6.132168 0.000000 -2.762892 0.000000 11.353374" Properties=species:S:1:pos:R:3:force:R:3 Energy=-629.133718 Virial="-53.378070 0.255160 -2.705705 0.255160 -43.301338 -4.763376 -2.705705 -4.763376 -40.680676" pbc="T T T" defect_vacancy
Ga 12.36386245 6.08671045 4.49713163 0.61338108 1.11380523 -0.35026724
Ga 0.01990074 2.99665509 4.52689470 -0.70254336 0.48151939 0.90574739
Ga 12.44980436 3.09152637 4.48351122 1.58263053 0.81727689 1.20917539
Ga -1.39455617 6.13999023 10.18227572 -0.50202775 -0.59554589 -1.44171734
Ga 11.03394988 6.15461748 10.23802274 -1.06475656 -0.18691928 0.08849704
Ga -1.41286206 3.07202855 10.17189243 -1.19227495 0.75669638 -0.14833789
Ga 11.00358253 3.09596235 10.22867370 -0.65555535 -0.50840330 1.55065188
Ga 11.04678015 0.01994358 1.15797433 -0.00641181 -0.61451354 -0.82908458
Ga 23.36011295 -0.06308347 1.21826860 1.32846505 -0.35885302 0.88506453
Ga 10.97579139 3.08310172 1.19802661 0.99682461 -1.75569339 1.01488117
Ga 23.32318646 3.02658749 1.22314343 -0.30854020 -0.76347518 -0.50097270
Ga 9.61773038 6.10889443 6.83639728 0.30692212 0.40300894 0.27451257
Ga 22.03616858 0.03945827 6.78317537 -0.72171131 1.12709475 1.13580564
Ga 9.67131548 3.10415363 6.83624602 1.32545656 0.90419781 1.44955290
Ga 21.94347105 3.10912804 6.86264361 1.53334707 0.66723249 0.63903095
Ga 6.14713283 1.52470228 4.63874865 0.32397280 0.54496721 0.62469689
Ga 18.59461790 1.50203219 4.47168338 -1.50898001 -0.15521100 0.32438666
Ga 6.27460059 4.63227127 4.56911536 -1.82765933 -1.04964475 1.20169989
Ga 18.60027005 4.64966382 4.47705752 -0.98912459 -0.26765015 0.23419658
Ga 4.83104273 1.53605215 10.24907888 -0.52257973 -0.58481137 -0.47875439
Ga 17.22583567 1.50226093 10.18632271 -0.48435251 -0.36001881 0.07999256
Ga 4.76185258 4.51020004 10.22592229 1.14605712 0.38887151 1.23394672
Ga 17.19685071 4.58659319 10.22102003 0.44993725 0.77269792 0.40343158
Ga 4.85281887 1.55216687 1.24147436 -0.38092171 0.44113973 0.17644548
Ga 17.19153530 1.54898398 1.17378823 -1.03165744 0.70243174 0.39627549
Ga 4.74315485 4.63570696 1.06856884 0.15300155 -0.34294451 -2.17260617
Ga 17.15190071 4.60257548 1.13651520 1.03217394 0.04758666 -1.80783103
Ga 3.39685017 1.60984476 6.88351650 0.37795925 -0.45569035 0.48362400
Ga 15.77782783 1.51069368 6.79458211 -0.22328237 1.01125026 0.12084736
Ga 3.44004129 4.58777528 6.76694402 0.08181708 0.22378185 0.91859410
Ga 15.80041320 4.62139250 6.87774213 -1.17853209 1.04533454 0.48514661
Ga 1.52483387 1.52188928 1.85994471 -0.58531939 0.10195892 -0.42310367
Ga 13.91578975 1.56002669 1.76094857 -0.09431414 0.85609681 -0.60934072
Ga 1.55920808 4.54273787 1.76351113 0.45273332 0.85638164 0.44390463
Ga 13.86480176 4.56847100 1.83297603 1.10851193 0.04624983 0.48838673
Ga 0.12220051 1.55832577 7.51987354 1.84102644 0.12665331 -0.17723522
Ga 12.52908792 1.57283229 7.48015822 -0.13830549 0.57314351 -0.56046451
Ga 0.15290039 4.62809542 7.52956254 -0.33789254 -1.30003336 -0.90548192
Ga 12.50604106 4.56323064 7.41843656 -0.95869102 -0.82422746 -0.42122290
Ga 9.51152197 1.58191124 3.87245245 0.41297924 -0.20272045 -1.12445874
Ga 21.77527424 1.50774003 3.91689094 0.05203632 0.23943448 -1.18728365
Ga 9.47230378 4.60782933 3.86869965 -0.02305883 -0.75487012 -0.57186563
Ga 21.90146705 4.61563423 3.92314301 -0.73203059 0.76000629 -0.72675754
Ga 8.09426197 1.55065964 9.58720143 -0.39900026 0.24856985 0.75913278
Ga 20.43594239 1.55328788 9.59782736 0.80247383 -0.71262835 0.88087490
Ga 8.13575369 4.61515415 9.53231437 0.09614534 1.05915845 0.77607714
Ga 20.44568786 4.58445098 9.57990334 -0.56822290 0.13423539 -0.30170959
Ga 7.71335608 -0.04149300 1.73550396 0.15665677 1.42643145 -0.02234429
Ga 20.02360233 -0.11853186 1.78153951 -0.67297619 2.13077570 -0.86121856
Ga 7.81424286 3.13847140 1.74578454 -0.14119084 0.09202679 -1.08216787
Ga 20.10291225 3.00987429 1.72999611 0.49173119 0.95418488 -0.13130548
Ga 6.29504251 -0.00793737 7.44896459 -0.09581238 -0.02647532 -1.47500047
Ga 18.73278279 0.02890237 7.44491315 0.05301342 -0.89079711 -0.83130394
Ga 6.34466758 3.02448647 7.41440132 0.17571897 0.84376216 -0.75943145
Ga 18.66113665 3.09614560 7.44161443 0.77033310 1.51722150 0.07144502
Ga 3.20992853 0.00055532 3.84862918 -0.20225417 0.26676620 -0.38575952
Ga 15.73149784 6.10378056 3.92391549 -0.82319406 0.62089833 0.51078368
Ga 3.32307791 3.03132304 3.90047182 -0.53980347 -0.21712257 -0.56102338
Ga 15.69076708 3.07052683 3.90401787 -0.69940283 -0.66728408 -1.26704218
Ga 1.84642172 0.02496223 9.54843867 0.58246914 -0.17380338 -0.00922091
Ga 14.29856227 6.16764614 9.60275191 1.29117608 -0.28191638 0.39620914
Ga 1.91859114 3.08708106 9.59271029 -1.21746819 -0.39472067 0.48781903
Ga 14.34446385 3.06735367 9.57585385 -0.35056530 -1.03829860 -1.29049493
O 1.90657754 6.11247256 0.56619820 0.12283704 -0.64172963 0.47016718
O 14.27928514 6.11716298 0.56101839 0.07072789 -0.15644625 -0.12494703
O 1.89952649 3.13808782 0.54723846 0.44829591 0.12309079 -0.82580463
O 14.28054549 2.96725287 0.60759004 0.11543975 -0.18370152 -0.25642981
O 0.55621955 -0.00729303 6.30332543 0.30275603 0.35617667 0.73199057
O 12.88664938 6.05988345 6.29065373 -0.29583055 -0.26347257 -0.34113940
O 0.50001556 3.13907689 6.25453917 0.14937024 -0.53781939 -0.35640169
O 12.84690180 3.02394387 6.24976037 -0.81345568 -0.51393162 -0.21183762
O 9.18290210 0.00381718 5.04147554 1.75322360 -0.20161380 0.13260845
O 21.50138418 -0.02115849 5.03876713 -0.07135535 -0.03692606 -0.04495045
O 9.08160675 3.06001521 5.05465344 1.39118712 -0.10340360 1.18766515
O 21.48649247 3.07135202 5.06986732 0.36376573 -0.57862211 -0.57555421
O 7.73358165 6.12243934 10.83101632 -0.50405982 -0.74764306 0.83021759
O 20.22502641 6.08033028 10.69179529 0.17922497 0.51581770 -0.86961155
O 7.71576567 3.10536650 10.71937439 0.22112860 -0.31641202 1.83035218
O 20.15248759 3.13094548 10.73297019 -0.21371916 0.32399842 0.25709896
O 8.08223200 1.54757184 0.58972381 -0.51273676 -0.20178111 -0.37370184
O 20.49175429 1.50495337 0.67178383 0.52185494 -0.46505832 -0.19135032
O 8.04420984 4.58324472 0.56960374 0.11394022 -0.21594173 -1.13141683
O 20.40407469 4.58204514 0.52404337 -1.07222351 -0.22182648 -0.82130726
O 6.67146013 1.51581172 6.31853611 0.60630947 0.11282858 -0.08977225
O 19.08207420 1.49814163 6.27783026 -0.93135631 0.50781692 -0.34883975
O 6.66920383 4.66017286 6.26794808 -0.88767867 -0.39906302 1.78101956
O 19.03683134 4.55729951 6.23056412 -0.62125321 -0.57777030 0.82258997
O 2.95551675 1.53363960 5.10689438 0.42471705 -0.12614671 0.99745389
O 15.36671196 1.63687204 5.06001830 -1.28873909 -0.27728313 -1.34946783
O 2.94221096 4.54308425 5.08734032 0.90937924 0.12576276 1.93326267
O 15.33060145 4.61398309 5.00070285 0.20313221 0.46028079 -0.95797832
O 1.56943286 1.53187419 10.73867209 -1.07642950 -0.29557949 0.61032940
O 13.91420720 1.58439890 10.81477538 -0.97905255 -1.77635234 0.55785835
O 1.51698357 4.62014689 10.62011217 0.52673006 -0.65210782 0.22886113
O 13.96908672 4.53150019 10.71172465 0.67802240 0.96025771 -1.33912852
O 1.31491709 6.12266906 3.24369711 -0.15074981 -0.55754958 0.61793342
O 13.67348469 -0.01280002 3.18579678 -0.13658945 -0.90490874 -0.05706879
O 1.43143485 3.07736529 3.16718833 0.24563692 -1.17938782 -1.19958190
O 13.75401332 3.11826696 3.23120156 -0.75280328 -0.21897398 -0.59572884
O -0.04628379 -0.00871631 8.88347208 -1.65874610 -1.20859159 -0.18821213
O 12.35671431 -0.06582620 8.85129092 0.08716514 -0.68160101 -0.02737544
O 0.04538782 3.05854510 8.86946856 1.23710603 -0.14776814 -0.49575196
O 12.38114322 3.14981369 8.87781719 -0.77553835 0.39198566 0.03694961
O 9.67581279 6.09363055 2.45348958 -0.01808765 -0.25854661 0.18938560
O 21.99555520 6.09737844 2.46953205 0.11888902 -0.06875039 0.78152122
O 9.66623621 3.02895427 2.45859529 -1.41326874 0.60938467 -0.21361336
O 22.03951191 3.03016529 2.50832767 0.46962097 1.54837689 -0.06747131
O 8.25088644 -0.00478737 8.06913109 -0.32877636 0.05248009 0.98624681
O 20.61059476 6.13898641 8.20970642 1.03691339 0.20849423 0.41738704
O 8.27180897 3.12678502 8.10776703 1.24696973 0.50883692 -1.25692083
O 20.62152907 3.12188578 8.10451240 -0.79494292 -0.28660744 0.23413898
O 7.60246369 1.56899914 3.20620672 -0.59010657 1.19034727 -0.44138943
O 19.93919988 1.48464147 3.27785322 1.09084070 -0.40988150 0.99623260
O 7.58792754 4.60267938 3.18154430 0.01360388 1.23167993 1.48805252
O 19.94860890 4.62349236 3.22590202 1.25063553 0.94220659 -0.63419635
O 6.20444676 1.51922309 8.81749725 -0.75834458 -2.37703621 1.12188164
O 18.56983768 1.46315319 8.87274927 0.88563937 0.94209503 -0.92580365
O 6.16924579 4.61455466 8.95807708 2.07144518 -0.38800633 0.65975768
O 18.48645809 4.68872245 8.86745389 -1.37897753 -0.33655322 0.94985520
O 3.44883552 1.48051072 2.50756418 0.71985153 -0.70467818 -0.08542148
O 15.82193680 1.51502989 2.41048469 0.79343522 -1.30565360 0.58912933
O 3.44159949 4.62418894 2.47146740 -1.32306501 0.64825160 -0.22834516
O 15.86532903 4.63942586 2.44327705 0.67880383 -0.26732365 -0.31156553
O 2.11571649 1.53770412 8.14504076 -0.39395160 -0.63114553 -0.26909456
O 14.43190984 1.53881393 8.04567192 -0.93415899 -0.33240280 0.48279188
O 2.04774933 4.54623633 8.20483680 -0.39281168 0.96066423 0.50021468
O 14.49644922 4.62915098 8.13801139 0.52015670 -0.79763362 0.26646311
O 11.93617927 1.49860445 1.53549387 1.00585314 0.82756117 0.91284208
O 24.32902200 1.44448916 1.50202403 1.07001019 -1.09451936 0.39135895
O 12.04211162 4.65293047 1.50076223 0.29852461 -0.04729503 -1.10469172
O 24.41974792 4.60135225 1.36043449 -0.02200360 -0.01957905 1.49000953
O 10.59819920 1.55917607 7.11613862 0.90432583 -0.21841624 -0.90106441
O 22.97522511 1.49404016 7.10127407 -0.81229415 0.06684687 -0.63814790
O 10.67448333 4.67056375 7.14657114 1.43520304 -0.83938088 -0.13109494
O 22.99512983 4.55521341 7.16262693 -0.01896295 0.44241328 -0.79397936
O -0.90937197 1.47476282 4.23755897 -0.31061870 0.25960369 0.20781894
O 11.43297776 1.55038197 4.29835279 -0.59136777 -0.12424079 0.12450104
O -0.90129676 4.59420597 4.23955433 1.39673956 -0.83424559 0.50885442
O 11.40560918 4.57388076 4.23056123 1.13709300 -0.97954294 1.11233203
O -2.33068503 1.53384306 9.85459904 1.00849527 0.19027061 0.73755830
O 10.00438082 1.51940403 9.85989284 1.07662680 0.02946118 0.16439735
O -2.34487431 4.61090406 9.93484706 -0.94102955 -0.39121300 0.04660105
O 9.98472507 4.57937353 9.95205886 -0.15424623 1.44655103 -0.17823661
O 5.78571950 6.13199223 1.45455815 -1.03768203 0.87496325 0.73357587
O 18.22737512 0.05055707 1.51048050 0.24227206 0.06482336 -0.62190620
O 5.78344012 3.03664884 1.52885746 -0.58481690 1.38389581 0.62615872
O 18.20487467 3.05014146 1.50153157 0.01221357 0.50876009 -0.26764591
O 4.39581917 6.18095806 7.19898522 -0.80377378 -0.20006872 -0.03949343
O 16.75292685 0.02473032 7.16609608 -1.37809976 -0.97811637 -1.37997537
O 4.50760754 3.03470330 7.18650862 -0.44610695 0.63707998 -1.08433347
O 16.79967690 3.00911935 7.12835035 -1.01031310 -1.13955082 -0.41065834
O 5.21564500 6.08769643 4.23950559 -1.06659823 -0.68050407 -0.92938830
O 17.63003647 0.01645053 4.20776826 1.65386486 0.03702667 -0.58139164
O 5.21611289 3.07520818 4.23079524 -0.49732459 0.79656046 0.70926722
O 17.64231481 3.07796447 4.16449480 0.07332662 -1.45429850 0.71827849
O 3.80701312 6.13242218 9.94329307 0.70923089 0.72370065 0.31467319
O 16.27160143 0.07522832 9.91071354 -0.07577430 1.06183821 -0.30003572
O 3.86238225 3.00645525 9.91462949 0.69342315 -0.26865365 -0.36168731
O 16.16866200 3.06742582 10.01444645 -0.48473145 -0.32916092 -0.44581101
159
Lattice="25.221856 0.000000 0.000000 0.000000 6.244588 0.000000 -2.813544 0.000000 11.561514" Properties=species:S:1:pos:R:3:force:R:3 Energy=-627.759264 Virial="-55.947186 -2.568777 -1.452774 -2.568777 -44.953857 -5.685519 -1.452774 -5.685519 -41.752048" pbc="T T T" defect_vacancy
Ga 12.69644204 6.33499769 4.59776317 1.54550278 0.18149956 0.23960593
Ga 0.05069227 3.09150314 4.66016278 -0.12288682 0.64690550 -1.28212759
Ga 12.63235778 3.13846266 4.61793871 0.59875069 -0.22606284 0.27257368
Ga -1.33812581 6.27267473 10.34977463 0.37818760 1.21990779 -0.99308545
Ga 11.19334406 6.19657375 10.35106702 0.10051294 -1.64171114 -1.29057614
Ga -1.32813113 3.14514759 10.36059905 -0.87186341 -0.04442028 -0.50168550
Ga 11.22532190 3.21907400 10.34830753 -1.76866981 1.68312074 0.25890633
Ga 11.21526036 -0.00245736 1.24425283 0.42336697 0.97584159 -0.22090729
Ga 23.71920428 -0.06148281 1.18745296 -0.54104476 0.74213579 0.53485902
Ga 11.21324482 3.13454662 1.25642668 1.30906037 -0.10184325 -0.81792417
Ga 23.81977876 3.04827150 1.16409122 1.00174818 -0.08460949 0.48138059
Ga 9.73736109 6.15387770 6.94823926 -0.36839616 -0.48721420 0.22465729
Ga 22.35806623 -0.01564049 6.96830388 0.01608859 -0.85855067 -0.44257459
Ga 9.83933351 3.16271058 6.96435559 -1.32833836 -0.43791618 -0.24573864
Ga 22.37614511 3.11263356 6.96350658 0.01144450 0.53707990 -0.79306596
Ga 6.31045068 1.62207321 4.62288110 0.72447715 0.46703631 0.20523798
Ga 18.94782861 1.54882022 4.55563394 0.16453242 -1.54147797 -1.95935316
Ga 6.31723332 4.67849739 4.63646814 2.18077858 -1.30183813 -0.09287590
Ga 18.94723407 4.67078524 4.53976015 0.51752851 0.31103851 -1.24949398
Ga 4.86449516 1.52051148 10.43435461 -0.63704238 0.92947947 0.37977521
Ga 17.57197218 1.52825356 10.38732052 0.49451629 1.59051720 0.62785746
Ga 4.94836043 4.61501491 10.36686089 -0.77896933 -0.00944107 -0.21642475
Ga 17.57746596 4.73045375 10.46748553 1.03372261 1.67928684 1.31717446
Ga 4.89168482 1.61651187 1.24577676 0.50346163 -0.52233308 1.55723201
Ga 17.48037907 1.64493292 1.20490986 -0.71832485 -1.03547601 0.24972134
Ga 4.81789569 4.67898156 1.20264607 0.73984067 -0.56422010 0.26855288
Ga 17.47521596 4.66477371 1.19453869 0.93253611 -0.09775877 0.47079782
Ga 3.52001724 1.53620625 7.00943530 0.02461095 -0.80759763 -1.31211094
Ga 16.10908929 1.57982762 6.98927323 0.22572506 -0.80677040 -0.03923754
Ga 3.53342434 4.71542466 6.98086416 -0.24208306 -0.37071366 -2.89422460
Ga 16.08616207 4.69833100 6.91257167 0.99361589 -1.71476988 1.06218267
Ga 1.59274043 1.50487736 1.85942227 0.34193363 1.31097061 0.24411780
Ga 14.15685682 1.52694576 1.83977211 -0.42689777 -0.44046855 1.02118631
Ga 1.61551677 4.73627086 1.76135079 -0.31910659 0.21036268 -0.14515472
Ga 14.24993673 4.69144586 1.82582909 -0.92759212 1.43365405 -0.41313186
Ga 0.12825891 1.53556820 7.61382109 1.11876523 0.58163463 -0.72577383
Ga 12.69533452 1.54082013 7.62171018 -0.02072798 -0.71635119 0.22868644
Ga 0.18105849 4.67435212 7.48245949 0.05781117 -0.92427066 0.34249687
Ga 12.73179097 4.74003323 7.56907775 0.42675582 -0.02428350 0.22811422
Ga 9.62758785 1.57560254 3.92808789 0.68612065 0.26291850 0.05296419
Ga 22.22181387 1.54755262 3.97144906 0.29603176 1.06610343 0.02301526
Ga 9.62088285 4.69448113 4.00163444 -0.84337348 -0.13941459 -0.93098441
Ga 22.33923333 4.66063324 4.00394235 0.23139641 0.49818933 0.78834981
Ga 8.23017183 1.59759925 9.71933975 -0.16128992 0.43608451 1.33809147
Ga 20.93446992 1.54395432 9.74285828 -1.52541492 -1.22135004 -0.25221746
Ga 8.21231313 4.60615145 9.71760353 -1.13002497 0.66276841 0.78150275
Ga 20.80154872 4.70440199 9.74928654 -1.52800697 -0.46049556 -0.18005398
Ga 7.84388882 0.05344678 1.79983628 0.93327715 1.15987859 -0.06569447
Ga 20.51562253 0.04385911 1.82913609 -1.04025146 0.69204898 -0.33473416
Ga 7.77385192 3.10501365 1.77781814 -0.21073401 -0.64544085 -0.04484568
Ga 20.49158667 3.12317598 1.82962948 -0.81097342 0.18619394 0.08727840
Ga 6.42984990 0.02016199 7.62583421 -0.45740460 0.98256726 0.12398229
Ga 19.15651571 0.04860758 7.58506743 0.84821058 -0.12261602 -0.32668846
Ga 6.51354338 3.15603511 7.57392459 -0.65365972 0.04261141 -0.83618981
Ga 19.10843123 3.13262482 7.59168372 0.12519003 0.48004487 0.26152042
Ga 3.38400858 -0.02793116 3.88874569 0.64664807 0.11574986 0.98743490
Ga 15.91914376 6.23713407 3.94811874 -0.49581946 -0.03813440 -0.56069609
Ga 3.37656445 3.16151685 3.95804814 0.04813899 -0.62455743 -0.09771286
Ga 15.98702270 3.10478232 4.02178873 -0.23230188 0.34100349 0.12737107
Ga 2.01165176 -0.01799325 9.68470498 0.94838950 -0.20006719 1.20787065
Ga 14.52077466 6.29726584 9.68217620 -0.65462929 0.06444207 -0.53586621
Ga 1.95997947 3.07864425 9.68817766 1.86470967 -0.76853720 -0.68872057
Ga 14.57896816 3.12722590 9.79665730 0.46940164 1.38479256 0.75571401
O 1.96463758 6.21824934 0.62627516 0.49277512 -0.24137140 -0.06277785
O 14.53540678 6.21263165 0.65878504 0.52353833 -0.37460757 0.73972483
O 1.92562789 3.12627536 0.61349358 -0.64249067 -0.75631006 -0.22225672
O 14.55656299 3.10698793 0.68783395 -0.33391080 -0.18387058 -1.09386159
O 0.49709300 -0.06635653 6.34583318 -0.04453836 -0.97355582 -0.47800382
O 13.07661090 6.26057034 6.41186402 0.91885718 -0.41562031 0.79626826
O 0.49267877 3.12206893 6.44894580 0.18883739 -0.33549458 0.70879179
O 12.98838630 3.11370909 6.39822180 -0.46541685 1.59326567 -1.48927384
O 9.34453214 -0.00475572 5.09469127 1.01056070 -0.06833288 0.15381443
O 21.95286676 -0.03914695 5.13300424 0.08418174 -0.05547864 1.91549460
O 9.25280065 3.11572356 5.16819608 1.02630143 -0.40588184 -0.34279771
O 21.85722438 3.16966059 5.10407898 -0.45190143 -0.64915142 0.04073881
O 7.94911219 6.25723224 10.85441516 0.17646287 -0.14904917 0.60635120
O 20.53894344 6.22690379 10.97215661 -0.15236712 1.52856835 0.13562638
O 7.85479580 3.10802999 10.86348923 0.23539340 -0.05629710 -1.12215912
O 20.53432555 3.17128312 10.95252927 -0.58933307 1.11863587 0.78447551
O 8.22438625 1.54721165 0.62307988 0.02491731 -0.04453494 -0.86137665
O 20.84766822 1.58137768 0.62998144 -0.74904855 0.83650942 -0.66963457
O 8.17407300 4.69647532 0.58165640 0.85685802 0.53675271 0.88640320
O 20.76417810 4.72581229 0.61669884 -0.73742730 1.56635936 0.45773187
O 6.84941928 1.56612017 6.45257142 0.29601947 -0.74320536 -0.17908008
O 19.43766431 1.55693152 6.43646613 -0.69824827 -1.01294427 0.68031958
O 6.80180369 4.71957422 6.42779689 -0.49350338 -0.88535925 0.86609250
O 19.36627755 4.62261518 6.34406921 0.44852223 -0.41376928 0.07790023
O 3.04213423 1.53512960 5.18282775 -0.58213839 -0.63202337 0.45757144
O 15.59212223 1.61533345 5.17484462 -1.27543468 -0.09639929 0.74235562
O 3.07976075 4.67982957 5.20200939 0.19227575 -0.82942574 -1.35792003
O 15.62399724 4.69526179 5.10826001 1.19613974 -0.25790957 -0.69209386
O 1.54811329 1.59913309 10.95217977 -0.30778282 -0.62677106 0.20649356
O 14.18748199 1.56714347 10.86640148 0.74059333 0.17325378 -0.53733028
O 1.61536285 4.75985238 10.84209579 0.24912237 -0.52444822 -0.35270611
O 14.15138043 4.68932334 10.97350952 0.04014537 -0.68223964 0.45034218
O 1.38068219 6.28891771 3.21118440 0.25417793 0.67054096 0.92995581
O 13.97773157 0.02220146 3.31849686 -0.46574333 1.08484342 0.51717142
O 1.34100357 3.16544164 3.37257447 1.85450529 -0.48060692 -0.39485561
O 14.02913319 3.08053960 3.27455365 -0.74624967 -0.11464129 -0.72045738
O -0.03684909 -0.04540043 9.00224416 -0.35465343 -1.27572776 -0.71696292
O 12.55903222 0.03068767 9.04803574 0.26908994 -0.37250649 -0.09358240
O -0.01186229 3.19163340 9.03568372 -0.63982459 0.17706820 0.50006776
O 12.58645363 3.08016572 9.05496917 1.94332006 0.00781388 -0.10381532
O 9.83651895 6.21529639 2.57296533 -0.33959496 -0.28685768 0.64180450
O 22.35116199 6.20833557 2.63295799 0.16094409 -0.01559372 0.01165738
O 9.82096389 3.05933987 2.46185434 0.42324694 0.64758969 -1.24783265
O 22.42601284 3.10815427 2.52591083 -0.77226648 0.34334106 0.54842769
O 8.41994128 -0.00560652 8.18757339 0.58644003 0.75894533 -0.00872828
O 20.96231917 6.22037891 8.27852264 -1.53125785 -0.57238080 -0.33378261
O 8.43216408 3.18511905 8.25900233 -1.45645901 -0.09072851 0.41530262
O 20.92816363 3.13181594 8.28812398 0.01231410 -0.47808936 1.65327165
O 7.71811737 1.57836999 3.18018860 0.58120956 0.01445333 -1.54099769
O 20.32546022 1.51729131 3.23595500 -1.46165013 0.18457974 0.33397425
O 7.66553418 4.68709941 3.27320830 1.12870916 -0.36046533 -0.69717454
O 20.23414449 4.63921881 3.26621212 0.41372426 0.43381647 -0.29103119
O 6.30346868 1.62834947 9.01675408 -0.77507120 0.47057696 0.23970811
O 18.91652973 1.57540373 9.01230899 0.09861223 -1.07137340 -0.16380112
O 6.27971759 4.65372169 9.07263925 0.76100328 -0.28077397 -0.41314833
O 18.93622971 4.70522705 9.08006187 -0.95563609 1.04606021 1.29284735
O 3.50923225 1.52722614 2.48627052 0.20141968 0.80068605 0.15421133
O 16.16085586 1.53958360 2.52700113 -0.04769917 0.20640079 -0.36242798
O 3.45076892 4.63532705 2.51471431 0.18449897 0.27196708 0.82463854
O 16.14054444 4.67271379 2.41621457 -0.86358821 0.12598944 0.40737043
O 2.09463761 1.58701979 8.32706845 -0.53249777 0.41292223 -1.00417938
O 14.68879016 1.54000829 8.25845166 -1.42330338 -1.98221311 0.02693027
O 2.11407632 4.67957061 8.23572029 -0.07176086 0.78333387 -1.07868639
O 14.70799585 4.69569815 8.31025156 -0.01058478 1.66296479 1.06149504
O 12.22852048 1.46372186 1.47774219 -0.27473988 -0.79157893 0.77901396
O 24.76138331 1.55577820 1.51859368 0.10639161 -0.98569497 1.09146939
O 12.23029766 4.69482523 1.38925515 -0.21226096 0.45732104 -1.14395139
O 24.85748889 4.70449152 1.51600078 0.20285696 -0.98815856 0.17982314
O 10.82886465 1.50644415 7.18917914 0.24337814 0.22386897 -0.48382511
O 23.36627330 1.54320262 7.26215944 0.14005725 0.62075315 -0.99238261
O 10.87985558 4.62219602 7.26141993 -0.31906911 -1.09542553 0.48493765
O 23.41522715 4.68773522 7.25622492 -0.03760236 0.27069018 -0.52226146
O -0.97415466 1.66542442 4.27937882 1.05319052 0.90646262 -0.40099051
O 11.66846154 1.54511669 4.25901422 0.68157713 0.26318622 0.59621289
O -0.96763877 4.72255968 4.31838526 0.95696755 -0.01745449 1.12913818
O 11.69942521 4.61942600 4.32365545 1.47591942 -0.41088415 -0.69745089
O -2.44202834 1.56111402 10.05028966 0.22886035 -0.57638339 -0.04307686
O 10.22232189 1.57041832 10.08645342 0.19141401 -0.35427675 1.42300341
O -2.44666249 4.70372063 10.02532031 0.76683442 -0.25726574 0.31285748
O 10.22966379 4.67621246 10.09087738 -1.04231675 0.05628673 0.21977179
O 5.84618301 6.28439268 1.46230438 -0.37741805 -0.02104725 0.90994533
O 18.49699638 -0.03195004 1.48745993 -1.00965875 -0.19093152 -0.95705112
O 5.93058588 3.14698570 1.45355289 0.18293414 0.06003717 -0.30721509
O 18.53161462 3.13765283 1.49907941 -1.83655026 1.41194712 -0.56306648
O 4.43498352 6.27024078 7.23452061 -0.14022937 -0.07616976 -1.11345661
O 17.07919451 -0.04362362 7.33697666 -0.00996527 -0.41444124 -0.05730560
O 4.50339771 3.16920750 7.25900736 0.06260681 -0.72336796 -0.78993434
O 17.07571381 3.09921978 7.26518420 -0.32300919 1.14086839 -0.48668241
O 5.25746010 6.21925854 4.25444289 0.12985222 -0.63463644 0.47382823
O 17.85468719 0.01733527 4.39274839 -1.52672003 -0.28545267 -0.03169512
O 5.35748337 3.17191991 4.29243747 0.32244490 1.08702390 1.46294742
O 17.95068548 3.13609937 4.25804197 -0.28035444 -0.09481220 -0.03261029
O 3.87085316 6.23514157 10.12051562 -0.22599200 -0.33041819 0.67003140
O 16.57229110 0.03570541 10.18546945 0.15081533 1.03634254 0.86836918
O 3.89675608 3.09721878 10.05496127 0.27579413 -0.91713797 0.04651109
O 16.50610801 3.07006679 10.03832136 -0.45733837 0.67580275 0.30045888
