159
Lattice="24.852916 0.000000 0.000000 0.000000 6.153243 0.000000 -2.772388 0.000000 11.392394" Properties=species:S:1:pos:R:3:force:R:3 Energy=-623.961460 Virial="-57.692991 1.571275 -3.340851 1.571275 -45.807268 -3.267012 -3.340851 -3.267012 -42.554272" O_vac_type=O_O1 O_vac_tier=low O_coord=3 defect_vacancy pbc="T T T"
Ga 0.05173006 -0.02733480 4.53015627 0.04383187 0.61160772 -0.63368315
Ga 12.51795511 6.12692675 4.62761191 -0.11892936 -0.24026828 0.35978475
Ga 0.02082223 3.15303045 4.59082117 0.52615561 1.65122550 -1.13251208
Ga 12.50478886 3.05388730 4.45957695 -0.19461035 -0.36829265 0.25117005
Ga -1.32146809 6.09396058 10.23438776 0.40229847 -1.51565564 1.10173377
Ga 10.98613965 6.20604553 10.08364130 -0.75702509 -0.75370013 0.33749484
Ga -1.34960991 3.06229101 10.34697987 0.14226045 0.72821945 -1.10730987
Ga 11.15661974 3.00022852 10.24032130 -0.28683875 -0.58687528 -0.70466318
Ga 10.97619052 0.00154810 1.18728751 0.87093308 0.88414565 1.07565457
Ga 23.49068152 0.20868201 1.06516512 -1.30193026 -0.08801372 -0.28989167
Ga 10.94626703 3.14826267 1.20789019 -0.82721114 -0.67087536 -1.41294412
Ga 23.42925866 3.28197098 1.08114418 -0.29389482 -0.06472839 -0.69745662
Ga 9.60411370 6.18347608 6.70282021 0.58061659 -0.27592986 0.70579962
Ga 21.95946302 -0.06944371 6.91121189 0.30401937 -0.20017033 1.03852672
Ga 9.61069381 3.01980378 6.87188013 0.71177917 -0.73807921 0.34599360
Ga 22.06969224 3.08925924 6.84745714 0.88898409 -0.18423644 -0.46011764
Ga 6.18972825 1.53346623 4.54106942 0.08333154 0.11713420 0.29784636
Ga 18.58258725 1.63642264 4.61469701 1.23901534 1.08963728 -1.32295180
Ga 6.26081937 4.58439707 4.56703372 -0.49292523 0.99647443 0.27889606
Ga 18.54167310 4.60718379 4.54305439 1.17709314 0.24322247 -0.90947603
Ga 4.78278257 1.53916627 10.16714150 0.24631069 0.72504558 -1.44949264
Ga 17.28352788 1.36289244 10.14716029 0.06758359 -0.03145015 0.70033879
Ga 4.80299503 4.57358316 10.23097932 -1.46819926 0.55307945 0.79531925
Ga 17.30847651 4.53802921 10.31003358 0.34365111 0.54720120 -0.46066177
Ga 4.77632188 1.55181392 1.09351589 1.68220534 0.48772818 0.20025796
Ga 17.16342312 1.55187155 1.13855821 0.90254875 -0.99402720 1.04100281
Ga 4.80104138 4.72455457 1.19822111 -0.68944928 0.08443282 0.99826976
Ga 17.21331262 4.64882855 1.16087576 -0.06200516 1.15912143 -0.45167110
Ga 3.39178249 1.51445525 6.83220158 0.21999909 0.28969112 0.28284240
Ga 15.66383041 1.54140347 6.95492668 0.49132029 1.05183326 0.10923309
Ga 3.50690438 4.66393104 6.74209259 -0.25998072 0.57048015 -0.31867508
Ga 15.89596708 4.78425512 6.90713965 0.41836494 0.94294467 -0.02004329
Ga 1.41457199 1.52062874 1.83208798 0.66057515 0.55388952 0.50424023
Ga 13.94165252 1.46631865 1.87926812 -1.41997288 -1.66770791 1.10771552
Ga 1.44950906 4.54331637 1.80614174 -1.46731640 -0.11345730 0.28950158
Ga 13.98054235 4.66990893 1.86476532 -0.76222811 0.30974218 -1.00771117
Ga 0.07774430 1.49996323 7.42763159 -0.43009289 0.28052146 0.93430785
Ga 12.56084355 1.48269008 7.58258851 -0.00446812 -0.44706855 0.48331295
Ga 0.24881900 4.70366253 7.47154699 0.91188252 0.35492042 -0.52290216
Ga 12.49325042 4.53543452 7.46862527 0.11234583 -0.86443097 0.67003616
Ga 9.51627739 1.46504990 3.88406002 1.09228924 -0.61937778 -0.61827380
Ga 21.99289039 1.69663767 3.88379969 0.19289963 0.29569045 0.05208049
Ga 9.51283906 4.58768229 3.82658588 1.69287826 1.24333391 -1.51739496
Ga 21.94519373 4.66263018 3.96844420 -1.38742406 -1.42215851 0.49940834
Ga 8.03604154 1.52542491 9.52171248 2.04769777 0.74224287 0.48884180
Ga 20.49433753 1.53391651 9.60500014 0.20774353 -0.83892612 0.77689180
Ga 8.16665606 4.71754615 9.70321469 0.41840974 -0.98390375 0.08970579
Ga 20.53574603 4.56511795 9.67071181 -0.70659625 -0.08886596 -0.58772640
Ga 7.76758401 0.03184240 1.81175853 -0.03093756 -0.18640495 -0.82911278
Ga 20.06859825 -0.03238511 1.87702586 0.04452782 0.44018666 -0.74520695
Ga 7.78633330 2.98578217 1.73913707 -0.57120319 1.40031525 0.51165117
Ga 20.17675420 3.18106926 1.73428397 -0.05319076 0.47051910 -1.37436523
Ga 6.27275845 -0.00463679 7.59219462 0.36751979 0.00819533 -0.71175034
Ga 18.78794032 -0.03104821 7.42385287 -0.71630736 -0.89186448 0.80550576
Ga 6.47333907 3.06882207 7.42690179 -1.20806991 1.11351567 1.75474174
Ga 18.89295315 2.91802674 7.49385063 -1.16895783 -0.07793414 0.16322432
Ga 3.32556247 -0.08666119 4.01228197 -2.05053613 0.26339010 -0.03904549
Ga 15.60748221 6.08151267 4.02339465 -0.32016392 -0.03728270 1.17303910
Ga 3.25104701 2.99828033 3.97291020 -0.83194633 0.32595849 2.46532873
Ga 15.73442098 3.05400646 3.84492082 -0.15091974 -1.33037258 1.02482443
Ga 1.90836718 -0.03016571 9.63390399 0.76392774 -1.09461249 1.08820630
Ga 14.33051816 6.09251467 9.67883810 -0.98155879 0.13997432 -0.74971356
Ga 1.84497599 3.14408042 9.72322381 -0.81338382 -0.65641853 0.24176189
Ga 14.31836981 3.11811771 9.48697472 1.45407996 -0.21026893 -1.53745826
O 1.84291391 6.12550466 0.60585728 -0.67882383 -1.47627805 0.45352619
O 14.37132718 6.13876739 0.58107763 -0.36249116 -0.54898524 -0.08418782
O 1.89540313 3.06714803 0.58385946 1.21621289 -0.93396632 0.31516523
O 14.28055469 2.97731372 0.70726784 -0.56049572 -0.42802444 -0.41100546
O 0.41587273 0.00066636 6.21237821 -1.06222674 -0.84790415 -1.10134612
O 12.95226163 6.04614965 6.36722631 -0.00686290 1.21592547 -1.70376228
O 0.55481317 3.07754853 6.33212840 -0.65704172 0.08357720 -0.27074608
O 13.03017869 3.02199053 6.23237604 0.08473619 -1.45945318 0.13213648
O 9.25840376 -0.01177727 4.93142029 0.13765949 1.52191536 -0.18269845
O 21.71562078 -0.00435524 5.09760693 0.49837192 -0.11298473 0.34015371
O 9.18499726 3.07768253 5.15471696 -0.09486535 -0.86377359 0.56507038
O 21.47367697 2.98950159 4.97532181 -0.46825847 -0.06968385 0.06608733
O 7.83379421 6.19839220 10.79011183 -0.13102377 0.68381962 -1.48879606
O 20.10087645 6.26326665 10.84488873 0.04596488 -0.02137001 0.14792360
O 7.78078840 3.13120841 10.78462890 0.00995752 0.23135722 0.57102786
O 20.22297456 3.08238988 10.73073792 -2.07265923 1.03182382 0.98112316
O 8.07737727 1.61820210 0.58113801 -0.65352066 0.68931003 0.32303662
O 20.48106025 1.56573654 0.55734958 -0.93098018 0.23064331 0.87238624
O 8.12801833 4.73069487 0.69019809 0.98790989 -0.74799214 -1.57310059
O 20.56776852 4.55560758 0.49126624 0.29407433 1.65906509 0.22127789
O 6.71807572 1.54880737 6.31281421 -0.77449993 0.51657768 -0.23015458
O 19.11220367 1.61142452 6.24972208 -0.04168324 0.32601905 0.38187589
O 6.76422272 4.61814287 6.30643628 -0.14910505 -0.11081804 -0.21273431
O 19.08193502 4.53613101 6.30866695 0.51182849 0.64935271 0.19715505
O 2.96239383 1.49932857 5.12667897 2.39760039 -0.55767229 0.13912004
O 15.19540226 1.59303184 5.13810722 1.06656761 -0.11126483 -0.14611949
O 3.01144163 4.50130331 5.02703276 1.86836307 -0.65496680 0.03780087
O 15.33201535 4.75125082 5.09957997 -0.79580701 0.16360864 -0.14497790
O 1.54912893 1.49671121 10.75538903 0.59448803 0.16352150 -0.38001884
O 13.99451643 1.50332549 10.77977144 0.21587339 1.11627259 -0.55306736
O 1.61904877 4.55271767 10.79413260 0.17558122 -0.84418736 0.66778427
O 14.02683859 4.64686008 10.79442930 -0.44205948 -0.49869061 0.52474285
O 1.34921918 6.21901186 3.16450291 0.66899274 0.45315996 0.29917170
O 13.79166629 -0.00528798 3.31290435 -0.86432578 -0.30467174 -1.26864742
O 1.35381003 2.99383957 3.21496294 1.32124932 -0.23076106 -0.34407554
O 13.69362552 3.10537237 3.39264117 0.27262945 1.19816006 0.77983390
O -0.12766519 0.00041458 8.99863841 -1.01090458 1.37763277 0.66201063
O 12.50261759 -0.06032236 9.03876600 -0.89532718 -1.01716283 0.29961237
O -0.04272627 3.04746964 8.77126741 0.07310274 0.39782150 0.68461212
O 12.42760704 3.19621116 8.88774343 -0.43248471 -0.40673609 1.36753374
O 9.62356212 6.14269069 2.44934159 -0.78753708 1.08198954 2.07337287
O 22.09685824 6.12956188 2.56717348 -0.21798608 -1.28762049 -0.84116135
O 9.55010737 2.99229589 2.44703596 -0.16744918 -0.44489908 0.40435772
O 22.13337227 3.10353255 2.45877083 0.76470558 -2.55575419 -0.78072582
O 8.34270680 0.03445990 7.99102562 0.40389041 -0.70120939 0.70498320
O 20.63676430 6.10167404 8.07405603 1.16931248 -0.58226121 0.11627144
O 8.30317797 3.16595735 8.13623657 -0.28114627 1.44323572 0.98554840
O 20.58138017 3.12033147 8.16013047 0.17903815 0.01099359 -0.93219037
O 7.56605874 1.54915866 3.18464100 -0.53291305 -0.42633643 0.52464441
O 20.05285796 1.50004557 3.19845263 -0.08446584 0.24275627 0.07563744
O 7.73025811 4.67553697 3.30298000 1.22660332 0.49417069 -0.55822373
O 20.05831680 4.73064969 3.24187345 -0.13159570 -0.79151874 -0.25586370
O 6.12069081 1.55570317 8.87139304 -0.55588599 1.10133148 0.05017058
O 18.59700529 1.51767696 8.82513644 0.63358101 0.07677837 -0.78119074
O 6.24385556 4.52078496 8.84875475 -0.95105660 0.37276566 -1.39137084
O 18.63921330 4.45197208 8.99593763 0.28029089 -1.95221557 0.25792095
O 3.47607509 1.47286881 2.33553858 0.14387147 -1.09874467 -0.83611435
O 15.86539040 1.51634071 2.56271230 -0.48976027 0.15841621 -1.46546695
O 3.43803818 4.60337065 2.66387119 -1.50561660 0.71413773 -0.46814586
O 16.04864144 4.64476779 2.44805223 -0.04530838 0.65286037 0.55143810
O 2.00918923 1.66715258 8.11191607 -0.56868181 0.47560597 -0.01887270
O 14.42139829 1.48823731 8.20959886 -0.87334488 0.06465045 -0.55678973
O 1.98139221 4.68236460 8.18453503 0.04987462 0.15856090 -0.90243822
O 14.48729488 4.75525180 8.12187600 0.57993548 -0.55106819 -0.60185354
O 11.99523399 1.49692499 1.43279495 1.29502793 -0.49760522 0.01408792
O 24.47172545 1.47654672 1.56747340 1.34358367 -0.21662565 -1.64016093
O 12.13866588 4.63169164 1.26906993 1.56602305 -0.23741227 -0.50759853
O 24.37771743 4.68617655 1.47718301 0.17467069 -0.21426215 -0.26018683
O 10.49114479 1.57220782 7.11798790 0.21711820 -1.30279820 0.45361644
O 23.13961273 1.47262791 7.12833086 -0.03571169 0.79829809 -0.35428539
O 10.67673766 4.63591055 7.16444060 -0.45651048 0.57726358 -0.86343629
O 23.04388947 4.63912601 7.22906411 -0.25394748 1.15741515 0.99160801
O 11.32548308 1.50583160 4.27455222 0.11784159 0.02886879 -0.09133812
O -1.05077744 4.69617038 4.16517928 -0.86914268 -1.30513425 0.25626964
O 11.33447233 4.61699091 4.22543909 -0.35275369 -0.68544684 -0.56945305
O -2.15490122 1.53248681 9.93561495 -0.00624951 -0.01132711 -2.29937938
O 10.08307532 1.57991601 10.02622360 -0.18740643 0.79054841 -1.15678862
O -2.41468052 4.67685315 9.90037303 0.28932880 0.95304193 0.61805904
O 9.95855520 4.56927070 9.90040157 -0.72728843 0.12058959 0.15127670
O 5.91138680 6.24755496 1.35488734 0.04865396 0.98878933 -0.26767841
O 18.16844719 0.03765185 1.49058496 2.03440929 0.59029123 -0.47172831
O 5.72077516 3.12507207 1.38295105 -0.68092747 0.51773812 -0.22597655
O 18.18682526 3.07170237 1.47618854 1.45204351 -0.05664909 0.27480494
O 4.37444563 6.16289529 7.08475375 -1.15431969 0.50160413 0.99968508
O 16.95910740 0.09790505 7.13090490 0.61385233 -1.09423863 0.76866662
O 4.55006746 3.09043108 7.15284652 -0.12738658 -0.03691842 1.36448596
O 16.83582347 3.00704690 7.07624020 -0.21032579 0.78362175 1.42864601
O 5.22895212 6.23015092 4.30105724 -0.24520427 -0.61716034 0.52641521
O 17.66148166 0.09120138 4.25581398 1.23582656 -0.13776922 0.68636787
O 5.29190882 3.00487903 4.20985093 -1.43671710 -0.46020256 0.01035490
O 17.71457360 3.10439784 4.14601485 0.56304712 0.77926294 0.02282330
O 3.91629489 6.16273628 9.90337960 -1.77326523 -1.04071845 1.29579702
O 16.34926349 0.04806373 9.95299577 -0.71619997 0.39732488 -0.49835647
O 3.88060590 3.17837205 9.90375546 0.31703056 -0.40382438 0.52432193
O 16.33211287 3.08586519 9.90237936 0.89002063 -1.21766832 -0.90186600
159
Lattice="25.039022 0.000000 0.000000 0.000000 6.199320 0.000000 -2.793148 0.000000 11.477704" Properties=species:S:1:pos:R:3:force:R:3 Energy=-622.976332 Virial="-58.850769 -0.418820 -0.766355 -0.418820 -49.315028 -2.730994 -0.766355 -2.730994 -42.962437" O_vac_type=O_O1 O_vac_tier=low O_coord=3 defect_vacancy pbc="T T T"
Ga 0.09155123 -0.06540083 4.43333403 0.96931957 0.19778410 -2.05671468
Ga 12.58451944 6.20117572 4.43855605 0.61735949 0.04935377 0.06688243
Ga 0.02263887 3.07526672 4.61063553 -0.37773972 0.53125850 0.91700218
Ga 12.37368665 3.17851201 4.50808121 -0.02887731 -0.23455905 -0.55101228
Ga -1.37471174 6.21497159 10.27876738 -0.22212760 0.38662911 0.00406561
Ga 11.15026436 6.15695290 10.28167056 -0.71211715 0.27917023 0.68062629
Ga -1.34058025 3.04096366 10.24213068 -0.07437106 1.07295025 0.70316305
Ga 11.17505472 3.19079812 10.31676007 -0.00469465 0.48457178 -1.87015491
Ga 11.09732818 0.05196373 1.14820228 0.07761019 1.74500598 0.89079902
Ga 23.64342262 0.09430234 1.13175296 -0.60504692 -0.18454449 -0.54305719
Ga 11.19911437 3.14962795 1.25328543 -0.66393979 -0.22392221 -0.39756594
Ga 23.66948913 3.12698898 1.17646787 -1.02537585 -0.10971641 -1.73040109
Ga 9.65877845 6.24734591 6.96493791 1.67174564 0.46554732 0.10300342
Ga 22.23420962 -0.09258932 6.96947286 1.91725971 0.14871244 0.23841154
Ga 9.81540025 3.08325530 6.82786125 0.96304810 0.56447109 -2.46423645
Ga 22.16400802 3.09793543 6.88329674 -1.05981587 -0.41948558 -0.06340038
Ga 6.23287991 1.55388598 4.52488692 -0.33265521 -0.75105118 0.73517371
Ga 18.87670886 1.59303697 4.55651506 -0.03150738 -0.41699312 1.13119846
Ga 6.25601360 4.62674973 4.55690802 -0.04490357 1.07249054 0.46456270
Ga 18.78078080 4.64701006 4.55853713 -0.38817536 -1.87758788 -0.35074578
Ga 4.91175958 1.52131921 10.32561938 1.33303111 0.01515664 -0.95790403
Ga 17.31543417 1.54727300 10.34309720 -0.95217502 -0.43919349 -0.43150337
Ga 4.87901850 4.64247154 10.22919469 -0.09221906 -0.60187999 1.37381363
Ga 17.45250149 4.61145823 10.42862346 0.89596177 -1.32669378 1.41749785
Ga 4.77632814 1.57401234 1.17301627 -0.39193094 -0.05569929 -1.01773011
Ga 17.29593483 1.56562875 1.25306761 -0.36371090 -1.22642399 0.31018897
Ga 4.74622080 4.66520033 1.17420062 -0.85283056 -0.08032034 -0.24183526
Ga 17.36086328 4.70186802 1.17415187 -0.61287231 0.35069430 0.12803352
Ga 3.39507184 1.47455321 6.89643487 0.61893689 0.69089857 0.41997335
Ga 16.00105911 1.49735622 6.87000966 -0.20127360 0.48203264 -1.15918673
Ga 3.53677522 4.55318309 7.02123983 -0.10426292 0.14977118 -0.31996945
Ga 15.94552436 4.65290852 6.86948023 -0.82538858 -0.21328904 -0.53791288
Ga 1.53796206 1.48435429 1.85024488 1.80820193 0.31636652 -1.72513429
Ga 14.11171135 1.53066822 1.86086973 0.35872909 -1.03700445 -1.00994667
Ga 1.57791973 4.60912174 1.75349450 -0.04832703 0.29054952 1.00828766
Ga 14.06552524 4.63136130 1.78776555 0.55090154 0.00994922 0.24875065
Ga 0.24813416 1.47887532 7.58262265 1.20533843 -0.60959945 -0.19331238
Ga 12.63487456 1.53455864 7.45883777 -0.79290129 -0.40995780 0.97918716
Ga 0.19955427 4.67719878 7.48017104 0.61540347 0.58267369 -0.66862493
Ga 12.72112228 4.65391821 7.48348907 0.92476714 -0.56293914 -0.41520865
Ga 9.53707852 1.43760663 3.88890181 -0.99564496 -0.87532700 0.88708223
Ga 22.10081111 1.46718359 3.89120793 -0.11819136 1.65621421 1.12762690
Ga 9.73628313 4.65317138 3.89443015 0.93392851 -0.80128343 -0.14480850
Ga 22.06162183 4.73839393 3.87029809 -1.04290783 0.85565270 0.74775165
Ga 8.16716906 1.47665028 9.61822602 0.45864990 1.30541240 0.30646390
Ga 20.68983931 1.63725687 9.80761520 0.00124172 0.20621070 -1.65804508
Ga 8.21955367 4.70410461 9.65059936 -1.21151147 -0.12487965 0.06189722
Ga 20.71374222 4.71767765 9.74722243 1.24080303 -0.68750575 -0.66693925
Ga 7.73707418 -0.03740495 1.74163862 0.78042022 -0.58870113 -0.19287317
Ga 20.36250239 0.01851065 1.84387137 -0.91608350 1.32658121 0.96749593
Ga 7.79822268 3.16073689 1.79152506 -0.79182795 -1.70045611 0.49868517
Ga 20.36366720 3.10356851 1.71021585 1.56375878 -0.49296112 0.52852767
Ga 6.41652288 -0.10387061 7.57760277 0.12544897 -0.32754592 0.06040328
Ga 18.95868724 0.00712349 7.53465161 1.15869872 0.85730633 0.46047404
Ga 6.38329964 3.12740482 7.64144608 -0.12475324 -0.47606548 -0.31428559
Ga 18.94087542 3.10647335 7.59750891 -0.74470272 0.38867712 0.05729088
Ga 3.30070928 0.03826422 3.92476682 0.00798616 -0.72180332 -0.42270587
Ga 15.76242138 6.14904216 3.96353609 1.10572198 0.64252940 1.46475770
Ga 3.29716658 3.10514386 3.85722612 0.20390400 -0.13031411 0.69544181
Ga 15.90041050 3.15466468 3.88611136 -0.56039185 -0.14607513 1.67565975
Ga 1.97940414 -0.03347312 9.72647299 -0.79162853 -1.49863273 0.46975879
Ga 14.48162976 6.26158200 9.62659811 -0.35939230 0.04232403 -0.98138775
Ga 1.89426728 3.07853338 9.68274201 -0.80922626 -0.30175905 0.85973187
Ga 14.47914269 3.13860876 9.59619363 -2.14387121 -0.94213105 -1.36645707
O 2.01071282 6.18548286 0.60646323 1.46418437 -0.81896247 0.46333054
O 14.40858378 6.29943751 0.54565801 -0.61032088 -0.44679441 0.72309628
O 1.75744542 3.12650312 0.59135054 -0.59696271 -1.44669444 -1.79706861
O 14.35610831 3.03592081 0.64269267 0.65387472 -0.18524032 0.28734788
O 0.47184825 -0.03881207 6.42221361 1.25971850 -0.38123204 0.36031324
O 12.94281921 6.30023941 6.29569785 0.78317663 1.68008267 0.28185477
O 0.43179129 3.04380320 6.33602118 -0.66371200 0.62666715 -0.38169215
O 13.02255005 3.05418182 6.35848103 -1.60926304 -0.04209305 -0.08565707
O 9.17532508 -0.04412929 5.06610304 0.80365007 -0.84231265 0.34566752
O 9.21700851 3.02645892 5.08286397 0.61469818 -0.22755819 -1.10249872
O 21.68017918 3.06556407 5.14069249 1.33441416 -2.06300656 -1.21459616
O 7.80947185 6.14962203 10.84297627 -0.78261316 1.43509648 -0.60896562
O 20.28473619 6.24071020 10.96276026 -1.13619129 0.18286550 0.10540902
O 7.81584155 3.05745105 10.85260674 -1.07066016 0.99749270 1.29628413
O 20.30924958 3.10523880 10.88047597 -0.38970740 -0.46887591 0.12116650
O 8.22651636 1.49862267 0.51730641 0.72123061 0.30448352 0.35480735
O 20.63355206 1.42967916 0.55260644 -1.85420998 0.62443447 1.22148581
O 8.13206536 4.61485477 0.60438855 -0.45932199 0.06403327 -0.38935159
O 20.63864872 4.62874316 0.62680667 -0.70257892 0.13240430 0.08469870
O 6.74301792 1.50380654 6.36702216 1.17510771 -0.52538466 0.47668189
O 19.24941636 1.55486697 6.40067467 0.33388243 1.09384019 0.18842321
O 6.77281006 4.68292176 6.37681391 0.35088936 -1.09139144 -0.32697716
O 19.28823101 4.60983201 6.46577139 0.97698620 -0.59570025 -0.39756386
O 3.07354845 1.46903864 5.11996492 1.36770308 0.21060491 1.34259738
O 15.49731617 1.56325483 5.14436384 0.71703423 1.33783899 -1.51077060
O 3.06156004 4.59042982 5.13203130 -0.88238779 -0.25017639 0.14166483
O 15.48463086 4.69520641 5.09008093 0.09073010 0.94903572 -0.17842924
O 1.50847712 1.51736435 10.74177490 -0.25064912 -0.34969713 -1.60446044
O 14.11204828 1.58215307 10.81295913 -0.06843358 -0.61964716 -0.17366295
O 1.60033482 4.59493696 10.80490548 -0.34771128 -0.32668132 0.84616994
O 14.19685721 4.70876664 10.87000044 0.25910933 -1.31593874 0.24266753
O 1.42847745 6.16478406 3.19722928 -0.26521644 -1.14915454 0.26904638
O 13.92392074 -0.05361393 3.16104537 0.03058868 0.50243801 0.01873063
O 1.45737784 3.15287150 3.26192859 1.19215817 0.13217366 0.54452139
O 13.86189515 3.16421554 3.26796900 -0.82742115 -0.34355621 -0.48524356
O 0.10325402 0.04154442 8.99956906 0.00689385 0.45315552 -0.01570527
O 12.42622955 -0.03775115 9.01947945 -0.62631917 -0.35362165 0.94671116
O -0.08494869 3.09030896 8.99964815 -1.44744567 0.92834946 -0.08384530
O 12.47109748 3.12777193 8.90341858 -0.46481379 1.06383097 2.11066309
O 9.57242351 6.24541755 2.50515821 -0.56715765 -1.14542406 -1.70042853
O 22.32007046 6.23153426 2.47237403 0.86103767 0.55765499 -1.11809397
O 9.69514421 3.11016614 2.49633882 0.72651482 0.94941334 -0.92045073
O 22.36569273 3.08038955 2.62250559 2.08379383 0.77769441 0.54473599
O 8.19128549 0.00368902 8.23720888 0.47169886 -0.02632912 -0.27605503
O 20.76433341 6.15974185 8.35999075 -0.29122237 -1.12173245 -0.05266748
O 8.34632678 3.16103904 8.26298587 -1.20085830 0.28885046 0.39222222
O 20.89971547 3.13887497 8.20095148 -1.14889773 0.22766379 0.14459103
O 7.63425637 1.50017799 3.24336966 -0.60584095 0.76770153 1.34046233
O 20.21712817 1.68986961 3.17208788 0.09610819 0.91940775 -0.87900128
O 7.62047401 4.62358404 3.30282056 -0.73746031 -0.38211126 -0.31971598
O 20.25449838 4.62067629 3.19545255 0.42170298 0.07035423 0.34890459
O 6.27731425 1.59985005 8.99444294 0.70776517 -0.67070904 0.38028142
O 18.82097431 1.56325830 9.01800258 0.18975795 1.13904395 -0.00067352
O 6.25847417 4.70444578 8.92448414 -0.96136330 0.62500099 -1.83904430
O 18.82530097 4.61644469 8.96490705 0.58037512 0.96539578 -1.44477429
O 3.51728835 1.51944366 2.38996715 -0.73900957 0.76497892 -0.39237710
O 16.03086450 1.62918799 2.42325025 0.16446773 -0.18262662 0.36629082
O 3.37576868 4.54620066 2.45332911 -0.11769678 -0.12942079 -0.49974757
O 16.00305220 4.58509010 2.46572422 0.94013773 0.00492064 -0.31607074
O 1.95529402 1.52702735 8.25341814 -1.46732027 0.13746477 0.92161010
O 14.48463587 1.59000534 8.21921039 -0.61438741 -0.49826529 -0.46019689
O 2.07173710 4.56069739 8.23751356 -0.87323995 0.27408278 -0.52262209
O 14.61250816 4.59330121 8.26958012 0.25356520 -0.02990895 0.54765783
O 12.20638120 1.54676342 1.50060400 0.83388553 -0.02683042 -0.04648014
O 24.58437369 1.52641656 1.52715162 0.61721035 1.68254003 -0.01811922
O 12.13514593 4.62702822 1.57240405 0.40351140 1.35511497 0.85291934
O 24.72049734 4.58824092 1.47698281 0.75770797 0.08101885 0.51990525
O 10.67966327 1.56952380 7.25993200 0.08855879 -0.48317925 0.82502362
O 23.22914674 1.65295445 7.26032341 -0.14235365 1.54509536 0.22630160
O 10.60125134 4.63420687 7.14751871 0.54544957 0.81729767 0.12266434
O 23.27047839 4.64426065 7.28893433 0.57636441 0.44097269 0.51140958
O -0.95743072 1.48337071 4.27726565 -1.69687669 -0.78022448 0.06347785
O 11.55062963 1.59768452 4.18042578 -0.28029051 1.41930641 0.49205968
O -1.05627363 4.62832819 4.18718670 0.12653362 -0.58567074 0.78220797
O 11.54597662 4.63046202 4.22953735 0.28507431 -0.65475062 0.43777205
O -2.40308826 1.59552071 9.97973218 -0.01243000 -0.00354967 -0.04286612
O 10.15147268 1.50410889 9.95136468 0.32000930 -0.03426208 0.38738809
O -2.29347985 4.65363723 10.00372371 -0.11566718 -2.03155871 0.49840418
O 10.12088603 4.71946484 9.97530997 0.72844806 -0.74160474 -0.04616342
O 5.83877176 6.22259502 1.56623533 -0.50895712 -1.37597828 -0.90254777
O 18.41987389 -0.05790386 1.40892394 -1.52559986 -0.71187209 0.43566868
O 5.79826413 3.10113097 1.43150645 0.78012641 -1.79505356 0.70098587
O 18.35671097 3.13574970 1.37882333 1.35234391 -0.40458666 0.22693447
O 4.52806766 6.16781639 7.10572011 -1.92645305 0.93785352 -0.53150463
O 16.90194656 0.03924663 7.16393377 -1.10219905 0.76008901 0.25236541
O 4.56247641 3.12854133 7.15163841 0.48371681 0.58691959 0.62974813
O 16.96461753 3.16679795 7.31748902 0.90461362 -0.05170682 0.47851706
O 5.24645672 6.21872952 4.25635046 0.85920764 -0.44945240 -0.09562277
O 17.88784697 0.07527551 4.29669048 1.44302981 0.68050223 -0.99739737
O 5.27843232 3.10459265 4.22332487 -1.22985893 -0.38718687 0.06542528
O 17.75464492 3.03987314 4.21692976 -0.18845199 0.39766555 1.06896473
O 3.86538495 6.14090405 9.97805322 0.55797187 -0.44918991 -0.49764270
O 16.45652906 -0.00106773 10.05414434 -0.73883168 -0.50559101 -0.73592671
O 3.85455622 3.12870379 10.03576899 0.09061161 -0.23799733 0.21281248
O 16.53719703 3.20069005 9.95529804 -0.22777002 1.27701720 -0.77498281
159
Lattice="24.910687 0.000000 0.000000 0.000000 6.167546 0.000000 -2.778832 0.000000 11.418876" Properties=species:S:1:pos:R:3:force:R:3 Energy=-623.792956 Virial="-55.627614 -2.411420 -0.340405 -2.411420 -45.160661 -5.120411 -0.340405 -5.120411 -39.501860" O_vac_type=O_O2 O_vac_tier=low O_coord=3 defect_vacancy pbc="T T T"
Ga -0.00555998 0.00599301 4.57366790 -0.93386073 1.02966986 0.23516581
Ga 12.47168022 6.17139055 4.59393434 -0.46140149 1.79023523 1.01047160
Ga 0.06832564 3.07151584 4.47108951 0.74099834 -0.93570242 -0.03139766
Ga 12.46858908 3.16330741 4.59071964 0.25327464 -0.73998866 1.20586082
Ga -1.41247611 6.16451435 10.19684408 -0.15539092 0.90197665 -0.38890350
Ga 11.07435640 6.18045260 10.23805593 0.00811398 -0.82426991 -0.35384152
Ga -1.38549689 3.09677660 10.22238188 0.32516806 -1.44939776 -0.63236823
Ga 11.14342159 3.04394943 10.19693979 -0.22940034 -0.14961262 -2.14114398
Ga 11.04570871 0.02858177 1.30963424 -0.47464161 -0.67363678 -1.10483053
Ga 23.49086727 0.03348952 1.14297676 -0.31033419 0.63511246 -1.29258942
Ga 10.99197555 3.06578941 1.19841080 -0.63940213 -0.73007756 -0.66911756
Ga 23.59400397 3.06179951 1.18200639 0.73623197 0.07405466 0.49089547
Ga 9.73516583 6.07609472 6.83970668 0.60706788 -0.64997582 -1.89718546
Ga 22.09440454 0.01019140 6.85845566 0.98011465 -0.41643520 0.35441532
Ga 9.67097374 3.05967817 7.01300847 -0.94212197 1.42019240 -0.42230611
Ga 22.10635740 3.08620516 6.84677760 -0.69686391 -0.38934613 -0.31899828
Ga 6.21082724 1.53431418 4.47383021 -0.35702929 -0.35118209 0.62297294
Ga 18.74031049 1.63101709 4.52758642 -1.63031631 0.80970931 1.70172797
Ga 6.17691730 4.70323250 4.60908705 0.44702766 -1.27395770 -1.02283648
Ga 18.70031947 4.64740502 4.56184792 0.04237003 -1.01752257 0.53581725
Ga 4.86850293 1.58553492 10.26472202 -1.09570417 -0.53758455 0.32355481
Ga 17.27246992 1.55257027 10.17890732 0.57076777 0.18722088 1.25453074
Ga 4.83345317 4.60571090 10.27449116 1.38399745 1.24412926 -1.13628284
Ga 17.34732388 4.60528885 10.28451998 -0.86652877 0.03189666 0.47118963
Ga 4.88680635 1.58065210 1.23037106 0.16466651 1.09853283 -0.04874455
Ga 17.25131608 1.58311735 1.27717083 -0.83379706 1.72855218 0.57209677
Ga 4.90679160 4.65917032 1.21960800 0.89006111 0.62624128 0.69117953
Ga 17.33417588 4.61358866 1.14774906 0.93779640 0.62071473 -0.65343329
Ga 3.47294803 1.56089928 6.99586555 0.32475670 1.16946121 -0.50266224
Ga 15.87115889 1.53567516 6.86557319 -1.66021609 0.16803484 -0.33533750
Ga 3.38930531 4.55352797 6.83156160 0.02696034 1.20412305 -0.24366854
Ga 15.88124704 4.60077145 6.87445246 -0.64757704 0.23406928 -1.59820499
Ga 1.61635827 1.56985040 1.70519140 0.32737597 0.57082589 -0.32102159
Ga 13.89941239 1.57486836 1.77967276 0.59983679 0.43769161 0.93793971
Ga 1.47791892 4.58597205 1.80654732 0.31198321 -0.59164826 0.10856605
Ga 13.99317897 4.58720222 1.82103895 0.82511859 0.99194225 0.84600510
Ga 0.17696315 1.55588190 7.49333805 0.69224807 0.17001101 0.30504789
Ga 12.54563441 1.55871984 7.56441201 -0.18380273 0.62767618 0.30900014
Ga 0.20437648 4.65930575 7.56570066 0.09284691 0.66154388 1.38202657
Ga 12.57149421 4.59163524 7.54307786 0.27155538 0.67551638 -0.51051312
Ga 9.53197381 1.45667230 3.80506442 -0.42921796 -1.02793694 -0.90157725
Ga 21.96098235 1.50968337 3.88380873 0.05977528 -0.77388374 0.51379627
Ga 9.50221651 4.58625164 3.86616717 0.86061802 0.68129123 -0.16480988
Ga 21.94775919 4.59580788 3.99609601 0.74893836 0.32742243 0.32484822
Ga 8.20164752 1.51671205 9.63337883 -0.84688421 -1.80578691 0.76948605
Ga 20.60000158 1.53769582 9.59749334 -0.50541712 0.37028332 0.56620792
Ga 8.11707970 4.50180943 9.70042347 1.73362577 0.65839049 -0.56533928
Ga 20.64015207 4.65759936 9.67669333 0.56574173 -0.25180992 0.05999817
Ga 7.80138131 -0.02372430 1.85841127 0.51825402 -0.65272113 -0.37201271
Ga 20.25563050 -0.02298669 1.74232468 0.28570202 -0.00511297 -0.87353060
Ga 7.73550757 3.03354274 1.82232572 -0.12878717 -0.11449629 0.91878672
Ga 20.30043047 3.06320777 1.68615743 0.56723121 0.48400036 -1.17442134
Ga 6.41485122 -0.02340616 7.39842122 -0.22696482 0.82887938 -0.37256361
Ga 18.90793688 -0.01045921 7.51761979 0.87870874 0.41566160 -0.21907607
Ga 6.32030391 3.11907101 7.50462802 0.07012002 -0.50718995 -1.19696549
Ga 18.92881034 3.01206398 7.45875765 0.37758413 0.07924683 0.12222990
Ga 3.28932651 -0.02814722 3.86536017 0.20792351 -2.16985823 -0.28534623
Ga 15.72316335 6.17709125 3.94054760 -0.15426531 -0.83212533 1.69103425
Ga 3.23394531 3.09555133 3.93278295 0.28029899 -1.51796613 -0.86581705
Ga 15.71646813 3.04690612 3.93874588 -0.60115769 -0.59416568 0.37029359
Ga 1.90956010 -0.00564440 9.60678345 0.57715351 0.77517073 0.32624786
Ga 14.37843906 6.15328034 9.56805345 0.40830243 0.11529723 1.92233153
Ga 1.81894365 3.02277055 9.54765453 0.11532586 0.67939791 1.26080884
Ga 14.37222710 3.12288491 9.64651701 -0.04761749 -0.51104679 -0.44861346
O 1.87096980 6.11461686 0.64415845 0.31160446 -0.78134338 0.05247127
O 14.31117018 6.21746906 0.55866101 1.13877145 -0.29752146 -0.29304815
O 1.87004449 3.13805987 0.64131612 0.78365143 0.50273754 -1.14983847
O 14.33280739 3.06688967 0.56290752 0.05537789 0.86131744 -1.10510381
O 0.47536705 0.02505144 6.36960199 0.09200463 0.17714732 -1.70115291
O 12.95488812 6.14543677 6.29603744 -1.92643939 0.34129277 0.25773458
O 0.51764097 3.06032116 6.30091729 -0.60049159 0.42862321 1.87730857
O 12.94825842 3.06793907 6.34318516 1.27121617 0.71636313 0.22414647
O 9.19031972 0.04907687 5.03634620 -0.76539697 0.44305322 0.59093183
O 21.73793379 0.04499035 5.16676600 -0.33096974 -0.98757653 1.11491475
O 21.66837305 3.07689455 5.18409966 -0.75000822 0.19767037 -0.19467844
O 7.84909329 6.06619837 10.85956985 -0.94960728 -1.23579493 0.59082371
O 20.27728825 6.18658903 10.82084867 -0.27330740 -0.00124175 0.30971658
O 7.76720408 3.03844264 10.67350545 -0.81028678 -0.63483114 0.18200392
O 20.29303275 3.10464225 10.81575760 -0.73919717 -0.17236914 -0.62922162
O 8.11589224 1.57509071 0.59249957 0.25587502 -0.60866163 -0.47150850
O 20.43677044 1.66914003 0.64365366 -0.45280699 -0.92868813 -0.17724149
O 8.13472761 4.63033063 0.50170018 -0.88590581 -0.47165776 1.03988886
O 20.62139962 4.65783595 0.64083133 1.62263239 0.36099306 -2.58738646
O 6.76127140 1.57224865 6.32735947 -0.40765243 -0.00188486 0.61905664
O 19.22515400 1.60728715 6.42348961 0.23742972 0.27480545 -0.24443205
O 6.73509101 4.65829216 6.36202668 1.35491435 -1.02545661 -0.38281814
O 19.20759330 4.59471238 6.26542701 0.57091892 1.16693746 1.21242499
O 2.98485453 1.56889118 5.14207542 -1.61740518 1.12259662 -0.30397060
O 15.45230608 1.52577452 5.06730142 -0.11079292 -0.42813090 -0.18147176
O 3.02369544 4.54376112 5.01454732 -0.60677078 0.24685471 0.00029733
O 15.35336686 4.63957827 5.05144217 -1.51378309 0.44562105 -0.81247497
O 1.67596191 1.50743219 10.74922870 -0.05484094 0.17873954 1.42362938
O 13.99999986 1.58610582 10.83983048 -0.15335317 -0.25249841 0.02501865
O 1.66913890 4.53824105 10.81736120 0.43155469 0.01152244 0.74020099
O 14.02970039 4.57867773 10.80159747 0.23039529 0.88241848 1.67973286
O 1.39557299 6.13831258 3.20219885 -1.86554288 2.51423590 0.04731062
O 13.92195614 0.04552924 3.20979888 0.05836829 -0.96453884 -0.69652277
O 1.35720848 3.00965451 3.22675448 0.15055489 -1.62409181 0.02806378
O 13.88419059 3.02892200 3.19147047 0.28873869 -0.18204874 0.67275185
O -0.05129039 0.02116878 8.96082382 -1.33800377 -0.90528731 -1.21412256
O 12.43445946 -0.09335903 8.91468287 -0.21240056 -1.24566155 -0.28569691
O -0.04863219 3.12437666 8.90059324 0.34797713 -1.11704503 0.68702128
O 12.36399590 3.12198885 8.83693899 1.47498597 0.61678112 -0.59684292
O 9.67857488 6.13367713 2.34866546 -0.05879674 -1.26930286 1.03783267
O 22.10949532 6.23379488 2.52523786 0.62958467 1.27784472 0.50968235
O 9.69865692 3.15054869 2.51386092 1.30944646 -0.33378198 -0.31768936
O 22.15869476 3.19121057 2.45606237 -0.00453930 0.34854611 -0.63746598
O 8.35318114 -0.00456010 8.22360800 0.24830048 -0.36947203 1.32437702
O 20.64727730 6.16629564 8.12030373 -1.06358217 -0.39225290 0.74442159
O 8.20808237 3.13167744 8.12563392 0.25189607 1.17107714 1.14147527
O 20.60261820 2.99317062 8.24574014 0.08109371 0.48723735 -1.01065338
O 7.66659299 1.49380355 3.32256992 0.46755993 1.38996498 -0.34023165
O 20.01554087 1.51815593 3.19787543 0.61344223 1.36636012 -1.04154821
O 7.64596179 4.60487884 3.18945790 0.65713420 -0.61303471 0.58654335
O 20.04790568 4.63681228 3.28316442 0.28176724 0.38523117 -1.30662173
O 6.21328376 1.58181146 8.96814964 0.87482243 0.65971123 -0.39881498
O 18.64976282 1.55130311 8.96839001 0.08588477 -0.89941118 -1.40760349
O 6.22805878 4.73744846 8.83955517 0.30731289 0.64084970 -1.01500924
O 18.69290311 4.62043242 8.93779516 0.15305612 -0.83383756 2.46359874
O 3.51005384 1.59001216 2.39319806 0.08918214 -0.57505996 0.48354983
O 15.97121848 1.50193035 2.53691953 -1.86590947 1.81449156 -1.36804736
O 3.52835044 4.56211924 2.48431611 0.46499630 -0.70223800 -0.09921409
O 15.94195866 4.66123919 2.52458497 0.85390967 -1.14686897 1.47382750
O 2.07043758 1.57060044 8.21533971 0.22303879 -0.59881371 0.80192851
O 14.49408164 1.51064507 8.20476833 0.20482843 -0.44898312 -0.74860500
O 2.05417222 4.56347697 8.24361920 -0.14933853 0.19715784 -1.20031601
O 14.48278563 4.59967670 8.24505885 -1.34414284 -0.11814501 0.59782724
O 12.11107052 1.54463288 1.55005657 1.51834760 1.40060602 0.14533143
O 24.50273985 1.54446192 1.52677371 0.05587093 -0.02232257 1.52000227
O 12.02451330 4.59966674 1.36673093 -1.60790558 -0.27840963 0.48370174
O 24.49314498 4.58990833 1.44784996 0.26235154 0.46523069 0.12952327
O 10.58134002 1.50665728 7.27296175 -1.20942266 1.25561907 0.00928086
O 23.14426846 1.58387332 7.17474508 0.86282443 -0.62640667 -1.53824508
O 10.62819670 4.54437447 7.21970774 -1.93818634 0.82446185 0.31134318
O 23.07395903 4.60456722 7.21280981 -1.06241461 -0.00140024 0.51906313
O -0.98949858 1.51543767 4.22648608 0.00979932 -0.48024262 0.89358824
O 11.51976202 1.57826027 4.19872965 0.19027767 -0.66392853 0.08876535
O -1.12384393 4.64142294 4.27267056 0.20381921 1.14103777 0.28222584
O 11.42706200 4.59583506 4.23539593 0.82919051 -1.12837811 0.51586525
O -2.39840903 1.52618796 9.93433732 0.28693507 -0.47417911 0.85577259
O 10.13197544 1.56385502 9.91835727 -0.75582277 -1.69316811 0.59173995
O -2.49590438 4.61970022 9.95865316 -0.38853936 0.12245204 -1.27916506
O 10.02571355 4.70106699 10.01311188 -0.17143117 1.04212219 -0.98022316
O 5.81921754 6.20603368 1.54876366 0.57055963 -0.93634415 -0.33582237
O 18.23940713 -0.04418717 1.37142337 -2.46103149 0.01197241 0.92853797
O 5.82201380 3.02653102 1.41612589 0.46534358 -0.26075605 -0.67640082
O 18.29229995 3.05577699 1.41577120 0.49942533 -0.40082928 -0.89638648
O 4.44536120 6.12822451 7.16447376 -0.22118108 -0.78854498 -0.87703231
O 16.80417260 0.01701572 7.16574205 0.44431132 -0.37767717 -0.04024840
O 4.44612880 3.13718236 7.16463509 -0.50909878 -0.96098233 0.09882568
O 16.90142063 3.11926704 7.16254418 0.05243167 0.72207048 0.59848105
O 5.23066130 6.17987017 4.28450784 1.33603073 -1.19989589 0.22180230
O 17.63453182 -0.00696647 4.28428307 1.12384284 0.32462180 1.00738407
O 5.29742003 3.08109147 4.24870207 -0.36012827 -1.10110076 -0.41802548
O 17.74885457 3.11317364 4.31249783 -0.21240648 0.92422868 0.12252437
O 3.85743778 6.14856764 9.96936136 -1.11728242 0.13814275 -0.34474609
O 16.29706235 0.01586008 9.93909132 0.68848815 -0.06298960 -0.57299788
O 3.89217294 3.15432836 9.89076704 0.18133687 0.89680057 -0.34298209
O 16.33564911 3.08317419 9.98544662 0.05376731 0.09780111 -0.78171634
159
Lattice="24.959949 0.000000 0.000000 0.000000 6.179743 0.000000 -2.784327 0.000000 11.441457" Properties=species:S:1:pos:R:3:force:R:3 Energy=-623.334852 Virial="-56.178594 -0.454076 -0.730360 -0.454076 -46.471979 -2.002097 -0.730360 -2.002097 -41.289174" O_vac_type=O_O3 O_vac_tier=low O_coord=4 defect_vacancy pbc="T T T"
Ga -0.01206117 0.01044741 4.54075634 -0.11117191 1.55671440 -1.10793430
Ga 12.50602252 6.09100023 4.55025113 -0.25412694 0.93203396 0.51259596
Ga 0.00508360 3.06310700 4.53668655 -0.63886233 0.92667193 -0.54395786
Ga 12.48010600 3.01606004 4.53140717 -0.32840129 -0.18626373 -1.54978654
Ga -1.39730016 6.19249542 10.16754480 -0.46448403 0.40530760 -0.35858431
Ga 11.11940383 6.12182926 10.32382475 0.53073302 -0.77988368 -0.02604847
Ga -1.38439303 3.08015399 10.24640794 0.02016573 0.26532961 -0.61122183
Ga 11.07724705 3.02310866 10.30451298 -0.09010046 0.83825653 0.47091707
Ga 11.07537606 -0.02372253 1.15977237 0.04866784 -0.88019895 0.93093966
Ga 23.62707621 0.04992656 1.09774134 1.42179695 -0.69262521 0.76487397
Ga 11.10717907 3.02088368 1.12899949 0.37374044 -0.19750292 0.20290853
Ga 23.65298736 3.07305392 1.24952200 0.65984076 -1.17640397 0.56513935
Ga 9.64130564 6.11484382 6.85656713 1.31919060 -1.43027771 -0.06572394
Ga 22.11701038 0.06448897 6.93072889 -0.66245571 0.62469798 0.32222748
Ga 9.72966525 3.15871707 6.89501275 -0.05427603 0.30641701 0.79344544
Ga 22.19401214 3.05461204 7.00165190 -1.29433402 0.36917043 0.66461425
Ga 6.31368774 1.56225527 4.49802799 -0.98123582 -0.59872427 0.32232974
Ga 18.69302009 1.57629694 4.56523283 -0.53793816 2.07430625 -0.66234557
Ga 6.34210630 4.62274081 4.51076812 -0.64953065 0.47936858 -0.31802616
Ga 18.71528039 4.58595416 4.53062206 0.54250889 -0.73640077 0.67172867
Ga 4.90038730 1.56223618 10.26128354 -0.24372459 0.81032680 0.54491789
Ga 17.38110410 1.54504410 10.26586162 -0.54259391 -1.23336430 -0.17958727
Ga 4.89162374 4.70442106 10.21775477 0.58451466 1.12051617 0.95223319
Ga 17.33989693 4.53639158 10.30091266 -0.66057057 -0.38069524 -0.60561016
Ga 4.85316375 1.57601927 1.17008399 0.58795288 0.18788177 -0.98509005
Ga 17.27344927 1.55109714 1.12725932 -0.37590522 -0.87438224 -0.96981643
Ga 4.91260946 4.71228514 1.22111349 -0.53501059 -0.13409440 0.65943419
Ga 17.25033307 4.61855867 1.11760284 1.51654182 -0.93864020 -0.36900866
Ga 3.39683985 1.62874938 6.83445338 0.57474769 -0.23354838 -0.45160340
Ga 15.97414171 1.59220641 6.79905865 -0.10790912 -0.44576958 -0.21396956
Ga 3.48421608 4.50956103 6.94095299 0.40820519 0.29944236 -0.07922522
Ga 15.88833217 4.62751208 6.84532095 2.75217472 -0.68219739 -0.27215951
Ga 1.54868659 1.57148215 1.89031535 0.50142538 -0.51713743 0.18830611
Ga 14.08674672 1.46485144 1.75661798 0.27019887 0.50594552 0.52881166
Ga 1.50437533 4.57587942 1.74965603 -0.30426967 -0.40647510 -0.11290773
Ga 13.98167868 4.62061337 1.79476640 -0.10357773 -1.07277363 -0.10039186
Ga 0.11773807 1.56290757 7.54585431 -0.56615082 0.99301815 -0.20853912
Ga 12.59635739 1.55185213 7.47492092 1.21415495 -1.06449053 0.64578954
Ga 0.11356742 4.69104047 7.52565963 -0.58556993 -0.98284314 -0.29036471
Ga 12.63664812 4.58978859 7.54661362 0.45992380 -0.26592253 0.50867944
Ga 9.58103777 1.53619762 3.95598172 0.01151578 1.09974823 -0.34438204
Ga 22.05111795 1.55275546 3.96495374 -1.76216370 0.40423292 -1.12974638
Ga 9.51122171 4.63645539 3.93673145 0.46453505 0.00047414 0.05156419
Ga 22.01617323 4.66418632 3.94050232 -0.86765906 0.13273462 -0.18116819
Ga 8.18089581 1.63913373 9.60968464 0.95212032 0.36932082 0.58680626
Ga 20.62894617 1.65591277 9.80183120 -2.20987565 -1.57530585 -0.55473315
Ga 8.20960609 4.65685603 9.60687866 -0.01298348 -0.58757953 0.95065751
Ga 20.59623833 4.69762188 9.68398881 -0.95008249 0.48119195 1.09410473
Ga 7.88910875 0.05187669 1.81562911 -0.48102321 1.72186321 -0.46735580
Ga 20.24860682 -0.00351453 1.79568640 -0.23651869 -1.19609939 0.72531070
Ga 7.78923907 3.10152983 1.81060071 0.94163245 0.48420072 -1.48203361
Ga 20.26875800 3.11325797 1.71948782 0.80858762 0.59004618 -1.28284257
Ga 6.38054599 -0.02184598 7.51679856 1.45357872 0.42701178 -0.27487750
Ga 18.85060147 -0.03447348 7.51597453 0.73865398 -0.18885304 -1.18091016
Ga 6.37199140 3.15743216 7.47861122 0.66040740 0.02193846 1.50897046
Ga 18.83390670 3.14627052 7.47942861 -0.20241213 0.75089526 -0.18400908
Ga 3.27998926 -0.03879665 3.90307734 -0.63451430 -0.34910429 -1.44093368
Ga 15.84289827 6.12645757 3.89623896 -0.38409157 -0.62338894 1.24873303
Ga 3.22427861 3.03891800 3.90357832 1.07423226 1.87475945 0.18576087
Ga 15.74674206 3.01131321 3.92251732 0.24314420 -0.44260781 0.46441154
Ga 1.95492249 -0.01839402 9.68894580 -0.38762156 0.37039553 -0.99683728
Ga 14.35808236 6.23503379 9.68856034 1.30373823 0.20169240 -0.44423706
Ga 2.01358503 3.03819176 9.60247672 -1.05024922 0.14784434 0.09994502
Ga 14.39227755 3.07561475 9.59098584 0.73188189 -0.26431005 2.09308154
O 1.84910982 6.23284647 0.58335950 -0.24457314 1.49714638 -0.26236313
O 14.31724932 6.19305462 0.63900372 0.06751332 -1.64878995 -0.25840392
O 1.95091939 3.06136197 0.59566645 0.74484592 -0.55853695 0.99886068
O 14.39989074 3.06392068 0.65000149 0.01094660 -0.18120916 0.00789336
O 0.50093294 -0.00486422 6.44239389 0.03917410 0.61160886 -0.43007526
O 12.99376390 6.22341335 6.37919850 -0.95607420 1.38432866 0.18143556
O 0.53067256 3.07432771 6.38801668 -0.39501850 -0.30819432 0.45844366
O 12.92536712 3.05000405 6.39771845 -0.40801985 0.77287054 -0.70086104
O 9.18931227 -0.00193724 5.14489692 0.11373165 -1.10311517 0.37070690
O 21.71532454 0.01573001 5.09685856 0.11265917 0.37740600 -0.56139798
O 9.21142034 3.16285250 5.10478631 -0.95581375 -0.28140086 -0.85410393
O 21.69112203 3.09670965 5.06669308 0.43951590 0.78127024 -0.40647952
O 7.77468326 6.12385599 10.89611383 -1.52966771 -0.42034600 1.31193880
O 20.28313391 6.16839832 10.72730074 -0.44069131 0.41532414 0.33231357
O 7.78174952 3.04970191 10.78464517 0.19215068 0.71818819 -0.76310279
O 20.26992568 3.13592357 10.79101291 -0.19342602 0.12586612 -1.31654900
O 8.02497566 1.55231505 0.56834989 -0.44269914 -0.16775587 0.35935262
O 20.64054586 1.55022550 0.56597098 -0.75967444 0.21891882 -1.11206726
O 8.17418251 4.61808166 0.60759806 -0.74476547 0.09871944 -0.07604180
O 20.54561730 4.63518779 0.64954384 0.72439988 -0.73383299 0.64302506
O 6.70722176 1.52925575 6.29148066 0.98951283 0.26926397 -0.86693355
O 19.22911222 1.51955017 6.28902854 0.27927749 0.32792775 0.34773306
O 6.83344943 4.61610878 6.39590170 -1.38762837 -0.49352731 0.51976646
O 19.19707549 4.60378258 6.38938591 -0.75693652 -0.42938029 0.03672993
O 2.94747077 1.57428836 5.08807648 0.91649830 0.98194982 0.14620007
O 15.50101561 1.51961732 5.17142457 -0.79688221 -0.18871485 -0.21432234
O 2.94943528 4.64003435 5.01965443 1.00674775 -1.36205441 0.74967063
O 15.46699508 4.60101946 5.15135157 -0.31981539 -0.80731351 0.40168319
O 1.52788708 1.57452021 10.79866667 1.06836836 0.46767063 0.45661324
O 14.04429223 1.55861358 10.91538485 0.86111330 1.66594122 -0.18389941
O 1.61983900 4.60395827 10.88597831 0.09338539 -0.30732352 0.56813186
O 14.11855775 4.63003590 10.85740770 -0.03286223 -1.17655296 0.97018784
O 1.35537774 6.18220808 3.23542014 -1.19217575 1.77986533 -1.69529876
O 13.88028047 -0.00154676 3.19865612 -0.15056505 0.53143936 -0.20321589
O 1.42069932 3.11447984 3.17298158 0.72251086 0.30872111 -1.34801432
O 13.86277917 3.10031088 3.26233810 0.36754858 1.42289064 0.09937598
O -0.00359133 0.07148999 8.94988151 -0.39585788 0.08846730 -0.35110658
O 12.45946529 -0.00627108 8.85166206 1.07840246 -0.12425847 1.32297838
O 0.01287537 3.10195812 8.93282654 -0.60080482 -0.96377610 -0.59925448
O 12.50637663 3.00756016 8.91346525 -0.98875728 2.56252441 -0.37705685
O 9.75676153 6.12133382 2.51276656 -0.79998525 1.33217618 0.11636812
O 22.14624420 6.24106594 2.54067851 -1.30229095 -1.24341988 -1.16172488
O 9.69006260 3.01941276 2.53769719 -0.07939302 -0.01504102 0.73551631
O 22.07081653 3.09391315 2.51707862 0.38039687 -0.15549139 1.35022533
O 8.26432940 0.08018037 8.26162126 1.76912437 -1.51698325 -0.47678123
O 20.80705163 6.20104730 8.27400989 1.18361234 -0.98159683 -0.13225252
O 8.26247302 3.08494436 8.23403479 0.54541722 0.34219334 -0.35702463
O 20.86727493 3.11484373 8.18332471 1.87914468 0.64284422 -0.63849815
O 7.60882471 1.55980133 3.25610185 -1.31558136 -0.28455293 -1.59330218
O 20.02045271 1.62085757 3.29254868 -0.45601995 0.01438813 0.88854435
O 7.67934623 4.61810060 3.25323840 0.69104776 0.66005163 -0.16044080
O 20.11421706 4.60876654 3.29677343 -0.68782379 -0.33698424 1.09636789
O 18.72448024 1.58024325 8.95789597 0.00759468 0.38000009 0.28379570
O 6.25984500 4.55995846 8.95577991 -0.78735017 -1.64341308 0.40083841
O 18.66870712 4.70752054 8.93199968 -0.47148832 0.95806192 0.53066387
O 3.47168444 1.46276827 2.50280354 0.04258089 -0.66806917 0.08646630
O 15.89358322 1.57838122 2.52242366 0.14583580 -0.61427099 0.41253693
O 3.41581437 4.64454487 2.49308521 0.92857213 0.43360222 -0.32909354
O 15.94415155 4.62391324 2.52425758 0.37822622 1.69491379 0.12319692
O 2.06914793 1.66344724 8.19971841 0.70915091 0.94427671 -1.03614456
O 14.50753811 1.53191962 8.16783703 1.33873338 0.91772281 -0.04196363
O 2.06957774 4.68459600 8.18828913 0.23960454 -0.39471027 1.15923117
O 14.52943412 4.61982398 8.29125767 1.30372799 -0.83794416 -0.86613298
O 12.07954514 1.47385306 1.46689624 0.17307968 -2.00855839 -0.84985971
O 24.55015641 1.52450520 1.38003499 -1.16420959 -1.17038283 0.75271758
O 12.04613829 4.62068319 1.48336583 0.22559539 -1.66001211 1.98601113
O 24.61634546 4.63132861 1.42780139 -1.27875925 -0.96876644 -1.22341437
O 10.63297976 1.61697029 7.09866315 0.74112274 0.58554339 0.12144281
O 23.17000045 1.49891390 7.14819156 -0.65081754 -0.16624406 -0.84371781
O 10.71352541 4.68701421 7.14400057 1.55950046 1.41050472 -1.40234459
O 23.15718470 4.57223305 7.16742224 1.82258721 -0.03990792 0.70656807
O -1.01609028 1.61831676 4.21723233 0.60831202 1.76665262 -0.06126062
O 11.50622082 1.58960190 4.29230597 -0.11743641 -1.06892819 0.78474068
O -0.96384773 4.66483742 4.33511553 -1.10565053 -0.40945505 -2.01097511
O 11.52872707 4.64554760 4.24738531 -0.71430457 0.15360586 0.92499015
O -2.34676436 1.54178908 9.97508955 0.78760835 -0.42078918 1.05379155
O 10.12352472 1.58890271 10.01290655 -0.60140783 -0.70572137 0.32047080
O -2.35843721 4.58378226 10.05195807 0.37670096 -1.06684919 -0.69491477
O 10.11562463 4.61246415 9.97745808 0.14622750 -0.43527360 -0.83515268
O 5.89467733 6.13941162 1.54178533 -0.42674109 -1.00736063 -0.08876102
O 18.26738504 0.12016126 1.42424256 -0.40814605 -0.50475517 2.29930760
O 5.84420484 3.10782096 1.41014010 0.70479219 1.06880103 -0.69905811
O 18.28087718 3.11028187 1.49548860 -0.21629843 1.24257731 -0.03091428
O 4.42600248 6.14177336 7.12772843 -0.73992969 -0.70998977 0.38548390
O 16.92749493 0.03472953 7.20981489 0.37727165 1.17246232 0.49141499
O 4.44730485 3.11396239 7.27337619 -0.16108536 -0.79033198 -0.15874163
O 16.87313894 3.07954519 7.16882682 0.70683621 0.71100217 0.85938097
O 5.22036268 6.20967208 4.22209579 0.57675907 -1.04571133 -0.69841426
O 17.67271579 0.03507692 4.38776193 0.31394848 0.52045223 0.06983384
O 5.39746879 3.10865233 4.25305680 -1.27769455 -0.99927489 0.13916610
O 17.69541899 3.10928058 4.30337877 -0.37312038 -0.83622991 0.60976120
O 3.82050728 6.13127868 10.02942973 -0.07984187 0.04481031 -0.57541563
O 16.31030034 -0.03044670 9.96792378 -0.86075909 0.85625329 0.44508269
O 3.92671839 3.06834109 10.02644698 -1.79640770 0.09079102 1.07176688
O 16.32767870 3.00481247 9.95635748 -2.82528003 -0.02478520 -0.15514045
159
Lattice="24.694188 0.000000 0.000000 0.000000 6.113944 0.000000 -2.754681 0.000000 11.319634" Properties=species:S:1:pos:R:3:force:R:3 Energy=-624.709385 Virial="-54.780284 -2.357243 -1.940601 -2.357243 -47.833942 -2.249881 -1.940601 -2.249881 -41.515234" O_vac_type=O_O2 O_vac_tier=low O_coord=3 defect_vacancy pbc="T T T"
Ga -0.03849570 -0.04748969 4.41176304 1.20253106 -0.47730760 0.92847126
Ga 12.30538239 6.21677665 4.44370982 -0.27805528 0.09989832 -0.92419532
Ga 0.03950700 3.23071602 4.51626852 0.17505597 0.60874979 0.53719526
Ga 12.28525128 3.07519410 4.46116726 0.68884265 -0.20424033 0.12983570
Ga -1.37434478 6.04185668 10.18227605 0.16471104 -1.32416319 1.22171542
Ga 11.02929770 6.05910481 10.20437399 0.26745690 0.21645084 0.10722622
Ga -1.45850787 2.99957144 10.10650883 0.44362218 0.97625566 0.46476835
Ga 10.97020002 3.06545645 10.20293157 0.31288782 0.01604688 0.29368388
Ga 10.99374904 0.08577497 1.05213398 0.52176955 1.09927293 -0.29620481
Ga 23.28471213 -0.00922838 1.05674216 -1.16722912 1.40573598 0.07184075
Ga 10.92165283 3.04701133 1.10967915 -0.62425471 -0.87052132 0.16018580
Ga 23.38659027 3.06372390 1.23961526 0.17674016 -0.55438994 1.31336165
Ga 9.53383128 6.10537378 6.71823337 -0.21370213 -0.40464692 0.05265241
Ga 21.88775776 -0.03783159 6.87305084 0.94732057 -0.43995119 0.30089456
Ga 9.63056424 3.04860283 6.74732779 -0.88855185 0.37843976 1.10872119
Ga 21.93383175 3.01143811 6.83478081 -0.42041318 -0.30694378 0.73898693
Ga 6.23984315 1.48134097 4.47656284 -1.35900729 -1.28546301 0.12689087
Ga 18.57064541 1.49129917 4.46386984 0.82047396 1.23857715 -0.36056284
Ga 6.16090497 4.61093092 4.44414241 -0.25106969 0.50760058 -0.84875867
Ga 18.48498503 4.58266936 4.49436273 -0.73618714 -0.14487262 0.28518627
Ga 4.87257426 1.59022306 10.14906812 0.15100764 0.39730145 -0.06565974
Ga 17.12057271 1.46643894 10.13695614 0.86543950 -0.80857717 0.73724776
Ga 4.81336527 4.65043854 10.08862714 0.05170928 -0.25549548 -0.42182178
Ga 17.14728930 4.60705265 10.09591806 -0.54277653 0.72915248 -0.07968211
Ga 4.73438569 1.61867182 1.18434320 -0.75347509 0.19912517 -0.19260248
Ga 17.13817682 1.57349763 1.23789889 0.32882730 -1.33419182 -0.88581197
Ga 4.77151329 4.49960192 1.21336891 -0.35157398 -0.03815330 0.90645540
Ga 17.17963900 4.58298451 1.07556071 -0.47844664 1.69912766 -0.40664940
Ga 3.55138333 1.53237060 6.82417233 0.26382244 -0.42706825 0.32054303
Ga 15.77767261 1.50852069 6.80281019 0.05594211 -0.77997833 1.01711993
Ga 3.35410783 4.52867725 6.82212454 -0.61362785 -0.75774733 0.14997452
Ga 15.73969611 4.64055897 6.85061422 -0.22315739 -1.08783971 -2.43550992
Ga 1.55612783 1.57700199 1.73674137 0.02616185 -0.17263602 0.30601997
Ga 13.89029700 1.54073156 1.86285274 0.09329757 0.89509849 -0.52499525
Ga 1.53029639 4.55600386 1.69058456 -0.03980320 1.38228121 -0.91435760
Ga 13.84842021 4.57477220 1.83043984 0.67281786 0.57019435 0.56835202
Ga 0.06156000 1.54827649 7.48548507 -0.09327024 0.13441469 -0.59949865
Ga 12.51575460 1.46370041 7.41992395 0.75857251 0.31227234 1.29674741
Ga 0.15492678 4.54836463 7.44540343 -1.10392435 0.61327275 0.19148278
Ga 12.43304250 4.56911331 7.48544526 -0.28029417 -0.28379903 -0.04308245
Ga 9.46707494 1.54334165 3.87912815 -1.04398142 0.09794840 -0.60301538
Ga 21.72505099 1.47532597 3.98927187 0.64187062 0.58560426 -0.32897723
Ga 9.41441395 4.45381867 3.84037294 0.26182122 -0.18936538 0.38419516
Ga 21.72827241 4.53281790 3.88436046 0.44670169 0.35113104 -1.33556873
Ga 8.03095291 1.60849459 9.48935393 0.28684659 -0.66358482 0.13477641
Ga 20.40923713 1.43097200 9.50978425 1.16582039 0.10432606 -0.02457238
Ga 8.09321414 4.57713006 9.66336774 0.95603801 0.55512359 -0.51263584
Ga 20.25569671 4.57569288 9.57074073 0.20686290 0.61402964 0.31952957
Ga 7.71848398 0.02236224 1.77203007 0.70221021 -1.00617451 0.60190907
Ga 19.93436847 0.00192770 1.88759931 -0.33152325 0.67702639 0.97403392
Ga 7.70659723 3.10550267 1.76745362 1.48393185 -1.01915559 1.11723288
Ga 20.02992182 2.99687128 1.84118346 -0.96866896 1.07914720 0.20745638
Ga 6.28184115 0.00364899 7.44717972 -0.72761949 -1.03338645 0.53568573
Ga 18.57101971 0.05810726 7.34556448 -0.91586155 -0.55102797 -0.99786708
Ga 6.28746031 3.10089683 7.39504955 -0.45379491 -0.23696301 0.30141113
Ga 18.74120182 3.07502350 7.32522898 0.63016089 -0.13261910 0.19086993
Ga 3.25714154 0.08378798 3.89790178 0.50048911 -0.03524272 -0.17620847
Ga 15.56577465 6.08754549 3.90939547 1.30410799 -0.50585635 -1.36497800
Ga 3.19279846 3.05524557 3.84622188 -0.38872230 -0.30007608 -1.41795287
Ga 15.47332001 3.03836989 3.85245827 1.72832678 -1.43745480 -1.79800956
Ga 1.92619645 -0.02293332 9.62377865 0.30776977 0.08181761 -0.10865547
Ga 14.17819516 6.11206965 9.49845122 -1.14130532 2.05872425 0.13999841
Ga 1.88674116 3.05613946 9.57501815 -1.21548420 0.07556783 0.55508224
Ga 14.34472423 3.10104387 9.52939230 -0.87081982 -0.12715537 0.42075996
O 1.85913775 6.13314895 0.64186526 0.41961031 0.68079820 0.38489835
O 14.21346627 6.15303645 0.67524557 1.07880069 1.33897401 1.76569070
O 1.88742480 3.09097537 0.63478250 0.12841400 -1.00578847 0.63872666
O 14.18154344 3.01186955 0.54533225 -0.26263402 -0.78686866 1.60821490
O 0.51137666 0.04194188 6.27412576 -1.44708129 0.89989706 -0.93652548
O 12.82260743 6.07173869 6.33888181 -0.03112081 0.75092491 0.48282307
O 0.55593112 3.03153195 6.39840934 -0.00588879 1.25118886 0.49138184
O 12.81215270 3.06844986 6.26910118 0.06128650 0.74708175 -1.18001172
O 9.15232673 0.07188497 5.06439731 -0.51823743 -0.31627994 -0.19605427
O 21.42826261 0.00683978 4.97788969 0.65369086 0.66755272 -0.40747359
O 9.11607573 3.00440701 5.07300257 -1.23345433 0.62062833 0.69158249
O 21.49780148 2.92480995 5.01464194 0.09986405 -0.27433944 -0.28309247
O 7.81511825 6.08060853 10.69867387 0.36685930 1.16020614 0.10633479
O 20.19301379 5.99873100 10.66040376 2.02650939 1.17107808 -1.13491179
O 7.74733100 3.09439574 10.72749254 -1.40641822 -0.04863052 0.83375249
O 20.08043621 3.05761243 10.67748616 -0.58929357 -0.84620861 0.66624868
O 7.96072585 1.59407394 0.64814093 -0.47956620 0.43839525 -0.68913629
O 20.36204532 1.52555992 0.65294881 0.55927219 1.41617923 -1.15220034
O 8.02187679 4.52125821 0.61163008 -0.54903300 0.13619756 -0.70189964
O 20.44563878 4.47233541 0.64580397 -0.75710864 -0.93190215 -0.56043978
O 6.60611658 1.63140065 6.30243899 0.35839786 0.10605721 0.35739160
O 19.09501299 1.47301775 6.39174496 -0.93954455 -2.43958738 0.51491593
O 6.60297234 4.59296749 6.23034879 0.15792847 0.46875062 -0.08731386
O 18.89931395 4.61540972 6.26657004 1.11818150 -0.50011577 0.16343707
O 2.85282759 1.50202444 5.00511150 0.34753673 0.99534491 0.89165843
O 15.18157370 1.46636905 4.95978778 0.14948443 -0.70398449 -0.85439013
O 2.87690302 4.60015212 4.94389776 -0.41869567 0.77342964 0.30271009
O 1.57097017 1.50899960 10.79994768 -0.79034752 0.44131049 0.50629535
O 13.80550877 1.61841685 10.70721635 0.49250608 -0.27761494 0.25016150
O 1.47310951 4.63720172 10.73336962 -0.53461585 0.95405010 0.25756220
O 13.84492603 4.61108494 10.68624836 -1.46273801 0.00735926 -1.55057402
O 1.23839439 6.17860317 3.21297752 1.31082015 0.69415243 0.62671171
O 13.62300744 -0.02994390 3.19715220 0.21865840 0.59879071 -0.24221015
O 1.40861419 2.92730727 3.31055826 -0.26278623 -0.16035187 0.04137879
O 13.61634991 3.14880130 3.12172683 -0.02690813 -1.03307903 -0.16220554
O 0.06412860 0.03690377 8.96133846 0.17972800 -0.10154465 -0.69850254
O 12.24037832 -0.06876637 8.75193809 0.91444282 0.77341398 -0.99926097
O 0.03952603 3.11229665 8.94685470 1.04055801 -0.14178900 -1.09703951
O 12.34605819 2.92087106 8.85254718 -0.28108354 -1.17994579 -0.40564625
O 9.52313109 6.09777211 2.60325797 0.39756416 -0.05341721 -0.95687917
O 21.91474531 6.06918840 2.44443733 0.11816454 -0.83043218 -0.63160194
O 9.52333708 3.01960854 2.34723687 -0.60770840 -0.28811108 -0.20931345
O 21.99667865 3.08728615 2.43099441 0.13496431 -1.05026299 1.80518034
O 8.17144671 -0.00460780 8.16019023 0.56956198 0.86143943 0.27111812
O 20.63223058 6.10949867 8.14902245 -0.47910438 0.01443363 0.96870717
O 8.23967903 3.14413303 8.11590377 -0.20002402 0.75791555 -0.75840938
O 20.54168846 3.09244553 8.09150310 -0.35681711 0.08630079 -0.14781590
O 7.65032804 1.59631896 3.24322645 -0.08805485 -0.12193784 -0.18308376
O 19.85569914 1.54644162 3.21833448 -0.49340085 -0.59765306 0.05433657
O 7.55529477 4.61368760 3.13325940 0.04719863 1.22655804 -0.45749488
O 19.95708882 4.60783842 3.25716090 -0.02513818 -1.48757562 0.02942729
O 6.11336694 1.52945649 8.88815467 -0.36700508 0.02174425 -0.65005115
O 18.51938990 1.52994326 8.97907245 -1.16124841 0.77325507 1.13552630
O 6.17968209 4.62721168 8.89574512 -0.30004948 1.62168522 -0.63266540
O 18.50607242 4.50528915 8.86482118 1.10206409 -0.12205489 -0.27535394
O 3.54514342 1.55032599 2.38486214 -1.09674009 1.86451957 0.78244525
O 15.72796884 1.53006839 2.48218949 -0.54409174 0.37957118 -0.47421612
O 3.43282798 4.60613049 2.51244807 0.02957914 -0.55824010 1.44550740
O 15.82784771 4.59625801 2.52906626 0.32856626 -1.16475966 -0.96445001
O 2.00429315 1.54710572 8.07555952 0.30130509 -0.28681714 0.98577555
O 14.41572903 1.50919556 8.05990220 -0.21950514 -1.01774182 -0.08930911
O 2.20821125 4.61071926 8.18713612 0.25391143 -1.33068914 -0.91224181
O 14.44882747 4.56505543 8.12509495 -0.02617165 -0.86659284 -0.65688113
O 12.03179256 1.49059077 1.51905818 -0.10917045 -0.64123258 1.03215005
O 24.30747203 1.42519519 1.42504707 0.19008310 -0.11455515 0.76059259
O 11.95872923 4.58714906 1.53423687 1.54054700 -0.53391259 0.09054641
O 24.34825918 4.53163720 1.39584016 -0.08273815 -0.03387726 -1.53025504
O 10.53408969 1.52037595 7.03363108 -0.62492268 -0.19002650 0.12684645
O 22.95242328 1.50848750 7.12643061 0.83354302 -0.66759402 0.31138248
O 10.57834610 4.54817645 7.14801975 0.50807228 -1.19645449 -1.22480493
O 22.94002168 4.60692217 7.01776345 0.27279948 -1.09189063 0.52431609
O -0.92103585 1.49063134 4.16451248 -0.44781089 -0.32830040 1.38046703
O 11.46080189 1.50810721 4.18994286 0.89314210 0.80593728 0.03381885
O -0.97724980 4.73559640 4.14442567 -1.43043361 0.22091072 -0.51681557
O 11.28359833 4.60022223 4.25779917 -0.33660296 -0.47869954 0.01617678
O -2.28426531 1.58734139 9.98006155 0.25502882 -0.17716527 0.28812079
O 10.04455177 1.48360757 9.79571610 -0.67617445 -0.42296028 0.82791889
O -2.42605676 4.61210934 9.85716691 -0.74892657 -0.28071634 -0.33740261
O 9.99621443 4.65849911 9.93198834 0.25594831 -0.15819506 1.29641772
O 5.85746184 6.09145945 1.39143808 -1.26262095 1.10545949 0.04869854
O 18.21768471 -0.04218329 1.44155496 -0.86159667 -1.25426179 0.61445239
O 5.77581761 2.99172429 1.51975852 1.72086475 -0.00356195 0.22644706
O 18.08644187 3.02499515 1.39472296 -0.64580730 0.67527433 -0.54276881
O 4.37980427 6.03925139 7.11016715 0.37803164 -0.14746916 -0.63849755
O 16.66876592 -0.04741851 7.06337889 -0.55819431 -0.19975360 -0.35222694
O 4.36807000 3.03044418 7.14101261 1.33676807 -2.31167928 0.61753246
O 16.70130668 3.05654431 7.16881382 0.78489039 -0.43640470 -0.28814923
O 5.20309191 6.07923450 4.27409828 -0.56274406 0.23967513 0.10704139
O 17.54371470 0.02244125 4.24163986 1.88679216 -0.02016794 1.19984824
O 5.20822417 3.09521400 4.15941699 -0.13538484 0.50792770 -0.10517845
O 17.52251171 3.08264704 4.08317301 -0.72530627 -0.42803372 0.18466206
O 3.80035765 6.09878022 9.92514738 0.37087737 1.72487580 -1.29403838
O 16.16708471 -0.07176894 9.85020610 0.23671469 0.48454360 -2.39928246
O 3.75672108 2.93985192 9.94638641 0.75927444 1.16553265 0.36825507
O 16.10692407 3.04781735 9.86810295 -1.15412453 -0.55175863 -0.09818264
159
Lattice="24.968141 0.000000 0.000000 0.000000 6.181771 0.000000 -2.785241 0.000000 11.445212" Properties=species:S:1:pos:R:3:force:R:3 Energy=-622.439891 Virial="-54.056516 -0.426997 -3.171137 -0.426997 -44.718735 -3.777468 -3.171137 -3.777468 -38.848946" O_vac_type=O_O3 O_vac_tier=low O_coord=4 defect_vacancy pbc="T T T"
Ga 0.09076229 -0.05234395 4.54120531 -0.14394429 -0.86886106 -0.35291336
Ga 12.62046831 6.12168840 4.54504424 -0.62210940 0.72649536 1.08598598
Ga 0.08992486 3.05903883 4.45750878 -0.09868284 0.58418652 -0.45794804
Ga 12.49818069 3.10463966 4.56058880 0.57096585 0.85732024 -0.16241595
Ga -1.35348617 6.30110885 10.26371213 1.03996282 0.23944040 1.01276004
Ga 11.22775355 6.22079150 10.32632777 -1.17044944 0.23428115 0.82091808
Ga -1.36706616 3.02167560 10.19187092 1.65478470 0.56636399 0.15540600
Ga 11.03424306 3.00201063 10.25859108 -0.14210089 0.83955372 -0.13385627
Ga 11.03743156 -0.05973624 1.14612109 0.30252883 -0.60296961 -0.24921820
Ga 23.61826402 -0.01624526 1.20153378 -1.08973595 0.30274634 -0.57290350
Ga 11.06997187 3.14897327 1.19109333 -1.00081948 -0.88777821 -0.27845966
Ga 23.58536598 3.07019345 1.15151691 1.85358920 -0.12090232 0.69270735
Ga 9.67172219 6.12926711 6.84448789 -1.09213743 0.41727001 1.76610466
Ga 22.13931703 0.01602954 6.92553757 0.51748515 -0.14822624 0.36978521
Ga 9.74991497 3.03666912 7.04175472 0.63434997 -1.14892605 0.38001802
Ga 22.15746211 3.12647363 6.88101631 -0.00279127 0.45089631 0.16545233
Ga 6.25032056 1.50415036 4.55598976 -0.55579746 -0.18917531 -1.32819304
Ga 18.79119169 1.56449273 4.46326023 -1.05904232 0.04462356 -1.58044213
Ga 6.28510398 4.64916973 4.56668227 -0.04375488 -0.03531536 -0.94424642
Ga 18.75081092 4.50783133 4.48835174 -0.02723239 0.41825584 0.49103484
Ga 4.94143134 1.54986615 10.27155648 0.29979222 -0.75592917 1.34581352
Ga 17.37336732 1.54946491 10.40838280 -0.97420804 0.49740796 -0.74094971
Ga 4.87429815 4.72105074 10.30509873 -0.17224984 0.13804619 -0.39891150
Ga 17.35797143 4.58768339 10.18295965 0.33683115 -0.35815105 1.85831422
Ga 4.80870116 1.53534085 1.10599582 0.02818468 0.95017212 0.03412653
Ga 17.29601480 1.52477154 1.23273434 0.04691320 0.76390114 0.28955840
Ga 4.85472957 4.51609965 1.26509400 -0.08402456 -0.02483514 0.19695783
Ga 17.26535479 4.62222696 1.18150418 0.14254036 -0.11925853 -0.56502473
Ga 3.41350245 1.50776162 6.87473757 -1.08804464 -0.52167828 -0.52950878
Ga 15.98458626 1.54837431 6.91198467 -0.39127555 0.57209584 -0.80100585
Ga 3.37543546 4.65363664 6.85406904 -0.54020085 -0.16058300 0.42345940
Ga 15.91841447 4.70078722 6.95803234 -0.52502007 -0.33251236 -0.94617546
Ga 1.58767086 1.54712030 1.85816377 -1.61579279 0.58121368 -0.37094430
Ga 14.01426506 1.52058477 1.89641491 -0.52744183 -1.37711985 -0.99511308
Ga 1.62047345 4.62694365 1.71056266 0.63658375 -0.13572337 -1.04255000
Ga 14.10345888 4.65864934 1.84624775 -0.62103073 -0.61362747 -0.55324824
Ga 0.08084480 1.48193006 7.57090037 -1.63179178 0.49091714 0.22053056
Ga 12.58672606 1.56024969 7.51422213 1.15617896 -0.86775528 -0.88506614
Ga 0.19238323 4.59199091 7.44849847 -0.11275492 0.86955479 0.69430964
Ga 12.66632633 4.54196527 7.50000332 0.76258214 0.34171983 -0.43742582
Ga 9.56103462 1.60363119 3.95059924 -1.11544114 -0.41687809 -0.33171123
Ga 22.04476705 1.58264624 3.92556256 0.56668872 1.32445905 0.70042431
Ga 9.63217035 4.58145054 3.95413149 1.40879124 -0.05972668 1.87092697
Ga 22.05496053 4.62668219 3.87333751 0.01578726 1.94236636 1.02481696
Ga 8.15924565 1.57553150 9.66703125 -0.10489482 -0.93872957 -0.14193086
Ga 20.67837741 1.55606803 9.62653895 -0.18931492 -0.22291843 1.00614404
Ga 8.09757671 4.56326565 9.71221187 -0.60493633 0.01130396 -0.36125341
Ga 20.61134745 4.54380473 9.63483157 0.30562515 -0.31775336 0.64195042
Ga 7.77003680 0.01687570 1.73699529 1.15038751 0.68020489 -0.37718723
Ga 20.28966595 -0.07962259 1.91255650 1.04378592 -0.14749041 -1.13588682
Ga 7.76349922 3.11470764 1.77554285 -0.30926880 1.33502817 0.37138129
Ga 20.24137094 3.06128133 1.83292138 0.24489605 0.59176952 0.29925507
Ga 6.29302872 0.02055163 7.45952049 0.15455970 0.01705035 1.15094038
Ga 18.80848030 0.05759591 7.57671679 0.66688819 -0.43693543 -0.07739729
Ga 6.40667393 3.15465910 7.45954068 -1.33401783 -0.32534905 -0.13674424
Ga 18.88231502 3.10751642 7.63880332 -0.43519596 -0.60585272 -1.63141513
Ga 3.30104286 0.06903588 4.01802171 -0.24487337 1.24212817 0.59431314
Ga 15.84846905 6.13188592 3.74049778 0.13992149 -0.71149746 -1.26383401
Ga 3.22589667 2.97835658 4.00104388 -1.86187685 0.71631303 -0.36281370
Ga 15.75228597 3.10316732 3.95758045 1.70280018 0.05468048 1.40494601
Ga 1.91804031 0.00169978 9.65556516 0.43710004 0.94719259 0.25798648
Ga 14.40213652 6.13339253 9.65860629 0.00849443 -1.64793459 -1.56206304
Ga 1.87209643 3.10585366 9.71094634 2.31908386 -0.17355321 -1.06333941
Ga 14.32660777 3.13087688 9.65251044 -0.86900590 0.82451590 -0.32645968
O 1.84734635 6.25788395 0.63053100 0.70580232 0.75995658 -0.61299940
O 14.21599755 6.16795135 0.61657451 -0.31473758 -0.94954933 -0.22236225
O 1.90139551 3.12079236 0.63141335 -0.82509997 -0.68542133 -0.34327810
O 14.27930640 3.11410141 0.59451553 0.24745707 2.37247108 -0.73066800
O 0.50622343 -0.09777841 6.32272134 -0.57447809 0.38890663 -0.61810781
O 12.97272859 6.23255978 6.38541183 0.07998340 0.78479354 -1.19902693
O 0.51239505 3.03911158 6.31761938 0.40456006 0.25889558 -0.43900682
O 12.99098660 3.08923724 6.43285761 -0.07183899 -0.60233479 -0.24454648
O 9.30200945 -0.10120849 5.16156211 -0.53509927 -0.17378907 -0.94756741
O 21.83358482 0.01394009 5.14287847 1.39841558 1.48321713 -0.03789435
O 9.15225054 3.08655247 5.09327071 0.59374058 -0.68925723 -0.13537980
O 21.70212547 3.11509172 5.06945118 -0.82785146 -0.95386963 -0.34477424
O 7.84431860 6.20884649 10.84908040 0.40886846 -0.52195217 0.26793613
O 20.36130008 6.21313334 10.85661651 0.08073025 -0.33262775 -1.52084637
O 7.86034397 3.04658183 10.68435730 0.44359408 -0.93032183 0.45596283
O 20.18952258 3.07839752 10.78077566 0.04715569 -0.38337371 -0.06213306
O 8.20217351 1.60066475 0.73960576 0.58953819 -0.06418565 -1.21823240
O 20.63117243 1.63090234 0.67179554 -0.39019649 -1.87238723 0.10506077
O 8.07996615 4.49888764 0.66190834 0.20586418 1.38763735 0.03862036
O 20.53041592 4.68678045 0.53330868 -0.62919778 1.60436359 -0.70336168
O 6.70387404 1.63499203 6.35466861 0.52673641 1.13591117 0.31592158
O 19.26466350 1.52065070 6.34510108 -0.08996367 0.06188839 0.10448483
O 6.72169436 4.60790956 6.39116129 -0.00293778 -0.27528823 0.45647224
O 19.26431136 4.70108499 6.31344930 -0.36486074 0.28040097 -0.03882858
O 2.99018848 1.57375011 5.12096013 0.44122804 0.08885308 -0.21304943
O 15.38141116 1.63904529 5.09897293 1.21716078 -0.68086519 -0.83303173
O 2.95198793 4.66824404 5.12537910 -0.17002110 0.56332911 1.05658681
O 15.45867955 4.72389502 5.13939762 -0.65520614 -0.37591792 0.42319705
O 1.51365943 1.57654639 10.84194226 -0.90874048 0.45640434 0.30447684
O 14.09771158 1.56294922 10.90488387 -0.26033402 1.11611773 0.39734935
O 1.55028191 4.61324695 10.82040480 -0.00132763 0.01326653 -0.10755235
O 14.14158098 4.66970813 10.81940632 0.27945094 -0.76717444 0.54822037
O 1.36102588 6.22058337 3.15937723 -0.07651849 -0.42370389 -0.42157885
O 13.83194029 -0.05426441 3.22922232 0.63892175 -1.48872759 0.78798421
O 1.36118176 3.14285285 3.22527553 0.19756796 -0.71790922 0.12262976
O 13.84759043 3.06244541 3.23555165 1.34468219 1.34824714 -0.01530622
O 0.02019673 0.01584822 8.93125928 -0.33984172 -0.93277188 -0.04100522
O 12.50538194 0.01193389 8.97502788 0.22657678 0.37253307 0.02374710
O -0.06269142 3.07475542 8.91963285 -0.55677918 0.00545569 -0.20660094
O 12.41470699 3.06562649 9.00299983 -0.37293959 0.46157701 0.05039972
O 9.77262033 6.18032878 2.46842231 0.72661990 -0.71591269 -0.61422376
O 22.18552783 6.15270343 2.48405295 -0.14011774 0.18525489 0.90785643
O 9.58540149 3.17362980 2.49447285 -1.05875234 -0.76206797 0.16383110
O 22.25513575 3.06384119 2.47133019 -0.16552264 0.38122108 -1.51716417
O 20.76448099 6.12858470 8.26356839 1.41645762 0.15946462 -1.19215472
O 8.35031512 3.10926366 8.21310750 0.45798516 -0.64700666 0.38351277
O 20.80520536 3.12617818 8.24083569 0.89646023 0.93496171 0.25378244
O 7.63854467 1.63600313 3.29087337 -0.70978847 0.45204052 -0.36184965
O 20.13759661 1.62623718 3.20478330 0.01649129 -0.69978723 1.27429775
O 7.61141314 4.63790751 3.21997268 0.53109926 -0.96892465 0.69499165
O 20.06240370 4.70052014 3.34995297 0.18266954 -1.16906469 0.34343857
O 6.24854212 1.56838580 8.84474698 0.59648923 -0.49599575 1.83844481
O 18.69320995 1.53451292 9.11260895 -0.28175911 0.63109920 0.54865946
O 6.23851196 4.65956765 9.02579580 0.47575707 -0.46867273 0.62888556
O 18.60398354 4.64956712 8.94415542 0.24417375 -0.43556234 -1.52034988
O 3.49472816 1.52064723 2.51333962 -0.10870359 -1.30828570 1.90567410
O 15.98197966 1.50735357 2.44881075 0.24647378 0.76993090 -0.04605967
O 3.51657718 4.63108005 2.44671622 0.39608826 -0.20349441 0.46508297
O 15.93742004 4.60621118 2.47456971 1.23614459 -0.12214364 0.44624446
O 1.99664004 1.62657155 8.20613670 -0.94564783 -0.94191956 -0.40101204
O 14.52142335 1.53378795 8.18365315 -0.98650915 -0.45557951 -1.00976338
O 2.14127295 4.53591493 8.11990322 0.19712110 -0.50919843 -0.04441580
O 14.55071096 4.64261265 8.34568638 -0.94191561 0.07140957 -1.24919212
O 12.10743841 1.48569348 1.45572821 0.77673564 0.01151091 -2.48162523
O 24.55398191 1.52374396 1.52173014 -0.80136617 -0.89803278 0.12240293
O 12.12026974 4.55945884 1.49074928 0.20537905 -0.38783544 0.50346432
O 24.63915572 4.61243921 1.53274415 0.33777332 1.33022105 0.48027325
O 10.66115724 1.47095209 7.11768665 -0.86430470 0.78408788 1.88970906
O 23.20845113 1.51786555 7.17129801 1.51536509 0.25311934 -1.23771727
O 10.75064131 4.67071215 7.18748848 0.66906828 -0.76644289 0.94038094
O 23.23512114 4.64106940 7.17155836 -0.71158025 0.32395313 -0.47777923
O -1.01531786 1.58262130 4.26592112 1.49656124 0.24770966 0.75142139
O 11.49441985 1.52859279 4.30264136 0.54073242 0.09149762 1.76476521
O -0.99066689 4.57419599 4.22608440 1.06138378 1.26970304 0.38960287
O 11.53499399 4.62864661 4.33224508 0.18998836 0.36751817 -1.65965908
O -2.33266450 1.63380221 9.86332475 -0.68283734 0.50947676 -1.08861962
O 10.06577748 1.42062842 9.91008711 0.48835796 0.42046978 -0.83723249
O -2.36237675 4.59249586 9.96180795 0.28715463 0.05718531 0.76556877
O 10.06192944 4.63057485 10.00394846 0.34549628 1.10441808 1.33608398
O 5.83228300 6.16010242 1.47873001 -0.77265280 -1.32757087 0.71355631
O 18.43128541 0.05875093 1.51242700 -0.39515243 0.88255386 0.80318229
O 5.81659505 3.05749223 1.48808271 -0.84320296 -0.52205413 0.45251501
O 18.28667145 3.15419599 1.52568087 1.26150756 1.05330655 -1.17598516
O 4.48675531 6.20250727 7.14327313 -0.13949768 1.18589411 -0.44626988
O 16.95235389 -0.04947367 7.13270222 -0.98070720 -0.12706568 1.43944789
O 4.50974536 3.08112678 7.08805482 0.45849498 -0.94012136 -1.00654264
O 16.84765146 3.08954740 7.19555860 -1.26240310 -0.81593849 0.92879686
O 5.27702796 6.16753691 4.35155714 0.14748523 -0.17566549 1.00150549
O 17.73160570 -0.04421601 4.22474285 -0.22201439 -1.02615051 -0.54013864
O 5.24441274 3.13571431 4.22747827 0.02003707 -1.11785207 0.86260189
O 17.76959172 3.00681920 4.21504632 -0.04998107 0.45470440 -0.04393676
O 3.88074220 6.16570355 9.94726484 -1.62689397 -0.38596483 -0.39845159
O 16.40024948 0.01193252 9.95296731 -0.05353489 -0.25376127 -0.01541690
O 3.81957473 3.18224885 10.01473373 -1.26220558 -0.84265671 0.62556540
O 16.32685395 3.09036402 9.96817598 -1.27138841 -0.86430917 1.31033077
159
Lattice="24.738384 0.000000 0.000000 0.000000 6.124886 0.000000 -2.759611 0.000000 11.339894" Properties=species:S:1:pos:R:3:force:R:3 Energy=-624.692281 Virial="-55.454572 -2.494969 -1.437502 -2.494969 -47.366717 -2.798958 -1.437502 -2.798958 -44.245136" O_vac_type=O_O1 O_vac_tier=low O_coord=3 defect_vacancy pbc="T T T"
Ga -0.03516282 0.15210839 4.49051630 -0.52606077 0.20848276 -0.06162253
Ga 12.41587344 6.10884309 4.51760284 -0.49331108 -0.07233760 0.28865901
Ga -0.06228456 3.11045654 4.52946438 -0.12711805 -0.25780647 0.13529307
Ga 12.38433157 3.05707620 4.32314781 -1.29058325 -0.09792356 -1.21354516
Ga -1.42717513 5.97953379 10.20388175 -0.46189356 0.75691609 0.10776488
Ga 10.92522255 6.15378730 10.20742791 -0.86505384 0.48985939 -0.69036940
Ga -1.30115686 3.09735970 10.15835994 -1.56288065 -1.16254606 -0.13770410
Ga 11.00242181 3.06934790 10.33936963 -1.01972333 0.16383276 -0.77908190
Ga 10.97462778 0.01305114 1.19797823 0.06427099 -0.32868739 -0.63363791
Ga 23.29846509 -0.03691006 1.20530718 0.48191991 0.56732035 -1.13479403
Ga 11.03249504 3.12945521 1.08180800 0.70984429 0.33795189 -0.90476573
Ga 23.39622470 3.02159483 1.18952904 0.10969318 0.39333449 -0.84602470
Ga 9.58928408 6.12297980 6.79949381 1.78962587 -0.74879404 -0.75323393
Ga 22.05259519 0.04494111 6.83666290 -0.04976318 0.15529416 -1.18116586
Ga 9.59518856 3.01363841 6.79327420 0.50211724 0.72539602 -0.14350207
Ga 22.06045469 3.04133286 6.77615477 -0.95713029 -1.24092812 0.09532323
Ga 6.25554869 1.51915803 4.48139916 0.68541752 -0.74878187 1.59017989
Ga 18.63828893 1.57312114 4.39235762 -0.66396637 1.24977590 -0.23654034
Ga 6.14896539 4.58809331 4.49259253 0.47599837 -0.03918003 0.29266654
Ga 18.61025116 4.54781469 4.52245708 -0.04082546 -0.15143278 0.44529035
Ga 4.90311757 1.44531727 10.24086958 -0.08943781 -0.12061191 0.17513746
Ga 17.16698643 1.46163372 10.13587782 0.46512186 -0.92871108 0.30232474
Ga 4.80357004 4.46597134 10.21385520 0.60574795 0.39612087 0.88008266
Ga 17.18940886 4.57542429 10.13735965 -0.91049922 -0.28764090 -1.56320852
Ga 4.82474678 1.54144897 1.14137323 -0.62801468 0.11865166 0.68932336
Ga 17.19803273 1.53238467 1.22881248 -1.05002970 0.42879964 0.60551365
Ga 4.81437329 4.56241419 1.15421318 -0.24507698 -0.39996441 1.73415660
Ga 17.07564158 4.57205138 1.17088885 1.26908727 0.64606581 -0.47477586
Ga 3.40722216 1.48878620 6.84472950 -0.41033387 1.15148009 -1.57014860
Ga 15.74309789 1.50680548 6.85813301 -0.90005880 -0.41494450 0.49713192
Ga 3.42907585 4.61219016 6.72251639 -1.72271713 -0.65159079 -0.14192844
Ga 15.65672726 4.54360844 6.81023583 0.62073828 1.03315061 0.70908481
Ga 1.51014081 1.51184756 1.85481972 0.69674599 -0.35249278 -0.13935879
Ga 13.99815246 1.42061409 1.90063273 -0.55355195 -0.31056709 -0.49286723
Ga 1.57183890 4.64203885 1.79800271 -1.99429006 -0.15441205 -0.52922249
Ga 13.88535289 4.58694262 1.77724620 -0.19006968 0.02363102 0.00198587
Ga 0.11002726 1.51240762 7.40628198 0.33762879 0.66299212 -0.95519640
Ga 12.56942909 1.55652399 7.40505485 0.37867212 -0.05289986 -0.28014436
Ga 0.14220431 4.51123587 7.48117131 0.22070713 0.44616488 0.08213143
Ga 12.58901131 4.53658428 7.49905882 -0.08361231 0.81858521 -0.06217971
Ga 9.46272893 1.58861276 3.91507810 0.26967532 -0.82819771 0.19723873
Ga 21.84557137 1.39878911 3.89194049 -0.79500520 -0.96964723 0.25287902
Ga 9.44667118 4.53399640 3.86844445 0.81038097 1.34607244 1.60286187
Ga 21.82125569 4.58960475 3.85735923 -1.39975040 -0.55494128 1.73064721
Ga 8.03527109 1.52065398 9.61081255 -0.78825569 1.28579309 -0.52514760
Ga 20.42433641 1.61549583 9.57908491 0.09313845 -0.46798367 1.49822461
Ga 7.97654546 4.52665194 9.68232467 -0.55696438 0.91949934 1.44732428
Ga 20.38441377 4.59549387 9.57533631 -0.73672018 -0.69013541 1.35466922
Ga 7.67011635 0.03751280 1.84134301 0.23593233 0.37596005 -0.64259490
Ga 20.14021671 -0.01130776 1.82673514 -0.55486329 0.80372583 0.18782623
Ga 7.69265939 2.99714689 1.71520511 1.06886249 -0.67871916 -0.74321480
Ga 20.07071175 3.13617630 1.94512469 1.14965225 0.92561501 -0.50988938
Ga 6.25448365 -0.08309144 7.49342093 -0.54699120 -0.49023439 -1.22298125
Ga 18.63778012 0.06147213 7.48648087 -1.60402672 0.33736756 -0.97085940
Ga 6.39580671 3.16439603 7.46017589 -0.64896326 -0.41038479 -1.29606606
Ga 18.78037680 3.03787839 7.54822467 -0.40141009 -0.29212526 0.29280440
Ga 3.27541787 0.01215630 3.81359789 1.35013298 -0.96013959 0.12025378
Ga 15.75886044 6.14530721 3.94851418 0.90283306 0.39566712 -0.00476686
Ga 3.28122261 3.03317133 3.77263288 1.24423131 -0.87632774 -0.92488239
Ga 15.70021742 3.02537313 3.87307330 -0.08529412 -0.45685464 0.22886534
Ga 1.87807677 0.01980884 9.62935019 -0.77960454 -0.09119462 0.95302336
Ga 14.22195301 6.10064472 9.58458385 1.58810280 0.25114324 0.64617832
Ga 1.86712120 3.12980640 9.67559624 -0.31715049 1.37834629 0.19393927
Ga 14.16076580 3.08465236 9.53983784 0.44229563 0.54147127 0.07971209
O 1.86901974 6.09378506 0.58389109 0.56378410 0.04583359 0.02537915
O 14.23939191 6.18807601 0.62759353 -0.16951691 1.04657835 1.29760170
O 2.02387525 3.07957659 0.63768403 0.76559809 -0.96365699 0.13035949
O 14.31902790 3.06863164 0.65978378 1.11218807 -0.01694415 -0.19118256
O 0.54220640 -0.00382160 6.42197405 0.36815960 -0.56447262 0.42137649
O 12.85532266 6.16278997 6.26781551 2.02252248 -0.13768237 0.56879082
O 0.56626378 2.97802019 6.26117704 -1.22284303 -0.30504983 1.12466164
O 12.88664401 3.11844250 6.30291688 0.07588936 -0.34474955 -0.99215778
O 9.18711457 0.09842076 5.08736226 0.43960579 1.59726291 -0.13531904
O 21.50694733 0.18681939 5.13186584 -0.01665523 -0.99497212 -0.12303867
O 9.22021706 3.14578516 5.07804863 -0.09872461 -0.72458671 -0.92032668
O 21.39819800 3.00742502 5.06788922 -1.28612829 0.39268062 1.38954579
O 7.73299257 6.19453293 10.82602176 0.53314669 -0.39109441 -0.07397299
O 20.14863480 6.11766533 10.62056458 1.58040160 -0.73493341 -0.27417911
O 7.61168295 3.16245378 10.64210155 0.45618626 -0.59164176 -0.59244271
O 20.11827411 2.99972261 10.70280206 -0.02275969 -0.07813901 0.48875741
O 8.01176196 1.55066880 0.62645957 0.44637774 0.03547019 -1.15664128
O 20.41843202 1.58951666 0.61786593 2.26012491 -0.46398139 -0.24545753
O 7.99035032 4.57115221 0.64507859 -0.34198847 -0.80631492 -0.25699686
O 20.36212170 4.54552711 0.58847641 0.54046651 0.35162631 0.15748983
O 6.68471222 1.46217702 6.23014357 -0.30233757 -0.21580872 0.97733018
O 6.71028501 4.58437975 6.42748062 -0.67400774 -0.08952414 -1.25738382
O 19.02239050 4.57015096 6.30074480 0.35153963 -1.03789182 -1.01440541
O 2.94612520 1.53202899 4.92393670 -0.72505506 0.85357122 -1.00057608
O 15.45390923 1.49707927 5.09068566 -0.32531074 -0.19725297 -0.29333998
O 2.97235810 4.59376198 4.98488156 0.14999923 -0.17143274 0.12892713
O 15.27469491 4.49682065 5.08562933 -0.07191754 -1.12599194 0.98772092
O 1.46342326 1.56399515 10.74429702 -0.21844213 -0.28330547 -0.00142801
O 13.98429449 1.52548539 10.77266549 0.10567519 0.36013083 1.82760872
O 1.56034560 4.55936803 10.68965475 0.10923987 0.40333123 1.06921699
O 13.98072470 4.55671197 10.70769893 1.37807215 1.87010802 1.12292472
O 1.34055354 6.21837618 3.25680653 -0.23314470 -1.61852208 0.66790153
O 13.66238453 0.02539463 3.16651186 0.48947696 0.23383763 1.12035768
O 1.32340057 3.09634759 3.21865493 -0.12356809 -0.15909564 -0.05282894
O 13.78174914 3.15222379 3.21990173 1.30661617 -0.97056173 0.17041765
O 0.02675451 -0.05733240 8.94408486 1.37707268 -0.24242313 -0.01359519
O 12.40101589 -0.07050881 8.89620756 -0.75297335 0.84550286 0.97599171
O 0.01056362 3.07610272 8.83756345 0.16677859 0.22136142 -0.57959749
O 12.37677734 3.09643380 8.78104086 -0.99011776 0.62909457 -0.42678919
O 9.67211059 6.10145275 2.59132053 -1.28830616 0.55466583 -0.54693555
O 22.03567591 6.08756332 2.44572927 -0.26676887 1.47157040 -2.56698025
O 9.64428819 3.04376779 2.46590332 -0.21699175 -0.97003488 -0.77470819
O 21.99367029 3.11496484 2.42646991 0.78290085 -1.35294249 0.68709020
O 8.24116131 0.11908704 8.12891071 1.03263346 -0.15844000 0.63528993
O 20.72475184 6.12151293 8.13535990 -0.64453662 -0.10360744 -0.64026066
O 8.16509751 3.12343959 8.12847543 0.77620232 0.84131189 0.40393562
O 20.62423155 3.07980066 8.17543322 -1.20314328 0.19361829 0.04454744
O 7.61113705 1.50693766 3.18202962 1.37862106 1.40837143 0.77392011
O 20.02319738 1.42999367 3.19942856 0.16652712 -1.29098659 1.07936844
O 7.69326434 4.57908753 3.26691201 0.22919049 1.36134047 0.90219378
O 19.84641819 4.55843928 3.17876036 1.34946015 0.97771366 -1.74536675
O 6.17599116 1.54812876 8.91038656 -1.13505853 0.19498626 -0.09101139
O 18.56953328 1.47084652 8.90683340 2.13759688 0.38823420 0.11678885
O 6.20342567 4.58682761 8.89914327 -0.55098803 0.68895755 -0.26050186
O 18.50040656 4.58536942 8.87241491 0.86106333 1.60049487 -0.17467589
O 3.46358284 1.50277993 2.42244836 -1.56573264 0.21903416 0.32542572
O 15.82259251 1.67777343 2.56829557 0.92760930 0.77867393 -0.55553421
O 3.44096479 4.40386262 2.47557452 1.45925775 -0.75893816 0.57211248
O 15.82224230 4.62912822 2.42360303 -1.40832220 -0.34188987 -0.09094201
O 1.96476943 1.53363928 8.16631699 -0.73286744 -0.69760606 -0.51574642
O 14.47821956 1.55461382 8.08755628 0.13776501 -0.26196645 -0.74912110
O 2.09068949 4.60333074 8.22937879 -0.83358392 0.05998088 0.04161987
O 14.28304542 4.57092237 8.10982592 0.17384786 -0.72158317 -0.61167461
O 12.09875900 1.42321415 1.51129262 0.28772932 0.45617449 0.14461113
O 24.35199979 1.53003451 1.42746963 -0.56394976 -0.73322445 0.03454729
O 11.98650377 4.58289775 1.36148088 -0.45864543 -0.76038861 -0.72755280
O 24.30686739 4.48130915 1.52756003 0.58047958 0.33647421 -0.64332440
O 10.59832748 1.49487398 7.20984990 0.65434528 0.03003590 -0.04862961
O 22.96121731 1.61524926 7.17772378 -0.79439094 -1.30515366 0.03226073
O 10.60202636 4.57178129 7.20312288 -1.30789147 -0.34460860 -1.41562937
O 22.94823574 4.50744371 7.09669355 -0.23997834 -0.24380119 -0.04536228
O -1.00443017 1.53351399 4.26473744 -0.42020995 -0.37291270 0.18605910
O 11.38126764 1.52706622 4.17432164 1.10235628 0.20157840 0.21354999
O -1.16349933 4.75347996 4.23273216 -0.73559729 -0.02585433 -0.10423967
O 11.40747761 4.69701629 4.16747627 0.18967839 -0.12395368 -0.84945924
O -2.28084501 1.44928777 9.90992056 -0.44798927 -0.20127804 -0.04132856
O 10.10176912 1.53932484 9.82985003 0.79485909 -0.27437087 1.23019095
O -2.35599450 4.60635618 9.94912942 -0.41776518 0.60639123 -0.40219743
O 10.08183340 4.56299353 9.79084567 -0.27121171 0.77996107 0.48119540
O 5.84784935 6.06225244 1.42652477 0.89060870 -0.78779596 0.60981176
O 18.20947151 0.01250123 1.42310779 -1.27167702 -0.56525776 0.32939038
O 5.72170835 2.98741238 1.48747393 -1.13269531 -0.81874439 0.06947497
O 18.03402549 3.00350151 1.38799939 -1.08905868 0.57914291 0.36851043
O 4.47926717 6.06635909 7.19133719 0.86067858 -0.95512267 0.58178849
O 16.60807594 -0.01894537 7.08216961 1.42736505 -0.58707590 0.33154481
O 4.37404982 3.09840858 7.09994652 -0.29293335 0.58108898 -1.33541330
O 16.68455881 3.00339184 7.05634050 -1.53709342 -1.19280596 0.79281026
O 5.18554731 6.16389759 4.26884636 -0.48073498 1.59441292 0.20053409
O 17.67501835 -0.12897781 4.16670167 -0.79022185 0.06883518 -0.42283699
O 5.27316584 3.03263216 4.25332686 1.02257224 -0.03600079 0.37042316
O 17.47148217 3.10850257 4.15063293 -0.25723587 0.29108007 0.67516566
O 3.88409118 6.00751368 9.86904650 0.47551789 0.55903020 -0.82126032
O 16.17630705 -0.03333764 9.86346472 -0.68570298 0.38720041 0.29439639
O 3.89800658 3.03974842 9.75739342 1.84118818 0.80367100 0.31378605
O 16.20176451 2.98824580 9.90329297 -0.03977544 -0.72937437 0.63457263
159
Lattice="24.888804 0.000000 0.000000 0.000000 6.162128 0.000000 -2.776391 0.000000 11.408845" Properties=species:S:1:pos:R:3:force:R:3 Energy=-621.367156 Virial="-53.589303 -1.149845 -2.287498 -1.149845 -46.219905 -3.585765 -2.287498 -3.585765 -41.527101" O_vac_type=O_O2 O_vac_tier=low O_coord=3 defect_vacancy pbc="T T T"
Ga -0.01763897 0.05771687 4.56922578 -1.04816412 0.31641902 0.88711034
Ga 12.47249698 6.15737570 4.46659629 0.34462869 -0.09157328 0.61104470
Ga -0.00038461 3.07830877 4.58771232 -1.33475906 0.86954351 0.09705365
Ga 12.41075720 3.04263239 4.61455877 0.42440606 0.79528539 1.00971873
Ga -1.47873808 6.07380397 10.20812217 -0.44713712 0.60139414 -0.43533401
Ga 11.09117784 6.14108551 10.32606006 0.15723009 -1.11257908 0.57939838
Ga -1.45763497 3.15935797 10.31697592 0.56253714 0.13409874 -0.35114273
Ga 10.99644851 3.01239251 10.21042127 -1.22982996 -0.55391973 1.15785919
Ga 11.00251298 0.04259537 1.15429996 0.87915990 -0.71604867 0.55812519
Ga 23.44687701 0.11447638 1.19111949 -0.16872117 1.54964264 -0.19865528
Ga 11.05611616 3.03616893 1.26428719 -0.59150452 -1.08619821 -1.30352610
Ga 23.57444287 3.03693764 1.01031098 0.68858411 -0.10817101 0.19106090
Ga 9.69466640 6.21016423 6.94500353 0.52375316 -0.37910466 0.10819673
Ga 22.07885048 -0.03652404 6.89453195 -0.75701361 0.10206478 -1.22787000
Ga 9.69381352 3.03539525 6.90168910 -0.00835705 -0.19292552 -0.67583978
Ga 22.12178204 3.13610677 6.89251901 0.47708047 0.53352078 2.06577528
Ga 6.19866466 1.47675599 4.48691059 -1.29416046 -0.35551094 0.59534446
Ga 18.72198237 1.57428446 4.67768593 -0.17381203 1.05566178 -0.06792104
Ga 6.15969956 4.76369734 4.42879250 0.83185206 0.59628861 -1.55958605
Ga 18.70123404 4.61659396 4.58431467 1.50810391 -0.94619557 -0.39565544
Ga 4.90400277 1.56778514 10.27247255 -0.01533908 1.55072303 1.12205753
Ga 17.27257778 1.53871804 10.34798513 0.25273475 -0.04519306 1.85303701
Ga 4.96444182 4.64353361 10.17622523 1.13945140 0.21006019 0.07041395
Ga 17.23106235 4.61174154 10.15070150 -0.82662088 0.15847478 -1.43672475
Ga 4.91323765 1.43785344 1.20074280 1.70267720 0.87822315 -1.12946898
Ga 17.27706744 1.62594682 1.05318947 1.01458903 -1.05475827 0.69780443
Ga 4.76376746 4.63299664 1.14725694 0.14636989 -0.43114271 -0.01284455
Ga 17.28863832 4.65649306 1.27667139 0.05176691 -0.47880140 -0.87966462
Ga 3.38637566 1.62998867 6.89216061 0.57378891 0.91046182 -0.02239313
Ga 16.01119995 1.55826436 6.87314704 -0.36931405 1.17398117 -0.74936825
Ga 3.53956245 4.66677783 6.87617344 -0.58487337 1.01891836 0.75163886
Ga 15.76608831 4.57466535 6.91321829 -0.08099961 0.08027294 0.92219147
Ga 1.59151811 1.44931390 1.76005107 -1.56881196 0.76268489 0.06762434
Ga 13.95144437 1.56286633 1.85893430 0.09703447 -0.88515789 0.69956439
Ga 1.53969178 4.57393427 1.88306472 0.88216828 0.44107848 -1.43698806
Ga 14.04408547 4.59333445 1.76393681 -0.80037601 -1.23396009 -0.31812354
Ga 0.04315525 1.56544752 7.53128733 -0.82663587 -0.22305656 0.44076800
Ga 12.55444472 1.64261738 7.46586868 1.36678690 -0.51597751 -0.06271424
Ga 0.20796260 4.67256615 7.43007585 -0.27170902 -1.44741412 1.00670809
Ga 12.61832770 4.56739513 7.58542835 0.82022025 0.18878368 -0.85607055
Ga 9.45695603 1.61213677 3.82581691 -0.15309181 -0.99152367 0.00946843
Ga 22.09592951 1.55180338 3.88292863 0.24605142 0.57416400 -0.48254251
Ga 9.56695127 4.59197475 3.91832205 -0.91521306 0.46291766 0.27440197
Ga 21.87611042 4.60520289 3.90739783 -0.86728490 -0.54964054 -0.14882638
Ga 8.05670317 1.43437281 9.64316259 0.22193448 0.15812256 -1.04293878
Ga 20.64184548 1.47255943 9.58513555 -0.05983804 0.79980520 1.18849559
Ga 8.11427580 4.57906563 9.63223332 0.32198166 -0.43707942 -0.88756166
Ga 20.53172484 4.56624523 9.53163579 -0.60814164 0.16419970 -0.11533983
Ga 7.77176723 0.03306236 1.92297633 -0.32717145 0.23276855 -0.01283472
Ga 20.22435002 0.11814284 1.75974792 0.33135119 -0.19640742 0.27732162
Ga 7.82416354 3.04026423 1.81430929 0.58656004 -0.20706027 1.19033746
Ga 20.15375591 2.98222705 1.74625632 -0.59992530 1.56249090 0.39511446
Ga 6.43860620 0.06139545 7.51823503 0.98188235 -0.25778957 0.69511774
Ga 18.73309811 -0.07885442 7.47590418 1.20080028 -0.02830725 -0.69597152
Ga 6.24230222 3.22930561 7.47743913 -0.38265313 0.92958250 -0.26559789
Ga 18.89715550 3.12952909 7.41950384 0.40437368 -1.16401610 0.23954594
Ga 3.25796493 -0.04887309 3.90390485 0.79120479 0.96814883 -0.24479544
Ga 15.77511258 6.12904564 3.94939833 -0.44535660 0.46964569 0.81166027
Ga 3.37008152 2.93089173 3.76124129 0.74368064 0.21102045 -1.19716711
Ga 15.64125036 3.01511724 3.85665768 -0.94351660 -1.49896327 -0.33911007
Ga 1.85572868 0.03305738 9.55172844 -0.40627370 0.41611587 -0.39830072
Ga 14.34462547 6.14543255 9.67174673 0.73938651 -0.16633825 0.01553544
Ga 1.82597216 3.16327842 9.59753973 -1.19484673 -0.95626007 0.87222087
Ga 14.43638771 3.16192327 9.57129020 -0.03807228 -0.46445885 -0.19991350
O 1.96952883 6.04162246 0.61777029 0.45773102 -0.49113592 0.34652094
O 14.34994441 6.17773791 0.56955557 0.77709497 -1.22415061 -0.87863427
O 1.79712970 3.07285511 0.56223415 -0.05753101 -1.23213126 0.90002016
O 14.30857061 3.10356717 0.62143879 -0.88693165 0.86440261 0.49568877
O 0.40866838 -0.01856182 6.30822760 0.47119459 0.88160702 -0.36513357
O 12.94115807 6.20030032 6.35371895 -1.04879238 0.15190843 0.24258448
O 0.48607304 3.13206301 6.27009548 -0.85169686 0.23285829 1.25609682
O 12.97990693 3.03552384 6.32677635 -0.43433332 -0.01004988 -0.13949474
O 9.14385879 -0.08079805 5.12574639 0.99997723 0.08955287 0.74474975
O 21.62029572 -0.03451764 4.98489601 -1.63446748 -0.67514471 0.75897599
O 9.17657989 3.04547245 5.12393363 -0.25078052 -0.63813627 -0.93845101
O 21.60226058 3.15112917 5.16552855 0.04467209 -0.84150878 -0.81063719
O 7.67630172 6.19480761 10.77724555 -0.00221597 -0.56964286 0.15924228
O 20.28614884 6.17998173 10.77261206 0.40729577 -0.43454681 -0.47854222
O 7.84079448 3.05949650 10.84665181 -0.31442650 1.11539238 1.02769596
O 20.22746451 3.10788834 10.70077260 -0.62650826 0.01068413 0.14742074
O 8.14080330 1.58010618 0.46237345 0.32020271 0.55753825 -0.20804695
O 20.59605477 1.47376306 0.67916408 -0.17857607 0.28102156 0.25244172
O 8.10620753 4.57442875 0.72770418 0.29471986 0.39430189 1.19543411
O 20.39880240 4.76263951 0.59907983 -0.37055204 -0.60894742 0.69967022
O 6.61135214 1.55062816 6.37085447 1.18291400 -0.12877967 -0.28188341
O 19.11302716 1.54124033 6.30469265 -0.62487647 2.05629229 0.07516376
O 6.82356405 4.54819635 6.31510040 0.49617091 0.15199562 -1.20022138
O 19.17434246 4.66880553 6.33462541 0.66491555 0.17103221 -1.16516295
O 2.95698050 1.49009325 5.06219862 -0.12091365 -0.84953149 -1.64711234
O 15.37514281 1.52035462 5.17092705 -0.57444084 1.21607330 -0.79119122
O 2.98806011 4.56512760 5.14791353 -0.40301307 0.21511537 -0.69885777
O 15.38300053 4.63270606 4.99902888 0.55780301 -0.43815967 -0.59740196
O 1.69077595 1.53559341 10.73311543 0.67732158 -0.44704201 -0.57248011
O 14.04767247 1.63305135 10.73008426 0.29294514 -0.03681572 -0.49131526
O 14.03453972 4.59626210 10.69176616 -0.80834590 1.28168667 0.63874415
O 1.35365247 6.10294598 3.17889410 0.64017297 -1.09220855 -0.11780848
O 13.87942548 -0.04678038 3.25851141 1.58115216 -1.06864113 0.10775165
O 1.33548521 3.11656647 3.26850092 -0.47173603 -0.12233693 0.72656152
O 13.72827384 2.96119488 3.19244778 0.90872753 0.13153164 -0.40649038
O 0.06493098 -0.00082328 8.91380396 -0.47965518 -0.58560966 0.52732398
O 12.50910455 0.12812162 8.89287779 0.53805107 0.20111097 -1.38432302
O 0.04834001 3.11170863 9.01365673 -0.49851264 -0.30345049 0.65905565
O 12.43071055 3.05541026 8.87211949 0.66879394 -0.65068641 1.24891009
O 9.76478511 6.11258344 2.48854034 0.04570705 0.31983923 -0.36037707
O 22.05844033 6.18168382 2.42809860 0.12551727 0.28272184 -0.86975453
O 9.65791333 3.07864568 2.45410900 -0.70587293 0.97047264 -0.22515827
O 22.07442863 3.13480407 2.66927492 1.10447046 -0.78556775 0.55129734
O 8.29719410 -0.01500141 8.29926497 -0.80517626 -0.19940107 0.32042783
O 20.79228403 6.24670084 8.20177369 -0.79300128 -0.98666593 -0.89892830
O 8.34902186 3.30887784 8.24298083 0.30012913 0.50466549 -0.03282199
O 20.69642147 3.16617273 8.16520775 -1.05962311 -0.95363790 0.76171318
O 7.74914502 1.51610177 3.33922373 1.56336410 -0.22059409 1.62275790
O 20.09761982 1.51475207 3.26811482 -0.90528839 -0.09465930 0.03547924
O 7.44634380 4.74609382 3.25393833 0.73588246 -0.56264018 -0.00934226
O 19.94765799 4.76782950 3.26015578 -0.63365299 -1.76162194 -1.63543741
O 6.13177169 1.48213103 8.86988383 0.45021790 0.56694951 -0.01773746
O 18.73599740 1.52482461 9.00928629 -0.95897029 0.40705800 -0.71385244
O 6.22950876 4.63451646 9.03771461 -0.79746169 -1.16623717 0.16110583
O 18.49923490 4.68079792 8.93963084 1.03592913 -0.33289291 -0.90442384
O 3.45066438 1.52121713 2.39947177 0.10437373 -0.78500909 -1.80513876
O 15.86239373 1.49743307 2.57643546 0.86448812 1.41520960 -0.15518391
O 3.49514074 4.62839483 2.41375830 -0.25129103 -0.23679315 0.47447682
O 15.92068252 4.63794681 2.46172220 -0.43383309 -0.50761528 -0.94623769
O 2.04996394 1.63678903 8.16026550 0.74991522 -0.43178352 0.06819760
O 14.44228112 1.73387450 8.19892391 0.08130607 -0.83256669 1.13849077
O 2.05890795 4.71086253 8.16251288 0.19387851 0.19046504 -0.81080277
O 14.51826412 4.59564898 8.16278670 -0.04555297 0.29560090 0.19025364
O 12.08000880 1.50742081 1.52494002 0.03535617 0.11985701 -0.46087630
O 24.43341357 1.51009250 1.51425352 0.32199232 0.05675829 -0.43330131
O 11.99567048 4.49939546 1.41324100 -0.74040265 -0.98853280 -0.68110249
O 24.49828922 4.60795937 1.41616642 -0.70013097 -0.10333836 0.27828861
O 10.66159616 1.50372798 7.20932416 1.14871259 1.40568751 -0.06317470
O 23.11369566 1.46943161 7.17769767 0.01161168 0.40488824 -0.10290475
O 10.67299528 4.50286020 7.08440333 0.73835405 0.51320220 0.81470601
O 23.24501414 4.59289633 7.15072926 -0.25390289 0.34970181 -0.77920061
O -0.93886254 1.60502142 4.18081163 0.40337211 1.20907661 -0.79861830
O 11.42901503 1.57999731 4.27635268 1.67500246 0.59494301 1.04215763
O -0.98424329 4.62217371 4.26960562 -0.79170321 0.51213741 0.73865329
O 11.47067735 4.60896147 4.10972099 -0.30124407 -0.27301487 0.01671546
O -2.43449117 1.52231147 9.94192220 0.90652095 -0.89667174 -1.03048520
O 10.10910774 1.56226684 9.93935749 -0.39409483 -0.26677992 0.46440709
O -2.28648222 4.55831242 10.02166502 -1.08612459 -0.02775045 0.58761744
O 9.96537368 4.58775383 9.88925938 0.23638886 0.91161178 0.69293942
O 5.73985890 6.27678926 1.50117909 -0.87079247 -0.01035162 1.48601827
O 18.17364300 0.05696452 1.39613658 -0.38415939 -1.28566761 -0.28097033
O 5.71064929 3.03654514 1.47916953 -0.08912988 0.45832022 -0.26046894
O 18.34059845 3.18722059 1.47316000 0.65182765 -0.33552963 1.10276610
O 4.45910788 6.08381514 7.18934223 -0.14083673 -0.44550010 -0.95663285
O 16.89203725 -0.01907705 7.18770795 -1.06361831 1.11382089 1.05137443
O 4.39796786 3.06165553 7.17966471 -0.46681665 0.64745317 -0.42108555
O 16.91401574 3.02256334 7.21973388 -0.02570427 -0.76033106 -0.02816399
O 5.19735765 6.04559204 4.19351659 -1.51296774 -0.00869467 2.01653869
O 17.72651891 0.04871333 4.05526263 1.32492458 0.30868190 -0.82375298
O 5.27242207 3.09728246 4.18652406 -0.96070640 -1.38975780 -0.05320351
O 17.77512865 3.10542410 4.26563677 0.08119261 0.91791871 0.25996935
O 3.77197832 6.11505761 10.03103334 0.38187923 0.35444580 -1.06636766
O 16.34802314 0.02922115 10.06950112 -0.43736240 2.76808944 0.03047696
O 3.88828019 2.91648451 9.85367371 -0.04545719 -1.44177630 -0.29450350
O 16.28846064 3.02763689 9.91835683 -0.63559244 0.83532657 0.66539207
159
Lattice="25.062927 0.000000 0.000000 0.000000 6.205239 0.000000 -2.795815 0.000000 11.488662" Properties=species:S:1:pos:R:3:force:R:3 Energy=-622.957298 Virial="-56.546496 0.951211 -2.202914 0.951211 -48.084547 -3.446930 -2.202914 -3.446930 -45.406650" O_vac_type=O_O3 O_vac_tier=low O_coord=4 defect_vacancy pbc="T T T"
Ga 0.02133042 0.01806453 4.55373734 0.97843406 1.48825288 -0.09465005
Ga 12.51896320 6.17156299 4.51058042 -0.39804814 0.79874877 1.50009581
Ga -0.03257796 3.03561601 4.56521589 2.50579062 0.14890210 0.60092101
Ga 12.53719922 3.19544124 4.59387161 -0.88485548 0.70631269 0.71551204
Ga -1.47842362 6.20595203 10.39369177 0.19144570 -0.55447751 -0.19921305
Ga 11.17292648 6.17364263 10.25383974 0.35708461 -0.03287609 -0.72351821
Ga -1.34169578 3.12089654 10.23781454 -1.88840082 -1.27842479 0.01487651
Ga 11.14886473 3.13109916 10.20995257 0.06642809 -0.65792046 0.09554217
Ga 10.98418902 0.04800311 1.23721542 -0.31618054 -0.72324572 -0.52199240
Ga 23.64249095 0.09779439 1.07083327 0.87936607 0.27756435 -1.03440800
Ga 11.06491420 3.10650712 1.24697731 -0.80660836 -0.08247766 -0.72154670
Ga 23.70308307 3.08573548 1.16008220 -0.57404755 -0.68018828 -0.95826603
Ga 9.70526005 6.17724278 6.87703194 -0.84376075 0.09911504 0.44068612
Ga 22.26202047 0.00850207 6.87931380 0.47051224 -0.14514154 0.27456009
Ga 9.64765446 3.19745923 6.80041376 0.70698468 0.11150214 -0.07114648
Ga 22.26083945 3.06208392 6.91304206 0.02633847 1.74451707 -0.54717510
Ga 6.25373475 1.53688217 4.52089518 -2.22024340 0.80960119 0.70512727
Ga 18.88339709 1.70472464 4.55056130 0.70039605 -0.62517132 0.25130310
Ga 6.23730515 4.61754784 4.56169771 0.04114387 -0.13754664 -0.44432140
Ga 18.91081102 4.74908695 4.63219851 0.23581895 0.20094412 0.16714582
Ga 4.90754929 1.37660798 10.30461759 0.36193395 1.01250124 -0.39169241
Ga 17.52068462 1.50501400 10.20171859 0.68560013 0.72136069 -0.08297603
Ga 4.97315700 4.69686445 10.28852619 -1.70276944 0.99341485 1.33081932
Ga 17.26981126 4.70592532 10.35032522 -0.07157849 1.31081474 0.76745658
Ga 4.89005829 1.52676605 1.19621757 -0.43661172 -0.48291492 1.17811325
Ga 17.41376433 1.50052203 1.08283309 0.04162080 -0.23952192 -0.93389668
Ga 4.83202899 4.70017176 1.11635620 -0.44792085 0.02036216 0.15641217
Ga 17.40791086 4.59714357 1.10054334 -0.71615352 -0.94677814 0.85432885
Ga 3.51218690 1.52011729 6.95223532 0.91897039 0.47391920 0.28003999
Ga 16.21901250 1.55208717 6.84096845 0.31091239 0.33733889 0.16395811
Ga 3.43492026 4.73094570 6.93209441 0.38526248 -0.17511341 -0.24787377
Ga 15.88953785 4.57655341 6.98904449 -0.56406786 0.06059166 -0.82482546
Ga 1.61265631 1.58531638 1.80031135 1.70747295 1.97216551 -0.52315584
Ga 14.06906178 1.53155711 1.87751089 1.10079826 -0.10756766 -0.02753201
Ga 1.48998307 4.52277244 1.87298705 -1.31644732 0.72560862 0.21792490
Ga 14.09950218 4.63489476 1.76213842 0.18098660 -0.94804203 0.59812729
Ga 0.11280568 1.63682780 7.53492251 1.26813212 -0.87446422 -0.86354716
Ga 12.69628647 1.56524970 7.42993691 -0.03070025 1.34003417 0.85150634
Ga 0.10606095 4.74084561 7.47552704 0.03114698 0.14882410 0.52432843
Ga 12.69560723 4.77507501 7.43236404 2.34554575 0.20625558 -0.48795434
Ga 9.56762615 1.58738678 3.95959212 1.45471740 -1.58877279 0.49081879
Ga 22.10543453 1.65005602 3.86183177 2.30637485 -0.36739499 0.77444114
Ga 9.42800667 4.74866955 3.92311382 -0.06004383 0.26048370 -0.52690367
Ga 22.12382272 4.62189464 4.04247708 -1.63753713 -0.50982623 -0.90052168
Ga 8.20516589 1.70346903 9.52360043 1.68416385 -0.88536267 0.51473549
Ga 20.66678883 1.50234095 9.68789376 0.11813571 -0.28846338 -2.26402822
Ga 8.21668182 4.56309394 9.84305897 0.97125265 0.20537861 -0.88638193
Ga 20.75967077 4.51734683 9.70730311 -0.21987426 0.20058393 -1.05837901
Ga 7.72928955 0.03374720 1.88549668 -0.27924494 0.51780559 -2.18432155
Ga 20.31160314 0.11254855 1.76543008 0.54052197 -1.76350343 1.56845877
Ga 7.76508346 3.16110475 1.85455813 0.22866028 0.57605178 -0.67860354
Ga 20.30518075 2.97652373 1.80624578 -1.91549040 -0.07928150 0.02569247
Ga 6.41837434 0.08071178 7.43794995 -0.44645789 0.10817518 0.74057703
Ga 18.80350757 -0.08805777 7.56098648 -0.19523225 -0.08239987 -0.26023090
Ga 6.33734939 3.13909952 7.55675293 -0.34982733 0.67528595 0.69002217
Ga 18.87007394 3.12331957 7.57488701 0.44438960 0.46905755 -0.51322793
Ga 3.39610665 -0.10864952 3.94609405 0.33648728 0.48433555 0.50234779
Ga 15.70756459 6.21208463 3.99021627 -0.38453123 2.25215101 -0.51924168
Ga 3.30864038 3.06669035 3.84574389 -0.31770795 0.28204515 0.09270418
Ga 15.92064727 3.02030475 3.91641924 0.08359188 0.85781484 0.68597848
Ga 1.85686614 0.00898552 9.76863653 -0.29802617 -0.29476940 -0.40759067
Ga 14.39538834 6.18675399 9.65168939 -0.20615049 -0.08877622 0.93595456
Ga 1.80280510 3.14718170 9.65575757 0.56676993 -0.43469419 -0.28710159
Ga 14.46377180 2.98693955 9.69157725 -0.08468772 -0.74114326 0.15979828
O 1.81990733 6.25091059 0.69481616 -1.02212666 0.11253651 -1.10617360
O 14.48278594 6.23909361 0.64773450 1.42609820 0.22348057 -0.70015814
O 1.90912164 3.11557489 0.78875571 0.70093122 -0.30444009 1.83105375
O 14.27330200 3.21875327 0.55951886 0.94116202 -1.92365870 0.56758353
O 0.54903861 0.12725264 6.43050093 -0.57642196 0.14437433 -0.26961203
O 12.85984132 6.22442587 6.47597623 0.23096082 -0.52871633 0.73282160
O 0.56791517 3.18123459 6.48275143 -0.06930638 0.07522132 -1.88092976
O 13.00641957 3.10173535 6.41143863 -0.48769833 0.49903536 -0.42373700
O 9.23118717 -0.00935837 5.12925888 -0.67314575 0.87443891 -0.21847910
O 21.77854762 0.04320968 5.12216419 1.40755320 0.73534555 0.07895237
O 9.22471153 3.13986237 5.19699076 -0.60380417 1.01106656 -0.91710542
O 21.98470461 3.08789348 5.12922504 0.39538203 0.58627114 -0.44722616
O 7.84711390 6.11798061 10.86445158 -0.53718923 -0.60126996 -0.75954227
O 20.35476466 6.09671740 10.81365308 0.84802002 -1.11848090 -0.33799571
O 7.78988306 2.98808431 10.89812376 -0.27014792 -0.03306587 -0.51380739
O 20.32005659 3.05601464 10.72911893 0.31651071 0.45207538 -0.58553705
O 8.13346154 1.62644326 0.50147297 -1.68403935 -0.46707479 -0.40455121
O 20.66193499 1.50233727 0.57280281 0.77524389 0.01547267 -0.52615763
O 8.07584822 4.72865631 0.57646516 -1.17671254 0.15297815 -1.03889248
O 20.84148303 4.66923344 0.73433696 -0.40721338 -0.09893383 0.25726487
O 6.63399696 1.51125918 6.29517552 -0.00158090 1.74675482 0.31701962
O 19.30605472 1.51174941 6.37266950 -0.86675184 -1.30051066 -0.26988226
O 6.74908492 4.59709746 6.41463942 -0.49888309 -0.28619816 0.25246209
O 19.33265513 4.62164109 6.38407992 0.64099992 0.77523248 -1.81600844
O 3.01439260 1.42566006 5.20274518 0.24837313 -0.30455764 0.42437815
O 15.49588081 1.56407510 5.18393444 0.55725015 -0.62977992 0.60499904
O 2.92015039 4.73563459 5.18340568 -0.66868336 -0.59990030 -0.08767790
O 15.49339119 4.59847184 5.06575675 -0.47763296 -0.42704781 0.65493472
O 1.67355791 1.54530122 10.75962385 0.66029680 1.26734529 -0.87555016
O 14.06211403 1.56795506 10.95240979 -0.28949641 -1.09770697 0.17305582
O 1.53953072 4.60704764 10.94037920 0.92676050 0.04999342 -0.27648296
O 14.04328659 4.68254565 10.83099483 -1.22729010 -0.50947041 -0.04348528
O 1.37870254 6.09708505 3.13857065 -0.35257700 0.09077459 1.12004291
O 13.87971230 0.03526384 3.25591848 0.01204855 0.88425559 0.52942709
O 1.40812047 3.16844691 3.17990123 0.49267225 0.40991719 -0.21304663
O 13.97940921 3.15418773 3.20381341 0.75830502 -0.81201447 0.82175161
O -0.02276620 0.03107055 8.98569251 0.15651992 -0.36545897 0.54763539
O 12.55440218 -0.00712194 9.01346705 -1.03914669 -0.38528458 1.04754545
O 0.02859985 3.07604319 9.04933410 -0.18932125 -0.19718908 -0.00788866
O 12.58027617 3.15676075 9.00325425 0.32555822 0.92529640 0.18052222
O 9.70045522 6.12936058 2.44139515 -0.37055629 -0.30330016 0.81554009
O 22.37275957 6.27249822 2.40377141 0.85502387 1.02204073 -0.94560484
O 9.71535963 3.04696732 2.53761546 1.67595551 -1.05013453 1.34168781
O 22.29237489 3.10434006 2.54701012 0.31199006 1.32907872 -0.42434064
O 8.37707630 0.11428134 8.11198035 0.13247992 -0.55846011 0.41625853
O 21.01610873 6.29071599 8.11626841 -0.23307454 -0.17798999 0.78946522
O 8.28905962 3.20852387 8.19605813 1.11050054 -0.21069126 0.82770791
O 20.87185618 3.03071615 8.29864416 1.11767728 0.00880607 0.47865191
O 7.68539744 1.64105144 3.22350373 -0.81348380 0.09983378 -0.33904156
O 20.08203578 1.63608203 3.14583502 -0.62058125 0.27099875 -0.37154822
O 7.71812791 4.56655304 3.17800525 -0.46378597 -0.42242390 -0.09828533
O 20.20810131 4.62274732 3.15702655 -1.06767409 -0.95619706 -0.42768593
O 6.36327376 1.61935454 8.99361898 0.82600033 0.05363610 0.14858195
O 18.85981225 1.52898890 9.09450999 -1.17246546 -1.06104596 -0.12973363
O 6.38229821 4.67093374 9.13886817 -0.45203262 0.26545369 0.29584845
O 18.92582901 4.64665791 9.01182210 -0.62420463 0.58662803 0.19156883
O 3.40879255 1.57649571 2.49952090 0.03746585 1.81330647 -0.48049640
O 16.01420717 1.54145120 2.52661733 0.91689034 -0.03656636 -0.24875629
O 3.50944565 4.62602028 2.55189503 1.08259552 -0.75707714 -0.33803318
O 2.04595163 1.66968540 8.24028046 0.76780325 0.36716973 0.87932852
O 14.54317991 1.53990638 8.12077451 0.28762648 -0.57666364 0.71385095
O 2.08312394 4.61347813 8.22291232 -0.78054303 -0.14559956 0.60178323
O 14.54859355 4.74257779 8.39984958 -1.17221832 -0.25474414 0.16601493
O 12.13450857 1.51986666 1.33071477 -0.94439526 -1.15938566 -0.32255234
O 24.65669753 1.53099813 1.40206861 0.86177377 1.70368889 0.60240405
O 11.99211967 4.90703927 1.53966892 -0.76793702 -1.29771270 1.22173224
O 24.69902177 4.68961265 1.51659564 0.01510547 -0.25411397 -1.24516555
O 10.72161279 1.48453209 7.12566835 -0.58623924 -0.15350612 2.02251373
O 23.34379019 1.60136405 7.14443384 -0.15189969 -0.21506562 -0.15595812
O 10.65549679 4.68469710 7.19205739 -1.48415856 0.47852883 -0.42164424
O 23.27081161 4.71457090 7.21266395 -0.72951537 0.10175011 0.32685161
O -0.99555958 1.63422150 4.15227448 -0.81596097 0.22288892 0.51234341
O 11.61822346 1.56131908 4.28977188 -1.22111349 -0.20131082 -1.10779298
O -1.03771173 4.74270918 4.26151969 0.33962221 0.55495242 0.66160692
O 11.73389686 4.65348907 4.44390142 -0.59664784 1.30968702 0.02874044
O -2.40776202 1.54324772 9.96416943 -0.31092679 -1.56365866 0.70184825
O 10.15563114 1.69947878 10.10751488 0.44203050 -0.18569507 -0.39380935
O -2.39235274 4.72510752 10.03649175 -0.43826717 0.47042128 -0.61508793
O 10.12203643 4.54392088 9.99202540 0.98273694 -0.84925010 -0.35998768
O 5.89704903 6.19633797 1.54986430 -0.49693291 -0.54249857 1.06076925
O 18.46623649 -0.07869803 1.52730371 -0.03685974 -0.15456831 0.38711393
O 5.85626679 3.12729491 1.55279613 0.13744052 0.53942399 -0.70853066
O 18.33595797 3.11346180 1.53471977 0.28588031 0.03127236 -0.18717079
O 4.45302827 6.28417042 7.23735910 -0.20762803 -0.06944886 0.12109879
O 16.94336318 -0.07133996 7.14957126 0.19055833 -0.57700755 -0.62820229
O 4.62444223 3.11685903 7.20376202 -0.14795073 -0.05098451 -1.09240842
O 16.99733602 3.06161303 7.36077979 0.25751056 -0.38477832 0.59953300
O 5.26912139 6.10895586 4.20157284 -1.25397476 -0.23783295 0.52786184
O 17.75432240 -0.12417595 4.23381791 0.32775345 0.01386257 0.52648058
O 5.23656286 3.11476809 4.23869817 0.77549269 -1.28941142 0.49689064
O 17.85923245 3.12113825 4.25546160 0.21257814 0.50662111 -2.15544845
O 3.81074943 6.18290614 10.18056793 -0.13824339 -0.44236214 -0.21474798
O 16.37549558 -0.00942328 9.94536205 0.16711438 -1.21399672 -0.29977803
O 3.79388926 3.06020549 10.10925793 -0.88414618 -0.12507134 0.01177950
O 16.50668823 3.12679096 9.97944479 0.54434804 -0.09416354 1.13034044
159
Lattice="24.953953 0.000000 0.000000 0.000000 6.178258 0.000000 -2.783658 0.000000 11.438708" Properties=species:S:1:pos:R:3:force:R:3 Energy=-625.893060 Virial="-54.786899 -1.805537 -1.816322 -1.805537 -49.178870 -4.784877 -1.816322 -4.784877 -43.028154" O_vac_type=O_O2 O_vac_tier=low O_coord=3 defect_vacancy pbc="T T T"
Ga -0.03205326 0.03214507 4.47733000 0.58387132 1.14241598 -0.42386794
Ga 12.54765234 6.14254084 4.57251968 1.78383665 0.02053020 0.21800198
Ga 0.05897231 3.00803288 4.58204555 -1.65066925 -0.24631024 0.20812910
Ga 12.48994437 3.01757504 4.64730307 -1.09796854 0.77892432 0.11832470
Ga -1.32243265 6.19653170 10.24841332 1.23177622 -0.53994957 -0.99929409
Ga 11.13525479 6.16808663 10.15991915 -0.50502872 -0.51461320 0.50958725
Ga -1.35897302 3.02344430 10.19875232 1.90260472 -1.34035911 -0.25897700
Ga 11.14660081 3.11852863 10.29648151 -0.86588121 1.54620056 -0.84112293
Ga 11.12011822 0.00067860 1.12908175 -0.04952775 0.52792991 0.05421078
Ga 23.60148734 -0.01145988 1.14800904 -0.89213122 -1.02886472 0.16028694
Ga 11.11504103 3.10705263 1.10527997 1.24187836 1.68808140 -0.88042122
Ga 23.58223182 3.14747814 1.16377419 0.81536594 -1.42882074 -1.12054761
Ga 9.74291390 6.12107923 6.97435789 0.37237244 1.45937545 1.41179579
Ga 22.17822795 0.01132310 6.82469716 -0.65407860 -0.42058126 -0.25172445
Ga 9.65514045 3.11367087 6.88219788 -0.61405444 -0.15486340 0.47250313
Ga 22.10581610 2.99534823 6.83860601 0.57191974 -0.93735682 -0.63249496
Ga 6.31637789 1.58234488 4.62623016 -0.52032048 -0.60287398 0.83834471
Ga 18.66356068 1.51091610 4.58313284 -0.30602780 0.96703812 1.39560972
Ga 6.33680109 4.64446674 4.56646221 0.23149485 -0.02743715 -0.79782918
Ga 18.67882645 4.60900947 4.49570723 0.11471571 -0.64613406 -0.83194612
Ga 4.80376266 1.60690798 10.29549473 -0.42946302 0.16165689 1.60284285
Ga 17.32377474 1.49161853 10.29373647 1.13747069 0.36632594 -0.30302537
Ga 4.90812370 4.69407785 10.29626549 -1.08731929 -0.13976108 0.37193609
Ga 17.27285447 4.55624146 10.27190876 0.73938819 -1.04844893 -0.28278790
Ga 4.84160947 1.55968429 1.14681887 -1.14105415 0.08774300 1.33778243
Ga 17.34465639 1.61144326 1.19554400 -0.47039700 -0.29238365 -1.09118593
Ga 4.93519961 4.59584897 1.16665640 0.39136496 -0.79321973 0.28218886
Ga 17.27901208 4.56067908 1.19424859 -1.80827876 0.89273992 1.09208809
Ga 3.38474229 1.59707856 6.91425012 -0.46434732 -1.06429945 -1.06745689
Ga 15.93225252 1.48028565 6.92409047 -1.78164987 0.56144374 1.19573320
Ga 3.49034760 4.65799202 6.85044907 -2.56027565 0.83580248 -0.37928149
Ga 16.00357570 4.71313662 6.97865770 0.93083410 -0.38763460 -0.32299710
Ga 1.65332526 1.62635602 1.88184994 -1.05433465 0.07232914 -1.72491947
Ga 13.97104932 1.52997008 1.79464371 0.41856361 0.29576373 -1.75233689
Ga 1.42340529 4.58325923 1.80761225 -1.71289889 -0.34884149 0.48351649
Ga 14.07611907 4.62131373 1.77540395 -0.04911733 -0.91434205 -0.65652366
Ga 0.13830814 1.53881397 7.54790116 -0.16137259 0.53262748 0.09381179
Ga 12.60982664 1.52764398 7.50241033 -1.26075837 0.10090167 0.17785298
Ga 0.05077839 4.64873772 7.56436832 1.10392699 0.75579691 0.10655361
Ga 12.64426750 4.63444797 7.57618372 0.23791447 -1.15551955 0.61808623
Ga 9.58613365 1.54942161 3.90212532 -0.20123015 -0.52077330 1.08891707
Ga 22.05247767 1.53245834 3.97348504 -0.32362068 -0.43505460 0.59105830
Ga 9.51125042 4.65189564 3.87448565 0.98477167 0.93635822 -0.32674695
Ga 22.07090068 4.74571121 3.89438459 0.54256428 -0.19997960 -0.70266084
Ga 8.20134707 1.61211387 9.60627402 -0.49085557 -0.59172531 -0.10628572
Ga 20.62613952 1.54760683 9.70448572 -1.30940917 -2.90609191 -1.11404836
Ga 8.18917623 4.70412840 9.63165847 0.30481177 0.91115312 -0.52593013
Ga 20.73444066 4.74668790 9.57748753 0.68841189 0.84738636 0.78487898
Ga 7.69269203 -0.04755942 1.82428367 -0.50494038 -0.47160079 -0.58584688
Ga 20.23650774 0.00152550 1.85248402 0.54549884 0.76879524 0.39657187
Ga 7.74225332 3.06299502 1.79868706 1.05226647 -1.27332552 1.47915804
Ga 20.21620191 3.00488882 1.80279169 0.12203924 0.17517734 -0.28616766
Ga 6.52037503 0.04537318 7.58405260 1.01336401 0.15608780 -1.00991746
Ga 18.86944826 -0.02621731 7.46463221 1.32274539 0.46694196 0.64380247
Ga 6.46172718 3.16815541 7.71641936 -0.58692555 -0.86019411 0.49772624
Ga 18.78297540 3.15924646 7.62143511 -0.31191761 0.44140640 1.57135031
Ga 3.37461325 0.07102932 3.98173648 0.07285263 -0.18663671 -0.09842967
Ga 15.72189113 6.29728978 3.90582557 1.31164653 0.56963751 0.83939285
Ga 3.35607416 3.14123261 3.95819929 -0.92201892 -0.73718203 -0.99912318
Ga 15.78990852 3.20193701 3.94236810 -0.94564967 0.36445395 -0.02001153
Ga 1.84517254 0.00615401 9.62234691 -0.22304840 -0.34489999 0.45923496
Ga 14.34443440 6.19521971 9.63383926 -1.16622575 1.22977479 0.00896800
Ga 1.95764369 3.04149376 9.54195997 -0.27314980 -0.56326282 -1.42667143
Ga 14.42491057 3.15412579 9.56535007 1.14605852 -0.03082677 -0.33812568
O 1.92894183 6.09902098 0.67671213 -0.68659368 1.10374078 0.25579202
O 14.35924710 6.16771600 0.59263974 0.12740534 -0.41707975 1.29322756
O 1.94757049 3.11588504 0.48918460 -0.02137603 1.24535605 -0.08867561
O 14.36006533 3.09989388 0.67680853 0.17555020 0.07714984 -0.45326147
O 0.41638015 0.05317635 6.41366265 0.30822213 -0.11353858 0.34752088
O 12.92174343 6.21479248 6.32092089 -1.00835843 0.55041047 -0.17175463
O 0.51769957 2.95390664 6.38151303 0.47760217 -0.78155215 0.28270567
O 12.96918487 3.07672991 6.27583236 0.33298122 -0.30890236 -0.74039842
O 9.21873405 -0.06169974 5.13967646 2.16416892 -0.63545930 0.07871869
O 21.66899518 -0.02161382 5.05619892 -0.47933282 2.29847939 -0.37502468
O 9.13950105 3.08346088 5.14747472 0.06479277 -1.40712373 -0.61854068
O 21.70164240 3.13365550 5.11898426 1.10334850 0.15283012 0.83594219
O 7.85058997 6.21731087 10.74904621 -0.67481797 -1.43607509 -0.75024538
O 20.27825801 6.25001033 10.85645075 0.80522659 -0.50885977 -1.62934088
O 7.81506175 3.10342967 10.84837237 -1.16925734 0.09596599 0.60310834
O 20.30739998 2.98457887 10.80532009 0.36619486 0.28092133 -0.20437343
O 7.96945082 1.56353160 0.68536005 -0.79235268 0.84019482 -0.43697072
O 20.65848220 1.54937960 0.72561882 1.67728063 0.22055056 -0.40117476
O 8.14036278 4.69199570 0.60937884 -0.86967397 0.98816158 -0.45886997
O 20.59599763 4.57438841 0.61307004 -0.82731455 -0.15022920 -1.11314772
O 6.77498511 1.62358144 6.24232333 1.42954478 -0.37566118 -1.10946637
O 19.16580447 1.51431052 6.37139301 -0.70666246 0.70200519 -0.86626306
O 6.74878670 4.65907174 6.35781443 -0.57935561 -0.77536873 -0.56629312
O 19.25236912 4.54684360 6.28932600 0.38503088 1.40968672 0.54371033
O 2.90353264 1.49833470 5.11638444 -1.16260710 -0.36719226 0.28625733
O 15.41631526 1.51687749 5.08762956 0.97969606 0.91768050 0.06562597
O 2.86368101 4.68417131 5.17511790 -0.59792957 -1.88727377 0.76579871
O 15.46814481 4.66620169 5.07561671 1.86008613 -0.23687739 0.27521655
O 1.63958089 1.57656135 10.83031293 0.37727733 -0.04701701 -0.61467217
O 13.97998959 1.62036559 10.78979362 0.44053324 -0.29869300 0.77377176
O 1.66264606 4.62516305 10.82371651 -0.14017584 -0.56240733 -1.61198061
O 14.07433786 4.56206618 10.84999920 0.28764742 0.06312125 1.26855531
O 1.29416610 6.18536419 3.27895708 -0.58218501 1.02018333 -0.28916497
O 13.85842062 0.02506150 3.30495921 0.90643902 0.40324847 0.25919283
O 1.31654829 3.16224760 3.30386373 -0.20076776 -0.24832642 -0.82711310
O 13.88625563 3.09655421 3.26342461 -0.87378548 -1.57886471 -0.08892428
O -0.04125785 0.03188113 8.90348107 0.08305506 -0.21798274 0.06947663
O 12.46721775 -0.00596780 8.94301690 1.83279568 1.35083893 0.18076743
O 0.05186948 3.08761075 8.98132753 0.88092890 -0.07166189 -0.20441488
O 12.46255304 3.11014108 8.86722002 -0.66257117 -0.15010073 -1.46007257
O 9.73763764 6.15454482 2.57285098 1.08837902 -0.27416012 0.79952459
O 22.17466216 6.06442500 2.50872240 0.59110842 0.71935518 1.26379656
O 9.65426290 3.13013777 2.40691920 -0.89659843 -0.64448584 0.62217060
O 22.11452387 3.06989626 2.52432836 -0.57147171 0.39090099 0.12666823
O 8.35348118 -0.11619910 8.28972248 -0.21684059 -0.15555161 -0.30196487
O 20.76674118 6.17891854 8.14755192 0.55408008 0.16021515 0.29394262
O 8.38190638 3.19458242 8.17037218 0.37462067 -0.49012830 1.01387741
O 20.74791503 3.04204388 8.16881608 0.71303188 -0.88786873 -0.05425822
O 7.60303650 1.43188737 3.27250166 -0.09349711 0.73766487 1.13975222
O 20.18815319 1.58301832 3.25958462 -1.25026319 -0.83858145 0.07716520
O 7.56314717 4.59361091 3.33070320 0.26325552 0.23616330 -0.24962064
O 20.03269655 4.67346451 3.25258103 1.14095946 0.87553124 1.03700571
O 6.13438879 1.61486005 8.91019426 0.71550944 -0.20705371 -0.84589478
O 18.77121499 1.60803982 8.87647467 -0.53977734 0.46015326 1.09428473
O 6.18596039 4.59015265 8.97875329 1.98810470 -1.68751396 0.41554028
O 18.74305782 4.65281485 8.94208709 1.30103973 -0.55268438 0.81507249
O 3.40307255 1.50779057 2.40994926 -0.96518821 0.16640033 -0.07308578
O 15.89902823 1.55701226 2.55051426 0.14021757 -0.20072653 0.22396272
O 3.44549319 4.54935139 2.48163145 0.52314006 1.23854120 -0.47132998
O 15.93961736 4.71238635 2.47750314 0.24765305 0.04831736 -0.78340590
O 1.96958813 1.55588970 8.24538371 -0.40710080 -0.06287300 2.14024613
O 14.49526080 1.50984300 8.16518377 0.47493650 -0.70404444 -0.56910049
O 2.11373355 4.61350188 8.21420506 -0.40830077 0.36559748 -0.52100305
O 14.61830672 4.58993625 8.19206723 -0.15603883 0.58237712 1.24630310
O 12.06229326 1.59095358 1.48295451 -0.73697262 1.46877481 0.17172028
O 24.55226051 1.56323196 1.36662263 -0.97520294 -2.04127119 0.25579539
O 12.15805133 4.63095482 1.43867873 0.01256326 -0.10700821 -0.09681209
O 24.50889275 4.63714110 1.42984273 0.69160907 0.38407810 -0.51145004
O 10.58113676 1.50857738 7.20324173 -0.23276508 0.20839234 0.17144505
O 23.22570949 1.49135606 7.19447656 -1.11296567 -0.50361215 -0.38507319
O 10.63580533 4.66939542 7.17122120 -0.62586577 -0.28915059 -0.93046551
O 23.13670266 4.56798604 7.19137539 0.01940345 2.21054403 -0.36666407
O -0.92487639 1.53282954 4.21193407 -0.81648526 0.07198166 0.59795422
O 11.54452134 1.39311054 4.27869968 0.49669383 0.21050011 1.41992201
O -1.02564517 4.56300685 4.21516792 0.83309049 -1.11975811 0.82239621
O -2.34964378 1.53838554 10.02244231 0.02234522 1.09853107 -0.83090704
O 10.09384431 1.59940726 10.04104161 -0.29158389 0.19124230 1.20074673
O -2.32703631 4.68426970 9.95666586 0.33383958 -0.02605764 0.36656050
O 10.17491889 4.58482273 9.87927338 0.45432935 1.05731973 -0.84575211
O 5.88602256 6.12856312 1.49831358 -1.70407670 -0.65916236 0.56096654
O 18.20693026 -0.09496286 1.41269003 -0.32609334 0.26219629 0.51769653
O 5.81457637 3.13500295 1.49826900 1.43411280 -0.26334857 1.03814983
O 18.25950631 3.17767253 1.38125670 -0.39465984 -0.36825439 -0.15450758
O 4.55380531 6.16109576 7.19388175 -1.28248294 0.71330891 -0.50064057
O 16.96940805 -0.05732508 7.24538954 0.94415410 -0.93871690 -0.52259154
O 4.43961399 3.13584459 7.18280027 0.63753777 0.53661127 0.84941237
O 16.89172190 3.18722009 7.05909942 -0.08533127 -1.03686561 0.78924197
O 5.30494147 6.15020003 4.29095035 -0.33560851 -0.15872836 -0.47632805
O 17.76114548 0.03191205 4.21893057 0.92936477 0.18595217 -1.18510726
O 5.33597445 3.07553112 4.23027525 -1.15903867 0.80897442 -0.79506396
O 17.60920592 3.17901474 4.17857224 -0.82536938 -0.11008621 -1.42676617
O 3.84834480 6.12816382 10.03515949 1.52178336 0.82860282 0.94745676
O 16.31478000 0.07973169 10.11065025 -0.11778256 -0.38224390 -0.57163905
O 3.89702417 3.04640068 9.96883804 -1.66466888 0.78468582 -0.28526307
O 16.31162156 3.18593980 10.01100048 0.19409310 0.05611337 -0.32086674
159
Lattice="25.037605 0.000000 0.000000 0.000000 6.198969 0.000000 -2.792990 0.000000 11.477054" Properties=species:S:1:pos:R:3:force:R:3 Energy=-623.478251 Virial="-53.322866 -0.092777 -2.547667 -0.092777 -42.953635 -3.036945 -2.547667 -3.036945 -46.629504" O_vac_type=O_O3 O_vac_tier=low O_coord=4 defect_vacancy pbc="T T T"
Ga 0.00942052 0.05273313 4.55598051 0.63921198 -1.09261712 -0.14646952
Ga 12.46652647 6.17025140 4.54251379 0.85157535 -0.54394349 -1.47795510
Ga 0.04051606 3.04910196 4.55186808 -1.73484468 0.09912879 0.57798803
Ga 12.62719132 3.26314000 4.48727525 0.32133867 -0.01101832 0.40371820
Ga -1.44694491 6.16715465 10.23397088 -1.46858224 0.71811825 -0.68318085
Ga 11.12285264 6.11010486 10.35278639 0.45587918 0.88186932 0.81738074
Ga -1.38711530 3.13716276 10.33525572 0.11814720 0.12250059 -0.61316777
Ga 11.18554912 3.08789504 10.26488388 0.80655069 1.24780328 -0.24772569
Ga 11.14148381 0.05949191 1.11923905 0.79665805 -0.58123570 -2.06183814
Ga 23.60738933 0.05527537 1.17381512 0.62132811 -0.04267624 -0.07074347
Ga 11.05050962 2.92279611 1.21835843 -1.38235046 -0.02114460 -1.17008909
Ga 23.70678506 3.13129531 1.18869973 0.56861452 0.24592268 0.82125754
Ga 9.73864144 6.18001603 6.84881966 0.30286174 -0.40801702 -0.41959568
Ga 22.11672584 0.04082347 6.88687179 -0.50747091 -0.63670723 -1.88540187
Ga 9.81928086 3.13238739 7.00845605 0.34558813 1.46094423 0.36448882
Ga 22.21838792 3.06709372 6.83311110 -0.67648714 0.62379813 1.85932927
Ga 6.26573763 1.51991743 4.61876764 -1.38984126 0.34524508 -1.21961466
Ga 18.92310091 1.52043808 4.62114791 -0.03380708 0.95874526 -0.39050882
Ga 6.20525469 4.61397260 4.62973537 -1.50039060 0.55405399 0.03093510
Ga 18.84209100 4.74642980 4.60113927 0.66512302 -0.22515166 -0.53091372
Ga 4.78968539 1.49543954 10.21901417 0.33083451 0.77076092 1.43563582
Ga 17.32812687 1.49942453 10.30323616 0.60033525 1.16326481 -1.24774340
Ga 4.96767429 4.46321333 10.23756120 1.20291257 -0.12709403 -0.30212158
Ga 17.48356579 4.69830745 10.41079237 0.32607993 -1.76010974 0.74879102
Ga 4.85012017 1.45940633 1.20425986 -0.98017903 0.53768093 1.25634424
Ga 17.46167652 1.59853851 1.13446122 0.25707737 0.20827033 -0.16672739
Ga 4.78280510 4.67194870 1.15381301 -1.02337953 -0.19136917 0.63034115
Ga 17.23730287 4.66737306 1.12781183 -1.81883687 -0.29205273 -0.53014681
Ga 3.48649295 1.67835796 6.89349496 0.05609569 -1.13134999 0.25238768
Ga 15.96592937 1.61281121 6.97596281 -0.00671826 -1.09605257 0.83708305
Ga 3.48710363 4.66700525 6.90784635 0.80086651 -0.81837941 -0.39220226
Ga 16.00351953 4.60719082 6.92195460 0.30322689 -1.23762272 -0.11796655
Ga 1.61018565 1.61137007 1.87412105 1.25059544 -0.90830600 -0.36116837
Ga 14.13867379 1.61133155 1.70424652 0.32675406 -0.41684501 -0.79252003
Ga 1.54050150 4.55363295 1.88396102 0.51523684 -0.92187061 -0.17425669
Ga 13.95365323 4.53439889 1.86037319 0.74717321 -0.13995686 0.66414381
Ga 0.20988661 1.47089498 7.52888294 -0.30561742 2.22422272 1.30194477
Ga 12.77734948 1.48152792 7.45187862 -1.41869800 0.46277514 0.38690266
Ga 0.14366326 4.66577781 7.46799495 -0.71773713 1.33435524 1.31071598
Ga 12.65514903 4.66262583 7.50708137 0.27453943 -0.96290293 0.86916219
Ga 9.57849232 1.56036281 3.89690998 0.76995942 -0.94991101 0.02436827
Ga 22.13910109 1.59652200 3.74416951 -0.75216860 -0.93261527 -0.53792287
Ga 9.53635058 4.66474157 4.01202320 0.54208389 -0.22598473 -0.44032585
Ga 22.19104487 4.74720209 3.85307085 -1.78247325 0.02169392 -0.46710029
Ga 8.14803873 1.49047614 9.75481952 1.04808534 -0.30024599 0.81458945
Ga 20.70517066 1.53958427 9.64273469 -0.16222625 -1.39806930 -0.74094058
Ga 8.27840308 4.54635288 9.67325440 0.92499359 0.73256527 0.77160182
Ga 20.75994338 4.66332876 9.69983276 0.66445640 0.68149950 0.92316246
Ga 7.80786137 -0.00081796 1.85450487 -0.19862805 0.33436895 -0.65706924
Ga 20.27864011 0.13123073 1.86779362 1.92023882 0.35606991 -0.70577946
Ga 7.81068439 3.05247742 1.88159692 0.00750253 -0.78249198 -1.10636380
Ga 20.26408915 2.97227342 1.66226673 0.73404372 -1.16290236 -0.10251238
Ga 6.41684303 0.05869775 7.50571213 0.47279556 0.92027879 0.75080970
Ga 18.95701155 -0.03451894 7.50606977 0.34982512 2.01605315 -0.21300256
Ga 6.39883771 3.11447612 7.67150215 -0.41958235 -0.02730914 -0.60862680
Ga 18.98302209 3.19911983 7.72401140 -0.04840817 0.21679484 0.99895343
Ga 3.36180338 -0.02022479 3.88287290 0.69477320 -0.58852844 -0.15449464
Ga 15.84073488 6.16340015 3.95788068 0.28196113 -0.32074152 1.32094112
Ga 3.34218842 3.16418683 3.98239170 -1.19506305 1.23503464 0.01202125
Ga 15.77938537 3.09981169 3.90255825 -0.12503748 -0.40789386 -0.64534028
Ga 2.01204384 0.01751048 9.69008505 0.11767786 -0.09475000 -0.38182426
Ga 14.42399758 6.20974439 9.62617840 -2.86112477 0.67836953 -1.67341156
Ga 1.91700869 2.95221391 9.55216649 -0.65775566 0.55209546 -1.03371669
Ga 14.32873174 3.24342616 9.67612276 -0.31240778 0.21467981 0.69109942
O 1.96572794 6.19013186 0.56802622 0.53668843 -0.19311418 -0.19699870
O 14.38698998 6.18008460 0.60964994 0.25960364 -1.85878509 -1.03164098
O 1.85644856 3.09187729 0.57594463 1.12807072 0.02945948 -0.72892162
O 14.25864817 3.15504126 0.66848264 -0.43697246 1.34318455 -0.51502405
O 0.57542886 -0.06515157 6.39327334 -0.36649825 -0.94262487 0.07706753
O 12.94364432 6.31380133 6.36026702 0.87847755 0.09888690 -0.78289451
O 0.50319158 3.07170216 6.47985780 0.59453374 0.49399033 0.26863078
O 12.86925122 3.07454402 6.22884073 -0.66493394 0.80707108 0.51120308
O 9.22958641 -0.02759110 4.99341826 -0.14797154 -0.10310622 -0.76220419
O 21.79022322 0.01299643 4.99999223 0.15860085 0.47971832 -0.31993922
O 9.24340572 3.17787793 5.20286244 0.23939270 -0.13126705 0.54569883
O 21.90500041 2.95090274 5.20430572 0.78999818 -0.31701784 -0.42220391
O 7.81894658 6.24957932 10.82688013 -1.22881540 0.67337574 -1.03969370
O 20.37742376 6.21275168 10.69048423 -0.40316346 0.24555249 0.35806376
O 7.79524187 2.97894305 10.88806761 0.81727941 0.05951609 -2.38824676
O 20.33823216 2.92663234 10.85134816 -0.64812236 -1.00590988 1.23465374
O 8.05884882 1.46520517 0.50566855 0.96821355 0.94593005 0.52839390
O 20.69335603 1.49241383 0.67834905 -1.43780651 1.30870626 1.48341260
O 8.05248866 4.79674423 0.63963168 -1.89387281 -0.21370783 1.36356496
O 20.70038302 4.70459065 0.69340099 0.06247150 0.82938503 1.08391635
O 6.81077604 1.50078526 6.40848369 -1.87666051 0.41997391 -0.29947914
O 19.23209934 1.44490909 6.43123587 -0.63992082 2.05541035 -0.12508737
O 6.87779155 4.66210975 6.38263574 0.24565812 -0.48969667 0.93209505
O 19.24243820 4.63498747 6.18145255 0.25115146 -1.13988695 1.08252304
O 2.81589929 1.51363490 5.17689182 0.50952623 0.61071004 -0.87248655
O 15.63771929 1.62140268 5.10429337 1.02203200 0.68858455 -0.08042743
O 3.03724798 4.57947378 5.05453804 -0.52854405 0.13889820 0.81550444
O 15.42911296 4.57396540 5.01238216 0.46775886 -0.43318162 -0.30662948
O 1.62092169 1.50894142 10.86414043 0.34760027 0.05429954 -0.30678770
O 14.11158866 1.51598015 10.79712550 0.91078935 0.34437846 0.41464878
O 1.58360757 4.64179856 10.83602264 0.69267670 0.93332913 0.27434297
O 14.09264603 4.71357789 10.80442115 -1.16805562 -0.66138861 0.22861721
O 1.35224648 6.22110023 3.25778640 -0.33210327 1.92809773 0.27199278
O 13.90930537 -0.10747324 3.24914019 1.65577127 -0.26224465 -0.73769051
O 1.41388851 3.07830078 3.28953347 0.36951045 1.78171914 0.35348933
O 13.98461456 2.92110420 3.30868944 -1.03840838 -0.73908761 0.67217479
O 0.00624197 -0.06780391 8.86257922 -0.04912273 -0.91943727 -0.43650306
O 12.57529390 0.08898963 9.04806689 0.65684500 0.63416933 0.94824820
O -0.08224384 3.12007065 9.03972733 0.57515450 -1.01390936 -1.62553497
O 12.48746261 3.18656437 9.00442542 -1.03446877 -0.21808356 0.19043202
O 9.66968551 6.16842914 2.60182766 -0.06519727 -0.49656103 -0.57038307
O 22.23910349 6.16984235 2.46422876 -0.71481287 -1.10222986 -0.28057803
O 9.70971680 3.13697284 2.34962579 -1.34383090 -0.50212065 -0.20018847
O 22.26996109 3.25427907 2.51441291 -0.09054909 -0.67730560 1.36698429
O 8.36646660 0.03557441 8.16401761 0.44868607 0.08086653 1.95160457
O 20.77119808 6.11872106 8.29062038 0.14516288 0.05103755 -0.30461150
O 8.28722910 3.05986045 8.29917220 -1.03816703 -0.94523146 0.16104505
O 20.78348279 3.06209380 8.22796101 -1.47783017 1.18576517 0.76930726
O 7.67798863 1.77158556 3.34856950 -0.63107861 -0.20735319 -1.22013581
O 20.06537835 1.58628555 3.34826949 0.85452978 -0.18760190 -0.24033624
O 7.60809824 4.71937923 3.26931466 0.71961140 -0.45442895 0.42693168
O 6.18718339 1.57575307 9.06520631 -1.09789143 0.37840145 -0.09239097
O 18.79904416 1.51205411 9.02314977 -0.21271075 -0.15422762 -0.41560622
O 6.36993980 4.66324819 8.97085132 0.48942192 -0.64499252 0.56436111
O 18.71836600 4.74481330 9.00596602 -0.02387027 -1.64240306 -0.06483691
O 3.47547660 1.55383764 2.47026585 -1.32098116 -0.52787602 0.74791518
O 16.16593416 1.53531017 2.47429738 -0.71515194 -0.05986532 -0.21898427
O 3.50309914 4.68659931 2.43771000 -0.24329812 1.52480598 0.56997018
O 15.90055004 4.63182067 2.51302786 1.08820997 -0.77688710 -0.57682777
O 2.11689727 1.55989533 8.27378399 0.39403489 0.77218451 1.44146590
O 14.61870164 1.45276229 8.17806963 1.14076411 0.82857803 0.06435110
O 2.00767871 4.53986454 8.27951217 -1.20954718 -1.26823937 0.18977349
O 14.58933095 4.50800984 8.15244913 0.54102749 0.13724777 -0.78597976
O 12.09319923 1.52731100 1.36456280 1.30504159 0.61804278 -0.67593608
O 24.72857344 1.55023194 1.42504675 0.05270079 -0.54337269 0.42889669
O 12.11816507 4.65747257 1.44588732 0.41103307 0.86657834 -0.46522691
O 24.61173531 4.76353483 1.39429906 -0.93820199 0.04195194 0.16382239
O 10.66405763 1.53867336 7.22779195 0.87257491 -0.74650652 -0.75411522
O 23.19366499 1.45026198 7.21113129 0.60016535 -0.80386780 0.93444880
O 10.58002451 4.71433180 7.13917134 -0.20722672 -0.03680759 0.82817227
O 23.28901311 4.55604575 7.16704924 0.56009460 -0.51308990 -0.42944109
O -0.95724125 1.45073501 4.29730526 1.21710263 0.16947380 0.03814130
O 11.59461131 1.44995487 4.26339034 -0.19512239 -0.59994813 0.03894595
O -0.94178815 4.61269821 4.24882720 -0.38196662 0.27595269 0.52271541
O 11.49024317 4.60134480 4.27068137 0.15866313 -0.09896123 0.64100058
O -2.28088497 1.67604348 10.11665144 0.49651094 0.50680459 -1.82187636
O 10.15777627 1.55989974 10.12191441 0.21542202 -0.14610269 1.25306592
O -2.26851434 4.47681969 9.94852549 1.23601760 -0.01280707 -0.80776715
O 10.24447579 4.62179750 9.92105966 -0.24870192 -0.34193021 0.27258887
O 5.68440718 6.15068788 1.39209235 0.05744289 -0.65459421 -0.31992842
O 18.35798553 -0.01343261 1.45000208 -0.40024855 -0.61620615 1.23756686
O 5.88300613 3.12640040 1.40517569 -0.27462059 -0.80364025 0.45452050
O 18.30599196 3.00843530 1.48353028 -0.16342513 -0.19461514 -0.48403933
O 4.39424824 6.18281379 7.19632689 -0.42027908 1.25284810 -1.20249283
O 16.99210976 -0.04065814 7.21551538 0.97398372 0.74432941 0.21526350
O 4.44042717 3.06473649 7.30402704 -0.26218343 0.62584797 0.13996346
O 16.94873154 3.09274972 7.12392507 0.29419598 -2.51607131 1.42775771
O 5.28369737 6.31337184 4.41921203 -1.70637440 0.43722609 0.66752032
O 17.76788028 -0.05615650 4.29171776 0.59471775 -0.40067303 -0.67461076
O 5.30733618 3.15844952 4.11533134 0.35223537 0.39927228 -1.31004651
O 17.62482333 3.03056541 4.21044033 -0.20901367 -0.04912404 -0.81871908
O 3.91613886 6.31724209 10.01728622 -0.78478367 0.73357048 -0.57201733
O 16.45937418 0.01783226 9.97433412 -0.75907675 0.98592451 0.30692713
O 3.88967714 3.20787908 9.89533849 1.56360489 -1.37450017 0.67283520
O 16.34302717 3.07704125 10.08919305 1.57763752 0.06043767 -0.25667516
159
Lattice="24.709235 0.000000 0.000000 0.000000 6.117670 0.000000 -2.756360 0.000000 11.326532" Properties=species:S:1:pos:R:3:force:R:3 Energy=-624.593397 Virial="-55.855705 -1.132232 -2.442285 -1.132232 -45.808123 -6.331445 -2.442285 -6.331445 -46.692422" O_vac_type=O_O1 O_vac_tier=low O_coord=3 defect_vacancy pbc="T T T"
Ga -0.03360263 -0.10126124 4.49359522 -0.00735271 -1.39663007 -0.77814393
Ga 12.36346861 6.06791573 4.62928287 1.69919293 1.45878230 1.20809483
Ga -0.00277815 3.14821305 4.41707591 0.73291359 -1.01140293 -0.06381602
Ga 12.31559447 3.03993567 4.47142859 -0.63147716 0.02612597 0.37543198
Ga -1.31443573 6.10005028 10.04681003 0.44425408 0.94780870 -0.04388986
Ga 10.98064224 6.14728927 10.20214484 -0.34351141 1.03372829 -0.44932767
Ga -1.34236902 3.10642377 10.19641652 -0.34292856 1.52630185 -0.09124783
Ga 11.08135713 3.02195858 10.13479198 -1.03733833 -0.85187660 -0.36430035
Ga 10.97965722 0.03211515 1.19405306 0.81808670 0.64716951 1.00587510
Ga 23.34893387 0.04439999 1.08987288 0.16201641 0.42875405 1.75317291
Ga 10.88118381 3.17678172 1.21301545 -0.42122487 -1.68253725 0.69428823
Ga 23.28710560 3.11276959 1.10749030 -0.65840280 -1.33859039 1.12067393
Ga 9.59534518 6.08978187 6.87977401 -1.06122786 -0.43839412 -0.76663250
Ga 21.93355056 -0.03697290 6.82974350 -0.28603376 -0.97921951 0.97418324
Ga 9.56329754 3.09636466 6.87377279 0.10984454 -0.36321445 0.26878009
Ga 22.03113730 3.00301047 6.80818277 0.28477642 0.03028118 0.23496952
Ga 6.22701194 1.51357894 4.43798658 0.28997538 0.49326418 -1.05555784
Ga 18.44910268 1.50793352 4.43036367 -0.05536788 -1.07511460 -0.37884743
Ga 6.13524911 4.58406168 4.42997735 -0.02146664 -0.73316141 0.01501790
Ga 18.59769081 4.62978269 4.42840642 0.94547735 0.38695912 -0.45300471
Ga 4.70550819 1.42912016 10.24963325 -1.46747255 -0.69637052 -0.30525098
Ga 17.20309482 1.55123076 10.14921270 -0.21198642 -0.53834063 -0.19121874
Ga 4.87710695 4.56225810 10.18125875 -1.06568189 -0.86628117 -0.96848265
Ga 17.16505930 4.57833243 10.27031135 -0.74951861 -0.09998271 0.88499718
Ga 4.82239611 1.53885701 1.25986843 -1.08054446 -0.05944076 0.08199179
Ga 17.12215449 1.48704299 1.05462860 -0.62868166 -0.07375720 0.51932878
Ga 4.69557253 4.51756973 1.11902059 -0.36203002 0.99084407 -0.48376018
Ga 17.15257177 4.52680684 1.11768604 -1.92958815 0.24041657 1.08808477
Ga 3.37648349 1.54741377 6.81812900 -1.47652709 -0.19127530 1.25175000
Ga 15.81641288 1.53279002 6.88879317 -0.01047090 -0.44777213 -1.16827710
Ga 3.47324523 4.53336488 6.84842956 -0.46979418 1.01143230 1.09380916
Ga 15.82003324 4.60231738 6.83067335 -0.72223746 0.46846535 0.62120242
Ga 1.60346677 1.44862917 1.71114145 1.83062951 -0.84411512 1.05564928
Ga 13.90850512 1.56010406 1.78483185 0.34306010 1.64617351 1.55986678
Ga 1.51626844 4.51284879 1.77042748 -1.96115886 -0.42048744 -0.40737982
Ga 13.87759127 4.48836829 1.76901395 0.30864142 -0.40497151 -0.08434056
Ga 0.12091982 1.51147615 7.37879217 0.93358795 0.13064005 -0.27037710
Ga 12.47105243 1.50203342 7.42159597 -0.16764101 -0.19524891 0.79473090
Ga 0.12848731 4.59390449 7.45300982 -0.27898142 -0.64150432 -0.73982858
Ga 12.46811224 4.57324103 7.46461073 1.53945051 1.33370976 -0.77583491
Ga 9.46187098 1.58672498 3.75301164 0.58512544 -0.50884544 0.18847161
Ga 21.80682866 1.52800573 3.92673652 -0.18972430 -0.59394011 -0.10238273
Ga 9.49301639 4.60222122 3.89337388 -0.53284155 -0.90160540 -0.00048442
Ga 21.77431100 4.56971433 3.84518294 -0.66287179 0.61625133 0.31414520
Ga 8.08805141 1.57210102 9.61881874 -0.13292446 0.50157492 0.15985107
Ga 20.34478609 1.51958310 9.56307486 0.14695304 0.50247204 -0.62514461
Ga 8.02285701 4.57968558 9.56194883 0.17069825 -0.78609535 -0.50622097
Ga 20.45407666 4.56914898 9.57722421 -2.13401830 -0.39565408 1.72740173
Ga 7.68315462 0.05372107 1.68976749 0.13934776 1.01431689 -0.19795648
Ga 19.99423980 0.04525329 1.76633460 -0.12319886 0.02035128 0.31162322
Ga 7.68217141 3.01991196 1.77799568 -0.39003760 -1.13122904 0.05629014
Ga 20.07272164 3.06851516 1.69930744 0.68950766 -0.55100095 -0.57306228
Ga 6.19847870 -0.00667703 7.46337592 -0.05742171 0.49274486 -1.25058419
Ga 18.74668322 -0.03793079 7.50554188 1.19423164 0.70180994 0.23970722
Ga 6.34716688 3.00781617 7.41352002 -0.62653274 -0.86304787 0.38442169
Ga 18.76734674 3.06002528 7.52669149 -1.45397667 1.06628010 -0.66831657
Ga 3.28491092 0.00523252 3.93889316 -0.25148840 -1.27158264 -0.00248698
Ga 15.61202141 6.16628690 3.80046685 0.93575662 0.58544771 0.34284953
Ga 3.28149439 3.09660852 3.96622784 0.70324076 0.76228955 -0.07506909
Ga 15.50728934 3.05710243 3.91987706 0.80886209 -0.39844532 1.47616510
Ga 1.87486008 0.00135850 9.70664668 -0.11955252 -0.22547984 -0.30960468
Ga 14.26632289 6.04217532 9.53748194 -0.76282944 -0.49391279 -0.58134834
Ga 1.80770776 3.10386651 9.47548791 -0.17830612 -0.35436066 -0.17229447
Ga 14.18429410 2.98498462 9.53573749 0.11589998 -0.15526210 0.50905746
O 1.77380215 6.08019750 0.68705877 0.00189562 1.62811149 0.65440800
O 14.19205268 6.07553559 0.63807718 -1.65180033 0.36873841 -1.02490334
O 1.79927194 2.99041854 0.56128300 0.68263683 -0.20365283 0.86628323
O 14.21932909 3.03203114 0.58204403 0.59397932 -0.99295634 0.15209756
O 0.48037253 0.02758080 6.27935896 1.25402788 0.01928081 0.69990328
O 12.91203455 6.12872876 6.31430817 -0.60476677 -1.23909688 1.41759516
O 0.52922773 3.10138347 6.34578426 0.89856143 0.47760830 -0.88739868
O 12.94170414 3.10871914 6.32650177 -1.15813964 -0.15148253 -0.85131164
O 9.20068041 0.00220659 5.02588047 -0.48439349 0.57064911 0.83158391
O 21.47013761 -0.02712851 4.96239288 0.35452791 0.64850256 -0.48691796
O 9.05076302 3.07429714 5.09917063 -0.44361425 -0.31951267 -1.24003479
O 21.56171473 3.11475508 5.01974446 0.47694821 -0.54248228 1.01173905
O 7.72943994 6.06264967 10.69700535 0.22283149 1.00543632 0.28001376
O 20.07319731 6.06899112 10.74859185 -1.30242683 -0.22808481 -0.75255437
O 7.71680531 3.00601016 10.68616065 -0.03875663 -0.29567675 1.40370205
O 20.08602479 3.01142946 10.73371154 1.77981071 1.29305907 -0.42737465
O 8.02392276 1.61656660 0.58910020 -0.39785611 0.91951934 -0.56139035
O 20.37648638 1.63209278 0.67439860 0.61941017 -0.52254634 -0.86026427
O 8.06588960 4.64510315 0.70332028 -1.78816030 -1.45825494 1.05955633
O 20.38316381 4.61868392 0.54932627 -0.39521548 0.76192047 -1.89111445
O 6.55123361 1.42191619 6.34251007 1.17229402 -0.42295414 -0.95387340
O 6.70042081 4.65741497 6.27988957 -0.58210397 -0.61043106 0.10999705
O 19.12889448 4.55595631 6.28892396 0.18107631 -0.45007682 -0.59777716
O 2.96906531 1.54788543 5.01097450 0.46495299 0.82423756 -0.87460529
O 15.20427542 1.48902847 5.10051238 -1.12661344 0.25446452 -0.40475131
O 2.95481332 4.53913285 5.00435731 0.72089860 -0.14867073 -0.16354879
O 15.23474486 4.53640190 5.06288469 -0.29331355 0.38747922 0.42906160
O 1.61200822 1.55723686 10.69016872 0.05869836 -0.71880837 -0.99046621
O 13.92845579 1.52462744 10.66087845 -0.26921232 -0.31432041 1.00929335
O 1.40662990 4.64750248 10.64203410 0.04677559 -0.16684504 -0.48602129
O 13.85793290 4.58469664 10.68416274 0.53467516 0.19422923 -0.87610250
O 1.36219948 6.07793540 3.13661245 -0.24039624 0.41888657 -0.32291886
O 13.59850655 0.07106069 3.18654285 -0.57836017 0.93517732 0.03173983
O 1.27804888 3.04732772 3.22994576 0.03770507 -0.06729140 -0.10267279
O 13.75246125 3.04771378 3.17706505 1.57206436 -0.73447945 -0.34480588
O 0.00114986 0.04885805 8.75756491 0.97869907 -1.07848993 -0.50166506
O 12.27360998 -0.00789894 8.83240420 0.96789534 0.67721423 0.10383607
O 0.01128503 3.03784281 8.76190146 0.57887972 -0.89370062 -0.16488272
O 12.34901071 3.11490877 8.90055038 -0.49296521 1.42990262 0.21252211
O 9.69037401 6.14842448 2.47716284 -0.82973506 -0.08436929 -1.86484393
O 21.89260278 6.12064335 2.47325843 0.14402119 0.76814148 1.22176743
O 9.59613734 3.03934112 2.45897396 0.91244426 -0.70722485 -0.13154817
O 21.95243211 3.01597777 2.47333846 0.47936407 0.89632147 0.98096895
O 8.27498014 -0.04081782 8.14193242 -0.40092568 0.56558250 0.84567980
O 20.58820828 5.97958393 8.18287654 -0.09735125 0.48670827 -0.43205603
O 8.20910927 3.10428776 8.26239194 1.19452685 1.24281466 -1.07789597
O 20.48875838 3.07618391 8.11068947 -0.03089340 -0.52972659 -0.35891914
O 7.56322826 1.46744209 3.11017045 0.77438278 -1.07329090 -0.43618922
O 19.83984495 1.52680492 3.14310916 -0.34325175 -0.20117745 -0.01335743
O 7.58528541 4.61574925 3.20876745 -1.05359096 0.76333829 0.96549920
O 19.90755246 4.53762878 3.17129761 -0.76138086 -0.89280560 0.39269498
O 6.16348825 1.59845566 8.81938351 1.15360328 -0.75804430 -1.40604147
O 18.53573905 1.51428657 8.87296982 -0.29517728 0.90638464 0.42554141
O 6.06473083 4.56487706 8.86711969 -0.74492184 -1.19533962 -0.63669266
O 18.44718894 4.57200459 8.94186286 1.41758435 -0.08076378 0.21288506
O 3.40932027 1.52381179 2.48237785 -1.17953655 0.42534193 0.34131548
O 15.81202733 1.66198984 2.47398947 -0.21853916 0.71052649 -1.18388786
O 3.51516781 4.61031808 2.46271585 1.33355808 -0.88713582 -0.60120395
O 15.78313585 4.55145670 2.37019788 -0.43725747 0.27942055 -0.16365810
O 2.01572866 1.53083696 8.07801036 -0.47367073 1.60356825 0.78661895
O 14.40355932 1.56790469 8.05251351 0.94063853 -1.35227395 0.98697898
O 2.12585972 4.63699193 8.08553881 -0.13516193 -1.13549808 0.47247203
O 14.42520317 4.52986486 8.07032989 -0.32207688 0.03905401 -0.03040898
O 11.92791420 1.54048083 1.50343203 0.00594182 0.82311938 -2.24188730
O 24.27870908 1.53687429 1.51753747 0.65192954 0.25354792 1.14240156
O 11.96915067 4.58281662 1.49917289 -0.37210002 0.38318988 -0.26874772
O 24.30853010 4.57511305 1.41115433 0.89838904 0.16151887 -0.59930614
O 10.65573336 1.55544672 7.22368216 0.44339903 -0.01667665 -0.67991989
O 22.98881600 1.60044299 7.18211397 1.03426303 -0.83684378 -0.74518119
O 10.56866908 4.58824087 7.13678293 1.14731725 0.49465031 1.01779818
O 22.95941169 4.59711827 7.17499106 -0.52990274 2.14952572 -1.58885741
O -0.93581349 1.66544799 4.23560625 0.31015065 -1.01325450 0.57559454
O 11.47622448 1.53720598 4.17734267 0.65812824 0.84551083 0.24619154
O -1.05022366 4.62745687 4.28467382 -1.25121441 0.64708945 1.17592136
O 11.36904719 4.64475520 4.26378687 0.72105253 -1.18885729 -1.45615067
O -2.41234753 1.50657703 9.94054411 1.56470218 0.85182745 -0.48145906
O 9.93258557 1.61792445 9.84509668 -0.70510662 0.88223130 -0.15201325
O -2.24277426 4.61607336 9.83138269 -0.34902356 -1.53016016 0.78965480
O 10.03878410 4.61244417 9.92123113 -0.33318806 -0.96825009 0.22278136
O 5.74211366 6.14369258 1.55574297 -0.16467043 0.32477248 -0.95340248
O 18.14121567 0.12233900 1.45964057 0.18074483 2.01480576 -0.79438291
O 5.77403035 3.05282323 1.48811345 -1.14625194 0.06775113 -0.00718067
O 18.13996341 2.99159950 1.55120558 -1.32869298 -0.15541897 1.27592678
O 4.42760211 6.12395732 7.14612177 -0.18377372 -1.23020892 -0.24184839
O 16.75046092 -0.04722744 7.12227362 0.73062123 -0.07727341 -1.02089216
O 4.46708609 3.00541401 7.09283528 0.40946043 -0.42241160 1.17953586
O 16.75681146 3.04046358 7.15222692 0.08926733 0.15859213 -0.41602988
O 5.18028799 6.09904509 4.28481513 -0.34865038 -0.07952910 -0.86033643
O 17.51132274 0.13070415 4.26255560 1.10718696 -0.02092742 0.93545405
O 5.30828713 3.01916285 4.16114952 0.68730322 1.86191260 0.05531903
O 17.51833367 2.99876667 4.26692450 -0.80694117 -0.08784005 0.84869667
O 3.81406061 6.17056353 9.84371971 1.24098754 0.03561823 0.22670443
O 16.03657308 0.04570108 9.87730042 -0.07326350 -0.18997544 0.16559245
O 3.85367055 3.13026336 9.84540836 1.54028615 -0.55948115 0.35924307
O 16.29094089 3.02091228 9.83920349 -0.07331255 0.29304521 1.08167572
159
Lattice="25.172242 0.000000 0.000000 0.000000 6.232304 0.000000 -2.808009 0.000000 11.538771" Properties=species:S:1:pos:R:3:force:R:3 Energy=-622.802700 Virial="-57.775015 -0.953086 -4.224009 -0.953086 -45.034767 -5.843494 -4.224009 -5.843494 -44.249127" O_vac_type=O_O3 O_vac_tier=low O_coord=4 defect_vacancy pbc="T T T"
Ga -0.01756984 0.07031047 4.54742675 0.40596321 0.99668553 -0.60371747
Ga 12.61053694 6.22144341 4.59612219 -0.84535934 0.48987311 1.12921547
Ga 0.00487779 3.16566595 4.55429603 -0.72183683 -0.90279224 -0.46612474
Ga 12.63669316 3.06607148 4.66839799 0.19901245 -0.68765891 -1.09928225
Ga -1.35345003 6.35923132 10.39543276 0.22374247 0.59420075 -0.52984742
Ga 11.32693201 6.31160885 10.39808533 0.43264152 0.20466538 -0.27713216
Ga -1.36164494 3.25484072 10.28871845 -0.34572702 0.68982812 0.96018175
Ga 11.21213989 3.09032435 10.41404898 -0.02445489 0.34982278 1.02619091
Ga 11.14122434 0.05055868 1.14452535 -1.30447776 -0.04817949 0.96113873
Ga 23.75369547 -0.06768496 1.13476899 0.21467574 0.77021516 0.66937079
Ga 11.21946166 3.00694086 1.23520806 0.91871425 -0.44058762 -0.82077565
Ga 23.79651932 3.15270384 1.16460976 -0.13529018 0.73319583 -0.30703718
Ga 9.71692844 6.18438390 6.91009108 -1.23065805 0.49777902 0.19950126
Ga 22.33150132 0.03820232 7.00825130 -1.34206722 1.00490483 0.46521541
Ga 9.68831621 3.14188024 6.99193563 0.56761881 -0.04060461 -1.10787898
Ga 22.28983438 3.09110564 6.84023224 -0.24010752 -0.76431515 0.37899945
Ga 6.20612321 1.53878093 4.61037303 0.99918227 0.46239858 0.54372458
Ga 18.86790783 1.40398225 4.63118351 0.26673284 1.24543432 0.62121774
Ga 6.32275014 4.61035035 4.67517040 0.05389346 0.34889197 0.42503826
Ga 18.87357666 4.64931570 4.61214221 1.16464162 -0.31365963 0.71773819
Ga 4.99446783 1.63624326 10.32714479 1.06589387 -0.45430476 0.48490281
Ga 17.53891760 1.59593163 10.44685136 -0.24230914 -1.73279956 -1.05323600
Ga 4.97395490 4.76792646 10.34326017 0.59384969 -0.61572319 1.21048324
Ga 17.47098308 4.66386231 10.32958803 0.71494328 0.94413553 -0.09502154
Ga 4.83134299 1.45953043 1.16998876 -0.29398366 -0.20388112 -0.62580177
Ga 17.49334175 1.64686192 1.15133581 -0.62826466 -1.73537201 0.61988313
Ga 4.89877652 4.64173025 1.12585391 0.81658267 -0.29901448 -0.14068533
Ga 17.56527427 4.64490425 1.17700784 0.37263154 0.08336829 -1.81581593
Ga 3.50541582 1.52274186 6.94556219 -0.66123654 -0.42767866 -0.38815805
Ga 16.14275404 1.53107564 7.00800259 0.94724145 0.14744677 0.83681206
Ga 3.58084472 4.70745463 6.98496354 -0.29941085 -0.00849058 0.79151026
Ga 16.01881173 4.64651395 6.97902219 1.13306001 -0.00992808 -0.39807802
Ga 1.52724805 1.56753699 1.87651340 -0.78736561 0.13417399 -0.93304311
Ga 14.24134532 1.50683034 1.77623166 -0.87470914 0.57814360 0.54932941
Ga 1.55710597 4.59783916 1.78583619 0.07253539 0.18103337 0.14388803
Ga 14.16525223 4.66753909 1.73672110 0.90863459 1.19831219 1.06113070
Ga 0.11061947 1.45588056 7.56395665 -0.68377533 -1.08061781 -0.98425817
Ga 12.80213238 1.64780899 7.51474888 -0.41380391 0.10493307 1.33233387
Ga 0.12942190 4.71775432 7.61244175 0.46771788 0.20001736 0.19002398
Ga 12.80287918 4.63225353 7.62432402 1.39717902 1.70727023 -1.12044418
Ga 9.68739700 1.54959235 3.98260530 0.87927020 0.38367066 0.42193737
Ga 22.34476873 1.52799155 3.94257157 -0.76219419 1.26987938 -1.08174562
Ga 9.59873810 4.62586484 3.93274659 -0.17909857 0.30808755 -0.61260347
Ga 22.25184215 4.65658404 3.93974430 -0.74689887 -0.77499380 -0.64745098
Ga 8.25001918 1.56351409 9.74446763 -0.87078233 -0.15063923 -1.02914690
Ga 20.85254543 1.51502587 9.67110462 -0.00837695 -1.03576496 -0.21591628
Ga 8.16278231 4.56763347 9.73081293 2.23749387 -0.90890588 0.37125365
Ga 20.85222711 4.68064940 9.70604773 0.12802122 0.12042503 0.36170232
Ga 7.89710248 0.00606004 1.76992599 1.04202453 -0.67853569 0.23509270
Ga 20.46998898 0.02094443 1.83377336 -0.94947560 1.26004617 -0.06510204
Ga 7.90050715 3.14150375 1.87134240 0.88106192 0.26154633 0.48014421
Ga 20.36889595 3.12361306 1.86842965 0.62547111 -0.64896233 -0.68663734
Ga 6.37271556 0.00207867 7.54834682 0.59558359 0.00979508 -0.33857232
Ga 19.02671151 0.03415689 7.75483615 -0.44520973 -0.10377076 -0.81042167
Ga 6.55119435 3.11321233 7.61880092 -1.90673366 -0.08981061 -0.05295837
Ga 19.07670673 3.08177191 7.61790552 0.45399542 -1.25181105 0.17004563
Ga 3.36979448 0.03092412 3.92486019 1.27700136 -0.04580854 0.88998578
Ga 16.00283366 6.20074346 3.95628383 0.45194633 -0.80384812 -0.32160842
Ga 3.31077706 3.13615643 4.02953573 0.92892597 -1.00292675 -1.04461308
Ga 15.89456326 3.03491745 3.80906150 -0.08266152 -1.80289433 0.84373619
Ga 1.97985327 0.00324902 9.67469114 0.51611902 0.56153068 0.73627327
Ga 14.52766233 6.21910755 9.60529948 -1.03518623 0.75095106 0.90343006
Ga 1.84687107 3.09299204 9.76276500 -0.20045399 1.12218479 0.35487102
Ga 14.55364260 3.01717169 9.65308218 0.45495756 -0.60327960 -0.63601601
O 1.83757822 6.26343697 0.63192977 1.03703552 -0.49291374 -0.65538929
O 14.50186622 6.27999209 0.61991265 -1.34719261 0.03213986 0.00405887
O 1.95744907 3.01007839 0.54609559 0.01357199 -0.32820906 1.16485878
O 14.48821743 3.05943370 0.76118631 -0.39285274 -0.99030130 1.39243658
O 0.56441335 0.05149100 6.33502091 0.70535844 0.56790546 0.43075859
O 13.07635288 6.15076298 6.30481085 0.37255957 -1.09032853 -0.25913792
O 0.42553679 3.17958565 6.41601653 -0.66789506 0.87608475 -0.92748690
O 13.08510978 3.14818138 6.29786221 -0.84425748 1.34998514 -0.41718741
O 9.28629628 0.00174373 5.07109382 0.94905779 0.00889761 -0.16080149
O 21.86974419 -0.03801777 5.11201766 0.13003749 -0.79710596 -0.40502874
O 9.35401965 3.10057281 5.20103109 -1.15211849 0.49155648 0.84810551
O 21.88163799 3.12500322 5.17594987 2.01405151 -0.47339901 -0.85481245
O 7.93306344 6.21613469 10.73680875 -0.96247637 -1.75101183 -0.33380216
O 20.56632450 6.26419247 11.02678395 1.04500154 0.48026093 0.67693565
O 7.88167177 3.20308128 10.95892668 -0.46982473 -0.06950621 0.17513803
O 20.50633666 3.14275367 10.85829797 0.78905079 0.63115581 -0.19462454
O 8.18549230 1.54379360 0.68751525 -0.40942994 0.14871087 1.00906389
O 20.79219816 1.51885348 0.65244632 -0.17338014 -0.24226462 0.51507291
O 8.21903275 4.62613018 0.57873682 -1.09795730 0.19870207 0.17131649
O 20.74578398 4.69054284 0.57634257 -0.44608260 0.06881358 -0.10634409
O 6.73690131 1.48459441 6.26427048 1.23317940 -0.26083859 -1.11365662
O 19.31065499 1.60225827 6.47439314 -0.98892099 0.68351363 0.56545843
O 6.84062320 4.62118049 6.43322582 -0.16943980 -0.50105143 -1.02224281
O 19.40150830 4.64129189 6.46248176 -1.19549240 0.28286542 0.00176009
O 2.93359196 1.49522997 5.18615283 -0.48731959 0.36289249 0.71189288
O 15.54168013 1.54205273 5.10233932 0.25873631 -0.84596590 -0.16170642
O 2.98924759 4.71090412 5.10049334 -0.00871799 -0.64147305 -0.17830778
O 15.66749377 4.58173980 5.01433800 0.31900146 0.18058054 0.82532488
O 1.58725175 1.57676154 10.86001730 -1.19279085 -2.09372472 0.52906440
O 14.11911480 1.60410891 10.84628488 -0.57767163 -1.05106272 0.17828228
O 1.61577368 4.55779018 11.06810894 -0.55895093 0.19540350 0.13205334
O 14.19769504 4.64747580 10.84121727 -0.01764584 0.70627156 0.25240234
O 1.41902809 6.24739413 3.24144944 -0.43001146 0.08528803 0.52172880
O 14.03090131 0.02834877 3.28632211 -0.29725032 0.24648204 -1.60420609
O 1.37735621 3.03455435 3.29001598 0.19198022 0.06254821 0.29887727
O 14.05357041 3.14096189 3.29000901 0.14379810 0.17087909 -0.96635760
O -0.09965525 0.07625520 9.08015294 0.60903857 -0.08652638 0.21190900
O 12.52272436 0.08120638 9.15211375 -1.77885280 -0.36339253 0.01249684
O 0.04622798 3.15607734 9.07420580 0.30744523 -2.42064017 -0.25791354
O 12.49827505 3.07414997 8.97893648 0.44238075 0.16275316 0.07970582
O 9.80703875 6.27924657 2.46624303 0.05121298 0.02206014 1.37199057
O 22.34918744 6.14891716 2.43753431 -0.04971488 0.53214407 -1.17995523
O 9.66756126 3.14799175 2.49152748 -1.14190710 -0.20795763 -0.09866712
O 22.37279216 3.08141667 2.48200754 0.31890847 -0.60317366 1.35125152
O 20.89065269 6.22108068 8.28581779 0.49933000 1.10989524 -0.10684993
O 8.30510988 3.17577373 8.16720755 0.35519573 0.19097789 -0.17736664
O 20.91492156 3.07194363 8.30358113 1.22536331 0.26415760 -0.35825820
O 7.65966089 1.58210108 3.21709100 1.13435504 1.32899594 0.81473004
O 20.27469889 1.65186974 3.33545825 0.38944600 -0.27717903 -0.34568872
O 7.57422356 4.60420264 3.30322784 -0.42956531 -0.29709785 -0.65120759
O 20.34261503 4.70769855 3.16393455 -1.83782219 0.88459681 -0.59770440
O 6.35235720 1.58866855 8.95561339 0.58741418 0.64531038 0.69150656
O 18.94308577 1.56201785 9.09761446 -0.76725912 0.83992752 -0.12510557
O 6.24288081 4.72907790 8.97272280 -0.57682513 0.32440322 -0.78723841
O 18.88741192 4.68143296 9.03846134 1.40945848 -0.37885358 -1.93726284
O 3.47128516 1.64502231 2.54122928 0.88311161 -0.43807122 -0.77201593
O 16.12753529 1.54452193 2.53870057 0.17848546 -0.10327331 1.17541756
O 3.39718049 4.69730436 2.46075421 0.36771396 -2.19478015 0.45337034
O 15.94472704 4.73639185 2.50488196 0.69948809 -0.41102190 -0.97048214
O 2.12812007 1.62428709 8.30440046 -0.46441709 0.80595538 -1.16214623
O 14.69671017 1.56461341 8.40486055 1.58695221 1.36845174 0.40356952
O 2.08385821 4.58284323 8.19963637 0.95854264 -0.03255669 -0.70723938
O 14.68825939 4.57167988 8.19330630 -1.63089913 0.59781279 0.08147711
O 12.24797151 1.67525821 1.46707760 -0.14499172 -0.39086743 1.26290836
O 24.74026969 1.58529756 1.47771083 -1.63716192 -1.20630324 -0.32075838
O 12.24292208 4.66082777 1.32133688 0.69524943 -0.79249963 -0.11079557
O 24.78551363 4.67596587 1.51176008 0.81690013 1.26340771 0.44661896
O 10.79986263 1.54284449 7.29842274 -1.60882538 1.68381361 -0.29226023
O 23.35017178 1.52719264 7.17563161 -1.31872337 1.17722950 2.00370096
O 10.79840854 4.69946793 7.25985978 -1.58161382 1.02799909 0.00415410
O 23.30655947 4.65168108 7.25650221 -0.98041117 -0.35776926 0.35048926
O -1.04479176 1.51495470 4.29290862 1.78950748 0.90871761 0.04147019
O 11.63337291 1.51868218 4.30873503 -1.57294648 1.41278301 0.26363251
O -0.96007093 4.77006149 4.26547711 1.17599887 -0.28466965 -1.04334801
O 11.57088111 4.71682998 4.33229638 0.79141356 -1.19590943 0.90720614
O -2.36372703 1.61135067 10.02209235 -0.12009760 -1.34341532 -0.48038880
O 10.09781601 1.61690763 10.03024393 0.54109411 0.51679782 -0.73503863
O -2.43694593 4.61387211 10.16562257 -0.07751025 1.02482471 0.03946322
O 10.08962695 4.73696648 10.12362604 -0.34477289 -0.59818944 0.00978974
O 5.92997128 6.12217138 1.52501978 -0.52872195 0.22755714 0.15156463
O 18.47006515 0.02591574 1.45483698 0.46071809 0.29648832 -0.65178893
O 5.81871318 3.14009741 1.50999707 0.50962566 -0.90302492 -1.08182855
O 18.49004191 3.12716255 1.50507541 -0.21966601 0.30491988 0.80769880
O 4.48489677 6.13977888 7.26026078 0.72005208 0.12140946 0.03015397
O 17.08998008 -0.04565721 7.17435055 1.04871441 0.01233542 -0.73519942
O 4.52456913 3.09517133 7.25857220 0.00763705 -2.18824861 0.49688404
O 16.99546169 3.09543877 7.28381884 -0.82413667 0.27056951 0.21472769
O 5.28797599 6.14948696 4.34790833 -0.44885982 -0.50583360 -0.42664694
O 17.86323698 -0.03277481 4.34140664 0.87933210 0.95292542 -0.21649378
O 5.32417468 3.13392700 4.25337934 -0.70609173 0.26746151 0.44309325
O 17.90879534 3.18902351 4.20301929 -0.13002647 0.34220379 -0.58568696
O 4.02585691 6.20608969 10.09761877 -1.19974399 -0.64577255 0.70538467
O 16.39481633 0.01918251 10.11182194 0.99944957 -0.40167602 -0.02071983
O 3.84080053 3.14832679 9.95124623 -1.47159230 0.53305620 0.78267517
O 16.53976347 3.12418493 10.13908155 -0.30817071 0.95769426 -0.49365409
159
Lattice="25.172910 0.000000 0.000000 0.000000 6.232469 0.000000 -2.808083 0.000000 11.539077" Properties=species:S:1:pos:R:3:force:R:3 Energy=-623.038734 Virial="-55.304316 1.167577 0.343446 1.167577 -45.427508 -4.450106 0.343446 -4.450106 -41.689580" O_vac_type=O_O2 O_vac_tier=low O_coord=3 defect_vacancy pbc="T T T"
Ga 0.06937536 0.02682379 4.50234885 -0.70978080 -0.05835699 1.48966696
Ga 12.64368453 6.31909510 4.52185112 -0.41218900 0.15504425 0.98743852
Ga -0.00932911 3.16358232 4.71786616 0.45964457 -0.17293979 -1.36584231
Ga 12.78878594 3.20778876 4.60937746 -0.98355126 1.74968260 -0.23414168
Ga -1.54408492 6.14767385 10.46104292 0.51349409 -0.15385088 0.52642929
Ga 11.20935971 6.21492296 10.45150870 -0.07071113 -1.49889230 -0.54435157
Ga -1.27363187 3.08372964 10.35119936 0.25304275 -0.70305308 0.31312234
Ga 11.10336900 3.02611409 10.28174503 -0.53282751 -1.10579721 0.30977955
Ga 11.20191411 -0.15414924 1.17212707 -0.65122362 1.14257756 -1.09440502
Ga 23.77150688 -0.07129649 1.10685819 -1.62180956 1.55410131 0.68331431
Ga 11.16420710 3.23545552 1.17000101 -0.03377453 -0.67833092 1.05303572
Ga 23.80842020 3.05811072 1.17164199 -0.11264761 -1.91950791 -0.98179945
Ga 9.77379086 6.19151966 6.88908579 0.11680024 0.56220824 -1.05013041
Ga 22.44095851 -0.02702260 6.99449098 1.35963853 0.59104017 0.63435678
Ga 9.69323973 2.98278479 6.89507201 -0.39652539 -0.98477729 -0.19808507
Ga 22.38115080 3.13685243 6.84726532 -0.35850669 0.74502854 -0.58393832
Ga 6.22200996 1.54890396 4.56431556 0.81743534 0.33488366 1.44843555
Ga 18.80520874 1.69563585 4.60586184 1.17978452 -0.67968155 -0.67106528
Ga 6.29274205 4.62778849 4.53918860 0.18833060 1.03859420 0.53211411
Ga 18.96353518 4.64808575 4.55619917 -1.30653450 1.47182191 0.95403858
Ga 4.92318373 1.57500226 10.42405189 -0.34188660 -0.65490673 -0.03569668
Ga 17.42558358 1.61060964 10.41654491 0.16191032 -0.66546062 -0.87848648
Ga 4.92797431 4.62078931 10.32105680 -1.30379392 0.70490855 -0.30023491
Ga 17.51766343 4.69514602 10.30664631 -0.60114260 1.28209461 0.87659939
Ga 4.72791592 1.50384559 1.12266689 0.71265922 0.92186078 1.62697595
Ga 17.42288676 1.53069207 1.14490345 -0.40098088 -0.21531932 1.37386198
Ga 4.94870140 4.63188668 1.14315085 1.25936597 0.70561623 0.49053000
Ga 17.50569478 4.62691793 1.18955258 0.25667279 -0.55534224 -1.10323998
Ga 3.41043282 1.60381688 6.92198901 -1.44277468 0.24449185 -1.16983760
Ga 16.15564322 1.52298559 6.93518951 -1.05154097 0.46827307 0.87462987
Ga 3.51155819 4.65416836 6.81579021 0.26302664 0.24804460 0.20570453
Ga 16.05913796 4.68293343 6.91342818 1.44335212 -0.69055679 -0.12032428
Ga 1.46446357 1.56147976 1.81528697 -0.04952174 -0.61189075 0.69658481
Ga 14.11115775 1.55261789 1.70104408 0.76362272 -1.51191449 0.23600054
Ga 1.68994501 4.69444326 1.81265829 0.19754602 -1.57487694 0.30904153
Ga 14.25309334 4.56267628 1.78070725 -0.20356999 -0.53933933 0.39001672
Ga 0.06413268 1.61931965 7.59136496 -1.73798972 0.23759596 0.23494197
Ga 12.78413529 1.60963219 7.70335270 1.08858961 0.10050421 1.82800658
Ga 0.18763283 4.63153924 7.45791998 0.56975469 -0.49583398 -0.91874745
Ga 12.69279999 4.61802783 7.57340723 0.62412784 -0.22691864 -0.85759192
Ga 9.55034582 1.66958101 3.94290722 0.21216701 1.35876276 -0.23060139
Ga 22.19151088 1.54013340 3.89209392 0.37412438 -0.37193091 -0.73023912
Ga 9.54989624 4.65460662 3.83929237 0.12689425 2.16992869 0.46888764
Ga 22.28259219 4.73641101 3.95842260 0.21822918 0.67427849 -1.08083902
Ga 8.15304257 1.47140060 9.79032111 -0.33676966 -0.51700781 1.26976462
Ga 20.86880868 1.53123815 9.76395938 1.03098577 0.73195806 0.14165397
Ga 8.17822045 4.63281814 9.76892101 -1.04397334 -0.12461776 -0.67710734
Ga 20.86329142 4.74170959 9.68125852 -0.13596331 0.41502123 -0.87820202
Ga 7.82828708 -0.05214261 1.81896129 0.41127613 0.05145234 -1.49871000
Ga 20.41309849 0.00901647 1.79040759 -1.35559730 -0.10522410 -0.10010113
Ga 7.86731722 3.15171984 1.86990964 0.58887824 -0.61624236 0.88629033
Ga 20.42923290 3.14270296 1.78004903 1.71731378 -1.85547216 -0.30240750
Ga 6.50997565 -0.00188589 7.59196179 -0.21620443 -0.54438166 0.66281155
Ga 19.09867700 0.05482420 7.50986456 0.72257534 1.33104923 -0.33310374
Ga 6.52826166 3.02254627 7.62378848 -0.51879050 0.36233769 1.25441610
Ga 19.08434415 3.02855197 7.67250641 0.02317114 -0.71520809 0.29764388
Ga 3.25505605 0.11085392 4.04259729 -0.39016661 -0.43052271 0.42690557
Ga 15.94165101 6.21800199 3.88268738 -1.38780971 0.11045112 0.61364424
Ga 3.37590700 3.13420418 3.99141772 0.15058673 0.49220876 -0.60354541
Ga 15.81577602 3.11863555 3.89154262 -0.04100404 -1.67880523 0.98288212
Ga 1.95053397 -0.04386338 9.71817622 0.02054318 -0.39229015 0.01838842
Ga 14.44455454 6.25978635 9.67953541 -0.99400214 0.95037399 1.61870995
Ga 1.99383418 3.18618261 9.67385415 0.28462588 -0.35678522 1.72415790
Ga 14.49335661 3.08122943 9.70972674 -1.17608286 -0.62340681 -0.43765253
O 1.79084698 6.23877536 0.65503338 -0.54157841 0.20661861 -0.12125598
O 14.44539464 6.19608455 0.65196313 -0.69835827 -0.78727393 1.06216550
O 1.90203488 3.18597429 0.62659722 -0.90144003 -0.24431177 -0.50185106
O 14.43721988 3.10383152 0.74252977 0.54775354 0.08975518 1.52884789
O 0.46815787 -0.01844718 6.37410027 0.56406849 0.24081721 0.10078520
O 13.07402846 6.23180941 6.25623652 1.64244679 -0.23206173 -0.72830411
O 0.57984397 3.21922405 6.38300182 1.03918350 0.87923919 -0.89968964
O 13.02349692 3.05684946 6.32498972 0.89338251 0.90298059 -1.41531462
O 9.29060767 0.08878649 5.05641601 -0.47629082 -1.00662891 1.76487653
O 21.82037131 -0.09792132 5.19916080 -0.08594290 0.57183142 0.55583088
O 9.39132540 3.14976542 5.10438570 0.05707340 -0.70742478 1.15195740
O 21.90649233 3.10996967 5.13010301 -0.05090670 -0.44205332 0.62244266
O 7.81257876 6.13130036 10.87654384 -0.16585155 -0.62172890 -0.50753064
O 20.53404463 6.19353719 10.82480069 0.16789914 -1.32218074 0.73272400
O 7.94179942 3.10974379 10.92814020 -0.34837407 -0.42558956 -0.78342020
O 20.61405594 3.16569487 10.89596778 -1.40863465 0.53213343 -0.18704419
O 8.23244802 1.60478175 0.74065711 -1.24741885 0.19174857 -1.29684641
O 20.74063186 1.58841575 0.76751039 -0.31151692 0.28241745 -1.84227075
O 8.22639742 4.79330001 0.54851184 0.88707229 -1.17878678 -0.35247763
O 20.81870429 4.68072041 0.51968230 -0.99583308 -0.64253192 0.40586398
O 6.85312551 1.48268190 6.32388259 0.89553732 0.04757412 -0.21776866
O 19.22738224 1.62755358 6.40097641 0.50619496 0.96066011 0.36591771
O 6.79087128 4.69301397 6.35790744 0.18571345 -0.10080287 0.33699811
O 19.45672792 4.70193475 6.36619715 -0.55971881 -0.67439775 -0.62886142
O 2.95744940 1.62034760 5.09922640 0.30210020 -0.26250009 -0.20126132
O 15.48473139 1.61640200 5.12784830 1.10025076 -0.68407934 -0.17122683
O 2.95664547 4.64789856 5.03432839 1.34544814 0.55842496 0.52296693
O 15.69215671 4.71106112 5.16797336 0.94982024 -0.01295803 -0.18781682
O 1.55974283 1.53075321 10.81501981 -1.05517628 0.38159839 1.04462570
O 14.11639562 1.52340731 10.85672657 -0.20135212 -0.87121908 -0.16981826
O 1.61854678 4.66771767 10.96992757 -0.11959716 0.61025491 1.10957210
O 14.20020071 4.54721109 10.81213616 -0.61390840 1.13391003 0.93153696
O 1.30153046 6.26965625 3.26355375 -0.79027990 -1.34533591 0.42399300
O 13.93559730 0.00808406 3.22743747 0.16897761 0.25229296 0.34202394
O 1.32258060 3.14792576 3.25706954 0.04894883 0.26045408 -0.80356567
O 14.16630438 3.15941536 3.22619957 -0.47846416 -0.60905104 -0.24723364
O 0.03074128 -0.03322828 9.11864613 0.70698817 -1.27779149 -0.77936494
O 12.49616647 0.06647044 9.08614913 -1.02781890 0.35955946 -0.86599020
O 0.06442188 3.18938294 9.18891860 -1.26694640 1.24560602 0.08129870
O 12.49615130 3.04053737 9.10492017 0.70636359 1.03703898 0.87216843
O 9.74297154 6.24201906 2.52530853 0.59821592 0.02656181 -0.54329415
O 22.44647941 6.18530922 2.60685719 0.33149825 -0.35919793 0.91231387
O 9.84736931 3.08401504 2.51380396 0.95685979 0.79387925 -0.47871224
O 22.22117765 3.16683030 2.40290901 0.94260984 -0.47997469 -0.31192622
O 8.47745800 0.00268152 8.23725843 1.59374736 -0.15508685 0.03577357
O 20.76728251 6.15008750 8.36024318 0.95776578 -0.60656527 -1.15583565
O 8.38374079 3.11748964 8.20449356 -1.52497498 -0.44961838 0.95016389
O 21.04786359 3.10073825 8.33228812 -0.33645350 0.05229590 -0.34725076
O 7.63214906 1.54781470 3.24126091 0.82462747 -0.92678048 -0.18964360
O 20.24218989 1.62884686 3.26375491 -1.63974016 -0.10621292 -0.04033863
O 7.80358518 4.54112437 3.24044518 -1.04280722 0.25968191 -0.43397355
O 20.18243911 4.68441458 3.17156130 0.03152982 -0.44963932 -0.23727387
O 6.32904671 1.64148023 9.08578302 0.52763227 -0.97846761 -1.45982164
O 18.87771469 1.54697414 9.02878340 1.25525739 0.89448834 -0.73234523
O 6.36383271 4.54873956 9.01654302 -1.05790101 -1.44939686 1.29685524
O 18.82973082 4.75211408 8.87133481 -0.58100325 0.14331661 1.13264275
O 3.51029955 1.51451987 2.55699462 0.14080972 0.51837153 -0.02890193
O 16.11065339 1.53641610 2.42768555 -1.02575909 0.04685796 0.67910189
O 3.41957555 4.69661832 2.53918958 0.49163087 0.06595346 0.46422342
O 16.06627948 4.69653649 2.66803904 -0.39708108 0.94022597 0.40418204
O 1.97223687 1.56906031 8.30379121 0.97073551 0.91232034 -0.73012920
O 14.65703154 1.55334747 8.28325560 -0.74286732 -0.26107950 -0.13468388
O 2.09773588 4.63047594 8.28666940 -0.72707508 -0.15191711 0.71666066
O 14.74910319 4.69089208 8.27527354 1.18205587 -0.80296372 0.52030037
O 12.16693701 1.57179502 1.57710447 0.59915710 0.36275512 -0.81078737
O 24.80645829 1.57747465 1.57917113 -0.23911720 -0.94708354 -0.34237030
O 12.14257363 4.74726085 1.41658679 0.53400250 -1.33320831 -0.23406394
O 24.83133233 4.77715124 1.51727214 0.10248854 1.31512680 -1.32767002
O 10.87114784 1.43395424 7.23569002 0.87262551 -0.17527861 -0.44833322
O 23.23315921 1.75223780 7.29941356 -0.73161424 0.66013655 0.29208732
O 10.62168176 4.64968924 7.35364330 0.03583998 0.76651675 0.03762597
O 23.37897253 4.69708738 7.17671772 0.14082883 -0.91889583 -0.11607954
O -1.00636294 1.53110680 4.19650474 0.28571793 -1.45924251 -0.96154614
O 11.55663007 1.73118167 4.21463540 0.23848114 -0.31451658 -0.24039651
O -0.96192888 4.72879390 4.36559111 -1.13164162 1.05780894 -1.44524324
O 11.49780264 4.64224428 4.30366258 1.45003254 0.25985403 -0.34980153
O -2.47291197 1.52496935 10.14269871 0.49360143 -0.35500115 -0.62111707
O 10.28297714 1.52174034 10.10117320 0.01272122 1.37080084 -0.16028103
O -2.43209567 4.77618833 10.05155638 -0.34080535 1.52258439 -0.21550583
O 5.89566023 6.31497484 1.47856514 -0.12900988 0.29896359 -0.23639609
O 18.46355172 0.10568274 1.50673881 0.51553021 0.22648617 -1.58261193
O 5.91610667 3.25475749 1.39466893 -0.21770278 -0.93148997 -0.08065668
O 18.56585023 3.22495709 1.52954266 -1.26286438 -0.85014075 -0.72814097
O 4.46166115 6.18424034 7.36303907 0.33162758 0.67668455 0.47029858
O 16.98265933 -0.12646412 7.25279096 -0.65893305 1.03990169 0.38706583
O 4.54610137 2.96475461 7.28133455 1.65164149 0.09371477 0.65734544
O 17.17916497 3.15499912 7.18428406 0.68980482 1.07949455 -0.82869101
O 5.36628194 6.23041625 4.38971707 -0.10403631 1.47236657 -0.20485193
O 17.91622542 -0.06831433 4.25261861 -0.77283349 1.46703619 -0.12200015
O 5.33194975 3.13374977 4.35065577 0.60218216 0.39176328 0.18605774
O 17.91672762 3.13173612 4.30317319 0.44587848 -0.36724051 -0.89175942
O 3.97677487 6.23278533 9.92477578 0.93530483 -0.86173938 -1.44091793
O 16.62185551 -0.05667935 10.10405414 -0.23646138 1.31224965 -0.22723890
O 3.99381438 3.26097887 9.96657893 -1.07277889 -1.11205429 0.29238777
O 16.44788441 3.11606109 10.16915578 -0.32931850 0.60163485 0.49746806
159
Lattice="25.064528 0.000000 0.000000 0.000000 6.205635 0.000000 -2.795993 0.000000 11.489396" Properties=species:S:1:pos:R:3:force:R:3 Energy=-624.400418 Virial="-52.465463 1.250489 -1.956530 1.250489 -42.633872 -6.250799 -1.956530 -6.250799 -45.127416" O_vac_type=O_O2 O_vac_tier=low O_coord=3 defect_vacancy pbc="T T T"
Ga -0.10314780 0.03307052 4.60683343 0.21961007 -0.23668620 -0.29738647
Ga 12.54044498 6.18537330 4.62524043 -0.33230885 0.25706969 -0.73530868
Ga -0.00957530 3.10857922 4.50584299 0.06714878 0.82562440 0.73294222
Ga 12.49201763 3.05469069 4.54439986 -0.51599672 0.07300363 -1.15078380
Ga -1.36452014 6.15535368 10.20871809 0.15097394 1.32885192 -0.37896565
Ga 11.14179598 6.20836974 10.20417976 -0.00089957 -0.27020439 -0.02316432
Ga -1.37352711 3.05225482 10.29248249 0.75083604 -0.18542949 1.09198865
Ga 11.07975376 3.13347005 10.32246280 0.16172165 0.54362111 -0.57217849
Ga 11.06749035 0.03953772 1.16577864 1.86427935 -0.32050988 -0.62504563
Ga 23.69248875 -0.04550904 1.16522984 -1.66477163 0.20170107 0.17705989
Ga 11.16625687 3.06932025 1.17354940 0.34282793 0.77241660 0.72644906
Ga 23.64014121 3.06180389 1.25313044 -0.10368263 -0.17333959 0.78655871
Ga 9.67985001 6.14302749 6.97843895 0.46469709 -1.07927689 -1.59357569
Ga 22.13987608 -0.08410754 6.93362466 -0.60418541 -1.29913042 -1.66381195
Ga 9.84842634 3.03967637 6.88975934 -0.92038479 -0.26196990 0.09097401
Ga 22.20717468 3.16484022 6.91896513 0.46400828 0.31865502 0.62790360
Ga 6.25183423 1.49914118 4.51155522 -1.52887919 -0.84486318 -0.67634770
Ga 18.78813371 1.55883544 4.55659929 -0.57547550 1.76498458 -0.44342563
Ga 6.26090436 4.64773403 4.56612721 -0.18829502 0.83863697 -0.97869416
Ga 18.79986974 4.67288530 4.58156366 -1.63530575 -0.45876122 0.80689693
Ga 4.87277532 1.61624676 10.27454139 -0.05901375 -0.77273865 0.54049542
Ga 17.41868502 1.54645202 10.33343540 0.37613711 0.39282412 1.07678397
Ga 4.85914230 4.65501479 10.32324970 0.36492285 0.25821070 -1.67611896
Ga 17.37924156 4.66727115 10.38436343 0.97553885 -0.03576982 -0.03165124
Ga 4.91558543 1.56219241 1.25910827 -1.24268062 0.61873856 0.04432828
Ga 17.28959571 1.53063149 1.19357168 -0.63122268 1.04624812 0.00743155
Ga 4.86659458 4.71286787 1.24737881 0.62605399 0.19299060 -0.17812690
Ga 17.45730716 4.73032337 1.14629913 0.65037540 0.69257976 0.50515627
Ga 3.45224383 1.54673134 6.91959276 -0.74680382 0.43023906 1.39638164
Ga 15.97283519 1.60249624 6.87730755 0.21890459 -0.47273958 0.90430349
Ga 3.47679574 4.60452624 6.92849274 -0.76588696 0.51436488 0.21121594
Ga 15.91745777 4.71960778 6.84743323 0.27088668 1.35719475 0.01575262
Ga 1.59954738 1.48374112 1.86462330 -0.87452774 0.37543187 0.45032894
Ga 14.03000140 1.50055594 1.84327122 0.10937119 0.47853267 1.53803041
Ga 1.45052525 4.57089484 1.72602188 -1.57416480 0.75342914 0.89286442
Ga 14.07717682 4.78759751 1.84057636 -0.56853215 -1.57545782 -0.07835699
Ga 0.16419454 1.49738769 7.60440335 -0.05074041 0.86444482 0.08906246
Ga 12.71831768 1.57886881 7.54408274 -0.86495262 -1.15321711 -0.38175739
Ga 0.09506980 4.62444781 7.52876962 0.26026697 0.36082548 -1.06552548
Ga 12.67092032 4.71170070 7.54784823 0.89748525 0.93569038 0.57459876
Ga 9.58614564 1.57122490 3.91260455 -0.22398548 -0.30333744 -0.46647304
Ga 22.15890788 1.56970757 3.96646371 0.15265432 -1.54752653 1.43482517
Ga 9.55956277 4.71004787 3.90943468 1.00776153 -0.74629540 0.46439845
Ga 22.17025794 4.78332166 3.99381909 -0.80939670 -0.58337114 0.87916744
Ga 8.11750709 1.54823701 9.67709440 1.21610828 0.66205222 -0.43971878
Ga 20.62617794 1.57353656 9.63911493 1.20934816 -0.84567745 1.73526275
Ga 8.15176702 4.57884102 9.62567231 0.78121100 -1.45830700 0.80006563
Ga 20.77735652 4.64812612 9.69950429 -0.47091809 1.55446912 -0.08786979
Ga 7.88197771 -0.01650234 1.75417630 0.00140958 -1.17779608 0.25510922
Ga 20.32207792 -0.00058047 1.83995427 0.76068258 0.99001644 -0.73480010
Ga 7.82527661 3.09994965 1.80686657 -0.64051186 -1.21855534 -0.98117423
Ga 20.27782794 3.05979281 1.90306565 0.07495101 -0.67291499 -0.38548349
Ga 6.39103755 0.00045668 7.49361616 -0.06649971 -0.17207833 -0.86141788
Ga 18.97791958 0.03138834 7.59027956 0.75758734 -0.02342644 -0.98487056
Ga 6.34659081 3.13631719 7.53303761 0.15892610 0.56956798 -1.37302486
Ga 18.89759966 3.10829445 7.59036612 1.64515826 -0.11562844 -0.30687420
Ga 3.27592364 0.03751515 3.83655375 -0.71714541 -0.29287896 0.03284556
Ga 15.90131531 6.23415807 3.83552486 0.06463507 1.25426064 0.48101173
Ga 3.37750191 3.10788260 3.98823309 -0.10019446 0.72033578 -0.90323341
Ga 15.84177277 3.08061324 3.98967791 0.83798327 -0.45343171 -0.81605379
Ga 1.94993378 -0.03282928 9.64897413 -0.03328020 0.42524290 0.08582793
Ga 14.45506642 6.27622759 9.68295522 -1.24876912 -0.28780597 0.27599845
Ga 1.80580258 3.17087905 9.73227557 0.07201777 -0.36022164 0.71873418
Ga 14.43245732 3.07137266 9.73882186 0.84221271 1.90478752 -0.14019604
O 1.95413171 6.19890370 0.63516545 -0.09786562 0.83792287 -0.65268802
O 14.41569172 6.14903676 0.61687794 0.11011322 0.15804859 -0.74757082
O 1.80816192 3.09301592 0.59939305 -0.28103875 -0.37028247 -0.36223908
O 14.42130059 3.09852918 0.62859997 0.28192536 0.41624140 0.41199278
O 0.48400570 -0.05097476 6.37990879 0.16115127 -0.11243772 1.11862838
O 12.99280722 6.17388896 6.34227996 0.91220901 -0.46104572 -0.28094244
O 0.52604143 3.05146414 6.43494214 -0.67377227 -0.63578693 -0.82989201
O 12.97327339 3.12132684 6.39093630 -0.85181076 0.18587963 0.70177299
O 9.23876433 0.00664711 5.15135883 1.19778310 -0.57553698 0.85715269
O 21.79095286 0.00967516 5.16643548 0.20892445 0.12616244 -1.56263847
O 9.27725839 3.11908759 5.11561535 0.42823123 -0.09526673 1.26214463
O 21.78947989 3.02741000 5.23788780 0.14010101 0.77440746 -0.94653595
O 7.75844574 6.17246741 10.80947990 -0.04520696 0.76715071 1.61649185
O 20.34268804 6.18127902 10.85189652 0.03998901 0.68740208 1.68577748
O 7.85665679 3.14291642 10.82335845 -0.85597335 -1.12762317 0.39485412
O 20.38000812 3.16395017 10.92635244 0.27463633 1.03472368 -0.14771789
O 8.11372007 1.60166083 0.57737005 1.38485589 0.56943584 -0.75958110
O 20.53144032 1.61792196 0.60826812 1.21660870 -0.58475462 0.66272589
O 8.11122906 4.62773209 0.56637221 0.07838013 0.55271569 0.73193432
O 20.65818423 4.62860136 0.65093357 -0.19742993 0.13058055 -1.05682281
O 6.75709700 1.57698261 6.35121453 -1.72827340 0.37386797 -1.54703276
O 19.34006683 1.60262664 6.38314127 -0.48579889 -1.64935128 -0.69649839
O 6.80930077 4.62253311 6.44911151 -0.02072794 -1.33937825 0.89028771
O 19.25445536 4.59297851 6.39177190 -1.49235191 -0.62717948 0.95023431
O 2.98441063 1.59968631 5.14495441 0.42543693 0.81513311 -0.42962765
O 15.51589712 1.52576976 5.10982788 0.28457574 0.31597345 0.74698822
O 2.96116397 4.65907734 5.17562718 0.36189663 -0.05794154 0.05056672
O 15.52110553 4.64461193 5.14662837 -0.70328008 0.57137638 -1.08398545
O 1.62761307 1.48222977 10.77739054 -1.45812591 -0.12034662 0.68424946
O 14.14608745 1.64448509 10.82123714 -1.03414077 1.19203727 -1.10418806
O 1.62114622 4.56133828 10.86007940 1.07736414 -0.21364097 1.18422449
O 13.89126780 4.70097280 10.83383320 0.32392540 0.17784220 -1.15189150
O 1.34897527 6.19212023 3.25339644 0.21375574 0.80858919 -1.30589248
O 13.88841371 0.01084359 3.27772662 -0.44902567 -0.45136814 -0.89146191
O 1.37641312 3.15333294 3.22604365 -0.81939280 0.23929782 0.36126747
O 13.97771396 3.05693775 3.15869043 -0.74123556 -0.27008615 0.18325991
O -0.10879130 0.08566731 9.03404648 -0.85424713 -1.45159324 0.46353114
O 12.56564300 -0.06660464 9.01469526 1.39424936 0.45389252 -1.25529628
O -0.04837748 3.10709170 8.99444849 -0.16601100 -0.30890451 -0.15515384
O 12.59814743 2.96296027 8.96589854 0.23361042 1.20288842 1.52450445
O 9.73247444 6.17983339 2.45309197 -2.19811289 0.62207972 -0.08298890
O 22.25706061 6.25388813 2.52205203 -0.48877950 0.55981082 0.85002240
O 9.69643442 2.99867201 2.52508855 0.67853260 0.22020042 1.13703136
O 22.38008821 3.21861891 2.52399195 0.77368571 -0.39573014 0.70386453
O 8.36977232 0.03756682 8.22167592 -0.17668713 0.11117563 0.10456669
O 20.95571503 6.22361985 8.30583116 0.07909888 -0.80901795 -1.04857701
O 8.41386931 3.14827946 8.26474588 -0.69417868 1.29295433 1.19366932
O 20.85548207 3.11968663 8.29921632 1.55343450 -0.29446670 -1.25848750
O 7.54698191 1.57210061 3.23401347 -0.61593367 -0.03061618 -0.76336869
O 20.06725254 1.60816204 3.26134686 1.65625189 -0.03354495 -0.82258590
O 7.68373424 4.67650539 3.33314550 1.20994820 0.15166459 -0.27606710
O 20.15691536 4.67736324 3.20198576 -0.31195467 0.27651476 -0.64215354
O 6.21866767 1.59460543 9.01371955 -0.24952718 -0.25034078 1.67520205
O 18.68624298 1.51082659 9.07111541 0.34203603 -0.53839880 0.33608221
O 6.27623771 4.69005236 9.01124733 -0.85159018 -0.96266855 -1.06348374
O 18.78490746 4.72647101 8.98935523 -0.59326251 1.40537353 -0.80579175
O 3.50182015 1.50257788 2.51151072 1.10035552 -0.01728414 -0.27341901
O 16.04688579 1.57923505 2.47751480 0.04294377 -1.37440665 0.15792919
O 3.51241393 4.59982076 2.50476836 0.17689889 -1.10460555 1.97174852
O 15.98306317 4.55674315 2.43007542 -0.57573194 1.05925322 -0.69651962
O 2.15777564 1.54800184 8.18747778 -1.48990505 -0.91487435 0.45155076
O 14.60977402 1.50022241 8.28382403 -0.51838623 0.75353643 0.95655027
O 2.04927914 4.67565415 8.29900529 0.55374131 0.18151566 0.00509393
O 14.54702001 4.61345523 8.15446818 0.28876162 -1.32532927 1.10362548
O 12.08854968 1.45690425 1.54074985 -0.12579537 -0.42879980 -0.42788861
O 24.62382742 1.52575831 1.48471450 -0.39885899 -0.07811595 -1.66434633
O 12.13509054 4.73715986 1.47624428 -0.97870094 -0.15482982 -0.97536447
O 24.69168132 4.64996567 1.49111806 0.90912457 -0.11170492 -0.23404768
O 10.68970736 1.58130743 7.18519603 0.88459132 0.10687932 -1.56062355
O 23.30477153 1.50674052 7.13810709 -0.68825403 -0.81751770 -0.01816794
O 10.78661488 4.57531235 7.19779177 0.31947618 0.59102482 0.23953054
O 23.26588804 4.67722625 7.24676027 1.39032167 0.84039230 1.07768122
O -0.98096710 1.45332255 4.33355500 0.39068005 0.05279600 -0.37471961
O 11.51490982 1.54654400 4.38083762 -1.18656869 -1.23483663 0.60760578
O -1.04437070 4.64684560 4.26250194 -0.20539512 1.96701042 0.38872581
O 11.53437717 4.63092953 4.27944855 -0.53051333 0.59197400 1.32272512
O -2.41846886 1.53750224 10.04571437 -0.37384195 -0.29334979 0.57354640
O 10.07120930 1.63206274 10.03481601 0.08618119 0.65155758 -0.03805370
O -2.44427963 4.61561655 9.93652163 -0.19665863 -0.71985674 0.76873023
O 10.06821723 4.65632631 10.00798773 0.14500538 -0.73374580 0.81860819
O 5.93576427 6.18627056 1.47474797 0.84237861 0.47514416 0.46352993
O 18.31283408 0.04306578 1.41837247 0.16195159 -0.74308296 -0.04038385
O 5.84638529 3.06939845 1.45050195 -0.20680867 -0.37032751 0.40340728
O 18.38347603 3.13314841 1.51588443 0.15034880 -2.11081266 -0.96975531
O 4.46129654 6.14006671 7.19714513 0.53289346 -0.91626031 -0.55607604
O 17.01678064 -0.07703923 7.26540960 1.52449316 -0.79915434 -0.26040712
O 4.49171314 3.05177937 7.24557333 0.22191916 -1.10292687 -1.54506143
O 16.99412795 3.09539798 7.21457590 0.36451296 0.12053015 0.20598606
O 5.24102961 6.19554284 4.25841526 -0.70807385 -0.44087564 0.34049090
O 17.79566582 0.03201313 4.29865057 -1.53397294 0.66952744 -0.23434572
O 5.20280473 3.13607164 4.30339951 1.36326740 -0.41639784 -0.51846290
O 17.77903858 3.05839521 4.22704232 -1.17953523 2.55405112 0.00883775
O 3.90042674 6.19358090 10.02148053 1.64829953 -0.43126149 0.25077059
O 16.45707147 0.04177947 10.07603863 0.48705996 -0.96606624 -0.02275231
O 3.81447894 3.09106051 9.99994755 0.34553770 -1.15049967 0.12251632
159
Lattice="24.958976 0.000000 0.000000 0.000000 6.179502 0.000000 -2.784219 0.000000 11.441011" Properties=species:S:1:pos:R:3:force:R:3 Energy=-624.286881 Virial="-54.763337 0.367803 -1.150525 0.367803 -45.298406 -4.704071 -1.150525 -4.704071 -44.166685" O_vac_type=O_O3 O_vac_tier=low O_coord=4 defect_vacancy pbc="T T T"
Ga 0.07095156 0.01070170 4.49765671 -1.72205747 -0.11374991 -0.32568649
Ga 12.46814327 6.12854838 4.52480604 -0.34142732 0.90554713 -0.70098669
Ga -0.06177966 3.10271754 4.55198400 0.33514302 -0.34878977 -0.88896338
Ga 12.51349198 3.06043028 4.50294891 -0.64723001 0.79686232 -0.37534036
Ga -1.41316522 6.19746368 10.32413935 -0.16986774 0.23366749 1.84988757
Ga 11.16480956 6.13821310 10.26285908 0.28550330 -0.03604418 0.69510783
Ga -1.35207447 3.09949027 10.30098034 -0.13333544 -1.05367706 0.27631053
Ga 11.11315127 3.12364130 10.22900486 -0.32441048 -1.28346992 0.47824784
Ga 11.04128543 -0.04273300 1.13079217 -0.71151554 1.16877599 0.44834149
Ga 23.52106047 0.01120365 1.25216607 0.60233561 0.44082463 -0.24932266
Ga 11.15280957 3.12105269 1.17805083 0.51578283 -0.01384791 0.41995892
Ga 23.60065442 3.10138715 1.20065716 0.45534697 0.03064424 0.41317592
Ga 9.64289503 6.15926080 6.93734577 -0.02831597 1.24663266 -0.36074229
Ga 22.17479699 -0.08012636 6.83809261 -0.73664482 -0.42860623 0.12748237
Ga 9.59846904 3.12668736 6.90926796 0.24650624 -0.85669943 0.53986062
Ga 22.11563320 3.08937068 6.90182346 0.93218876 -1.02549995 0.93817173
Ga 6.25423328 1.57088867 4.55969562 -0.20314732 -0.45626277 -0.18252058
Ga 18.73132316 1.53167686 4.56670208 -0.12611567 -0.03229389 -0.66806930
Ga 6.31622449 4.60837978 4.55843603 0.00418891 0.61523369 -0.19475066
Ga 18.76912003 4.52879300 4.55318200 -0.39031568 -0.97485097 -0.48474278
Ga 4.84737880 1.58849454 10.23513645 0.31909464 0.31855391 -0.10953118
Ga 17.32341625 1.61280322 10.28790689 1.15592737 0.30235719 0.25045722
Ga 4.86352526 4.63332191 10.31384817 1.17603145 -0.12063916 -1.01110950
Ga 17.34501845 4.68342157 10.36089443 -0.43155637 0.15908446 0.60898163
Ga 4.87229949 1.51489959 1.15364475 0.08740817 -0.31335840 -0.25307261
Ga 17.32261259 1.54697863 1.13353816 -0.75024726 -0.21431480 0.26005785
Ga 4.88947483 4.57948333 1.14444838 -0.94377575 -0.87821918 -0.11507526
Ga 17.30689510 4.71780504 1.11713507 -0.03746785 -0.84352994 -0.15575518
Ga 3.35747549 1.58309224 6.87412134 -0.77895906 0.86881499 -0.16465129
Ga 16.01978735 1.48839483 6.87552485 0.06547227 -1.44273825 0.09626470
Ga 3.48011358 4.64768422 6.86928208 -0.64340271 -0.86990086 -0.31493626
Ga 15.92588354 4.60410356 6.95016026 -0.71993791 0.87100691 0.00280107
Ga 1.53293450 1.56393438 1.80456732 -0.77456949 -0.37116770 -0.36651809
Ga 14.02618123 1.52942119 1.86225934 1.07494240 0.60999508 0.02534045
Ga 1.59509547 4.68418244 1.87270104 0.10583876 -1.17667703 -0.50503315
Ga 14.00376395 4.63571636 1.83454300 1.11154221 -0.77617023 -0.06787204
Ga 0.08890421 1.57058730 7.55198553 0.64991390 0.16083609 -2.14565999
Ga 12.66648457 1.54173152 7.55122954 -0.33834190 0.47175455 -0.34396171
Ga 0.13305064 4.66785000 7.49482207 -0.02857192 -0.21402583 -0.58353854
Ga 12.65326177 4.68177117 7.48684941 1.93596683 -0.17261347 -0.28261109
Ga 9.51655663 1.61416515 3.97228547 -0.47084781 0.83738430 0.41915963
Ga 21.97246650 1.52292585 3.85821764 1.77839221 -0.05405200 -1.01823599
Ga 9.54556574 4.58082614 3.92941976 -0.90658373 -0.30497297 0.06677775
Ga 22.03493901 4.63725229 3.98792216 -1.68883899 -0.32657938 0.16920007
Ga 8.12366846 1.56703278 9.69761022 -0.69119434 -0.66140527 -0.30348397
Ga 20.65985919 1.52317223 9.57547237 -0.15562596 0.26333200 -0.06396420
Ga 8.05256341 4.68535266 9.68889418 0.20719697 0.45456324 -0.09792275
Ga 20.62654630 4.51552947 9.62936138 -0.22361179 -0.70754509 -0.80821246
Ga 7.80180975 -0.02560094 1.82881526 0.67869751 0.03315753 1.04184792
Ga 20.26846379 0.04831007 1.82940063 0.04581823 1.23824409 0.98610823
Ga 7.73723180 3.10502582 1.79759074 0.44218726 0.59717953 1.47043202
Ga 20.25111432 3.07781848 1.78705212 0.86020753 0.83970030 0.07581192
Ga 6.37432302 0.02229293 7.49647100 -0.09974625 0.49029578 -0.46167298
Ga 18.89676834 0.07426461 7.53419706 -0.12196671 -0.65009197 -0.93795277
Ga 6.45366539 3.08432059 7.60742963 0.75604911 0.13318353 0.12927435
Ga 18.89225954 3.06820174 7.52192472 1.19820990 -0.64519131 0.45171257
Ga 3.21843716 -0.02604791 3.99889638 1.36813886 0.56044291 0.02189009
Ga 15.79610928 6.15618024 3.93414862 0.26180688 -0.10975391 -0.66878956
Ga 3.28148070 3.12334764 3.98016148 0.34587332 1.00094269 1.14473562
Ga 15.75098762 3.05623310 3.91847215 0.02048016 -0.34870445 -0.54345662
Ga 1.90971913 0.08467069 9.63008727 -0.06248337 0.86595944 -0.34738009
Ga 14.39067946 6.18788789 9.61729532 -0.77287213 2.05362931 -0.33349690
Ga 1.88719620 3.08999160 9.66682456 -0.55914630 0.00044894 0.27124949
Ga 14.39228451 3.08984426 9.54026306 -0.83103247 -0.25223380 -0.27458972
O 1.89761268 6.18364472 0.60665053 -0.76937344 0.49503591 1.13909420
O 14.42959698 6.17397873 0.63152197 0.43553738 0.98386603 0.00363497
O 1.93385806 3.10555653 0.63631442 -0.59538573 -0.51068385 0.92792510
O 14.30155890 3.10824627 0.68450170 0.74840752 -1.03776327 -0.31253197
O 0.44273074 0.05883357 6.43870824 0.61211894 -0.58542441 0.33661590
O 12.98966577 6.11517423 6.36594360 -0.83877991 0.28302109 0.23128417
O 0.46177793 3.05645050 6.34515475 0.39489387 -0.67826598 -0.25081916
O 12.94619425 3.13711420 6.34206549 -0.22963456 0.16135531 -0.26762531
O 9.16506230 0.04180391 5.03149914 -1.00744758 1.00046850 -1.33100716
O 21.76909252 0.05708348 5.16421493 -0.85720608 -0.98636778 0.81121538
O 9.12628703 3.13956658 5.07814560 -0.06024392 -0.98279870 -0.37775907
O 21.59592692 3.09597782 5.07440282 0.34093652 0.35510721 -0.98850823
O 7.89157462 6.18527721 10.88297709 -0.57307360 -0.15103393 -0.04478722
O 20.36263917 6.16995261 10.73230540 -0.74781662 -0.16858273 0.06068591
O 7.78043239 3.12159577 10.75512222 0.69729573 1.75438671 0.96836592
O 20.31435866 3.16213368 10.80433118 -2.08758616 0.72913739 0.26300465
O 8.06389467 1.56441981 0.64639748 1.27929189 0.82516363 -0.20409465
O 20.56050287 1.61235161 0.54763937 0.51855470 0.63891196 -1.25866717
O 8.12849011 4.60362278 0.62874081 -0.19763841 0.39062141 -0.02632178
O 20.54496901 4.68801631 0.68818934 -0.33837345 -0.13838509 0.27826578
O 6.73811091 1.59817453 6.30964317 -0.89898643 0.40690508 0.49503794
O 19.15973527 1.59523731 6.36075633 -0.11770538 0.05872321 -0.37370172
O 6.66830016 4.54603205 6.32813248 0.91663748 -1.28053516 -0.13280853
O 19.19303071 4.60672580 6.27945777 0.39657216 1.02510983 -1.34263379
O 3.02390678 1.61346673 5.04733109 0.05898007 -0.05023434 -0.40329393
O 15.43568346 1.49203322 5.03520601 -0.31429862 0.44061016 0.59075981
O 2.97400243 4.60376442 5.15412976 1.03562408 -0.59179218 0.58024831
O 15.46700388 4.67532725 5.02486622 -0.41657120 -0.79057527 -0.15538560
O 1.59988378 1.57782633 10.73913893 -0.87260192 -0.64620398 -0.30672086
O 14.05468701 1.57927299 10.75575187 -0.07720989 1.08546560 0.78643517
O 1.55624237 4.58640775 10.76072661 -1.27060411 -0.25887038 1.39280386
O 14.01436312 4.58140977 10.87837643 1.02492078 -0.22194369 -0.32663054
O 1.42701362 6.16508335 3.18695100 0.23205211 -1.06001254 0.50594867
O 13.81436930 -0.10250359 3.19921840 -0.39941083 0.34345677 -0.50374421
O 1.44573933 3.19861080 3.31565938 0.70326451 -0.17920148 0.79669149
O 13.85996670 3.07213808 3.20193118 -0.00949710 -0.91568147 0.20768077
O -0.02835816 -0.06353542 8.96672647 -0.34113600 -1.31112787 -0.18578422
O 12.40827718 0.09516372 9.03503752 -1.20967488 0.53185642 1.91340503
O 0.00491650 3.07807002 8.92807318 -1.05929530 -1.27496991 0.21106758
O 12.49371517 3.05161720 9.05505865 0.82590898 -0.32693569 0.20673064
O 9.73097107 6.22817583 2.55651693 -0.68097469 1.24072809 1.70934236
O 22.16782036 6.19048553 2.56371292 1.29033799 0.83080355 -0.01573496
O 9.73565009 3.07449260 2.42082502 -0.96892134 -0.07922429 -1.02163479
O 22.28258783 3.06999239 2.48560805 0.34533540 -0.60036081 0.32507210
O 8.28742740 -0.00704608 8.30762910 -0.31018612 0.75282206 -0.75391661
O 20.75827674 6.10356092 8.26493382 0.41696724 -0.99978374 0.45354029
O 8.29840215 3.04069437 8.30086601 -0.37702669 0.37041252 -1.36220484
O 20.89520545 3.11228224 8.14564946 0.40032476 -0.25595769 0.11001003
O 7.66263128 1.56235702 3.22811086 0.02229737 1.52104366 0.76913551
O 20.10934006 1.53735712 3.22538265 0.46314466 -0.35441582 0.30692567
O 7.65816057 4.69935877 3.24663441 -0.40630167 -0.00640273 -0.91364148
O 20.05018037 4.70581028 3.17681557 0.35597495 -0.41948983 -1.14072249
O 6.31354355 1.54874637 8.95905728 -0.22855897 -0.18542056 -0.26420173
O 18.75521165 1.52091414 8.95391784 -0.92296115 -0.15511770 0.74401247
O 6.10765427 4.67124722 8.96674843 0.33739558 1.03617721 -0.74062098
O 18.68992055 4.56398164 8.99856042 -0.15421162 1.07378357 -0.34584816
O 15.96367664 1.53229167 2.53674001 0.15848842 -0.87458421 0.71827557
O 3.43000344 4.62684670 2.50900894 -0.13946685 1.75012976 0.76400259
O 15.96257826 4.59424602 2.36643980 -2.41357316 -0.20789540 -0.19113740
O 2.04159830 1.48824281 8.19507440 -0.00890892 -0.86998150 0.55450016
O 14.53760866 1.56108477 8.16920617 -0.31865377 -0.49146388 0.76211090
O 2.02013271 4.62652122 8.20094735 1.29120628 0.89339540 0.15111394
O 14.55622777 4.59296617 8.18176624 -0.41774698 -0.52177741 1.34315738
O 12.04209193 1.57874230 1.47569929 1.41768848 -0.00997888 0.25121457
O 24.58287178 1.53508257 1.46756375 1.16086010 -0.20077204 -0.03007112
O 12.01850055 4.60031303 1.48431687 -0.35038892 -0.19602226 0.34305822
O 24.62415527 4.65242539 1.46142303 -0.44039689 -0.15492816 -0.36705261
O 10.69333430 1.51818061 7.11382864 1.04514996 -0.85111744 -0.26246366
O 23.08325233 1.51057517 7.18218573 0.70337236 -0.35078880 -0.80770379
O 10.68486616 4.64034964 7.22624585 1.58621827 0.43846179 0.13311589
O 23.16973684 4.60283793 7.19079349 0.14130946 0.69647567 -0.15064177
O -1.00425474 1.58379224 4.22767610 -0.42145898 -0.23624761 1.42235991
O 11.50162413 1.49105282 4.26594919 -1.00747787 0.68202577 0.38452629
O -0.98430793 4.61661716 4.22433062 0.15153051 1.41978625 -0.52925976
O 11.48803494 4.61260813 4.26040679 -0.59181084 0.08002229 -0.71824395
O -2.41143531 1.54819284 9.91790842 -0.05347090 -1.20829491 0.49980973
O 10.06070979 1.54631189 9.98653454 0.24516036 -0.56457402 1.01695667
O -2.35913110 4.61923475 9.92659356 -0.59434883 1.67542188 -0.44392538
O 10.10024224 4.65623063 9.91519512 1.33077990 0.71272810 -0.40450692
O 5.83185847 6.19193996 1.47503808 -0.21052036 0.55650739 -1.80376432
O 18.36087952 0.03178454 1.44864325 0.87516921 0.19940639 0.46166819
O 5.85201811 3.09845131 1.48037873 -1.59439684 -0.94361117 -1.10554473
O 18.27683342 3.07206591 1.43871164 0.31930635 -0.51878376 -0.28785589
O 4.37229377 6.14867557 7.23617474 -0.85754923 -0.73344672 -0.05958158
O 16.90286080 -0.03131692 7.20950345 0.66373787 0.66378969 -0.20813408
O 4.42494583 3.07729578 7.16066045 0.08237281 0.52131292 -0.82202231
O 16.93009555 3.06210581 7.20469412 0.46130240 0.11651975 1.33084553
O 5.31613385 6.10054696 4.32526339 0.41499009 -0.47152632 0.29608163
O 17.73295972 -0.00783512 4.22296915 1.02229223 -0.88983188 -0.41540341
O 5.23177961 3.02956338 4.21055221 0.51766746 -1.69307815 0.33302970
O 17.67399815 3.13045075 4.26386701 -0.22898268 0.48406899 0.47053555
O 3.82290254 6.19529924 9.96289649 0.04034373 -0.15934396 0.68978996
O 16.37869440 -0.02408831 9.97123099 0.28013570 0.20983961 -1.24996408
O 3.83930564 3.15454309 10.00728744 -0.81579122 0.16251066 -0.11717859
O 16.28984378 3.15293955 9.86621124 0.58475189 -0.73714180 -0.69432384
159
Lattice="25.137388 0.000000 0.000000 0.000000 6.223674 0.000000 -2.804121 0.000000 11.522794" Properties=species:S:1:pos:R:3:force:R:3 Energy=-623.874657 Virial="-55.704401 -0.771042 -1.173138 -0.771042 -44.062453 -5.553755 -1.173138 -5.553755 -42.759676" O_vac_type=O_O3 O_vac_tier=low O_coord=4 defect_vacancy pbc="T T T"
Ga 0.01097895 0.02525595 4.58555376 -0.26219693 -0.08204156 -1.44681294
Ga 12.54442074 6.14944338 4.58266790 -0.17777758 -0.67918031 -0.07000829
Ga -0.14824441 3.10203812 4.58147083 1.18432014 1.17447240 -0.93091886
Ga 12.55882167 3.17387888 4.62048514 -0.06205291 0.01613174 -1.62679300
Ga -1.36804033 6.24483259 10.33417861 1.28295489 0.67726464 0.68297330
Ga 11.13040124 6.25375963 10.31823864 -1.01972865 -1.52544010 -0.22287168
Ga -1.43622738 3.14788588 10.32049705 -0.18355799 0.66055420 -1.37988887
Ga 11.07166892 3.18217737 10.28617127 -0.35844677 -0.69061596 -0.45717177
Ga 11.17848219 -0.06903859 1.22495164 -0.22403321 0.02755435 -1.33588211
Ga 23.79840284 0.06136791 1.16551796 -0.25455989 -1.00420602 0.50839470
Ga 11.13066185 3.12060135 1.27695737 0.70025055 -0.66306096 0.45378285
Ga 23.68477236 3.12094488 1.22067921 0.12600346 -0.15762924 -0.10463958
Ga 9.73454280 6.27261187 6.97052064 -0.87193675 0.98555642 -0.27854212
Ga 22.34058644 -0.05007173 6.91028797 -0.37891298 0.05155614 0.75880296
Ga 9.68510655 3.12389095 6.94822830 -0.20371016 1.14687414 0.18402033
Ga 22.33305716 3.11471586 6.95797448 0.52326572 0.21020363 -0.40680347
Ga 6.32108687 1.59820549 4.51386594 -1.46447917 0.65829731 0.27234540
Ga 18.77480780 1.56719821 4.54902692 -0.04846702 0.26369882 0.86437203
Ga 6.32929975 4.67379057 4.64091916 0.70603369 0.42953131 -0.55269123
Ga 18.86249779 4.70085848 4.49598394 0.81130091 -0.77853587 0.92861471
Ga 4.93964315 1.60030695 10.30064047 -1.25932309 1.46023721 0.21395748
Ga 17.44073063 1.46623069 10.44877226 0.00684828 0.23862080 -1.25599885
Ga 4.88520052 4.69473891 10.36776185 -1.34402618 -0.61806169 -0.11720737
Ga 17.50380509 4.61541066 10.39777327 -0.65113932 0.10868005 0.20135822
Ga 4.83113331 1.46245212 1.17341513 -0.57808069 0.55719517 -1.21653158
Ga 17.34378302 1.57895742 1.19680339 0.70370946 0.55715723 1.39063492
Ga 4.75174461 4.63540136 1.15804216 -0.72099332 -0.53723809 -0.05453345
Ga 17.46117318 4.72052439 1.17816260 0.35357848 0.52364845 -0.36618040
Ga 3.44031309 1.52328954 6.98478233 0.46331530 -0.13366846 -0.21803040
Ga 16.06634876 1.50486780 6.87483936 0.54281277 1.34802364 -0.19462890
Ga 3.39531970 4.67962246 6.88466013 -0.31101580 0.17925631 -0.31514863
Ga 16.06231276 4.69519360 6.89947666 0.98281097 0.02819092 0.34538177
Ga 1.53045938 1.64447605 1.83040657 0.34094965 -0.56192394 0.35389379
Ga 14.16600756 1.60817372 1.78925349 -0.18700291 -0.03684129 0.18906346
Ga 1.56132695 4.64198488 1.81078915 0.61756640 -0.38179537 0.20203442
Ga 14.06071868 4.62836256 1.86082780 1.38460156 -1.91456857 1.85608131
Ga 0.12532183 1.52185451 7.55880403 0.22929747 -0.12960459 0.16645872
Ga 12.66955668 1.55865427 7.53975640 -0.09432799 0.23311276 0.37067234
Ga 0.17276922 4.71447882 7.49468783 0.28251342 0.72127917 -0.30495031
Ga 12.76007130 4.71315995 7.52755364 -0.84768265 0.06468111 -0.40956484
Ga 9.65835286 1.58309233 4.03454025 0.37574758 0.51156186 0.92022665
Ga 22.20120290 1.43948430 3.94667436 0.44943090 0.29111869 -0.69866698
Ga 9.60555802 4.76175063 4.00269817 0.07419486 -0.77730266 1.08234357
Ga 22.18508509 4.68510041 3.98688636 0.24754208 0.07941124 0.03380638
Ga 8.22325217 1.59322556 9.71859585 0.03581951 -0.48306442 -0.18875213
Ga 20.75616879 1.53807352 9.72832500 -1.26797404 0.31461624 0.10094754
Ga 8.23862788 4.77180531 9.80351402 -0.13865236 -0.33056369 -1.66981760
Ga 20.73354583 4.68183743 9.75381505 -0.77035422 0.96321372 0.99645314
Ga 7.89366050 0.01287293 1.84553447 0.39472845 -0.55191692 0.51716941
Ga 20.41980830 -0.00548006 1.84247283 -0.93199807 -0.58648498 0.95916599
Ga 7.82670253 3.09758109 1.83851076 -0.15995261 -0.24723915 0.68732035
Ga 20.40167000 3.11024876 1.76845526 -2.26170284 0.43550399 1.41452855
Ga 6.40293049 0.03363748 7.47461410 1.15163830 1.13010447 -0.38004889
Ga 19.04622579 -0.06554685 7.54132082 0.91655620 1.36541254 0.17349699
Ga 6.44943876 3.03486505 7.52429871 0.61210265 0.85448514 -0.35299784
Ga 18.98381009 3.13022236 7.62272889 -0.22111270 0.48629808 0.88138866
Ga 3.33518889 0.05984920 3.89213068 -0.19514318 0.28434543 0.05096258
Ga 15.91488426 6.21537446 4.07170416 0.49125932 -0.45378429 0.45275745
Ga 3.39772883 3.18940700 3.90925638 1.20295890 0.08737325 0.41917237
Ga 15.99040726 3.06646529 3.94737338 0.42833774 0.79783395 0.37336328
Ga 1.82240928 0.00414203 9.78010888 0.54456045 -0.81176878 0.64676391
Ga 14.39721868 6.21335260 9.75544137 0.76924406 -0.15741830 -0.39435735
Ga 1.92410392 3.18114306 9.71212980 -1.15404102 0.19789326 0.44148363
Ga 14.45147081 3.12676888 9.72238070 -0.81914188 0.86218849 -1.53562563
O 1.91736263 6.19437829 0.54464186 -1.28141592 1.61960886 -0.40404332
O 14.46769877 6.14863473 0.67062906 0.20355596 1.57164043 1.26069254
O 1.86704424 3.12512103 0.57488144 0.68307840 0.40440421 -0.49539011
O 14.48544606 3.19027565 0.63145493 0.97980857 -0.75279055 -0.18174189
O 0.43356259 -0.00037951 6.37705805 -0.13515377 -1.02874304 -0.34416092
O 13.03089500 6.17996620 6.31276110 0.63616553 -0.82104370 -1.16284857
O 0.51524133 3.13909511 6.38817811 0.34728419 0.08835463 -1.10213358
O 13.05203544 3.08596898 6.42998585 0.29545988 -0.71937284 -1.34996259
O 9.34366839 0.02711477 5.14059164 -0.42693697 -0.99496570 -0.46073699
O 21.79592346 0.02890738 5.18206668 -0.31268586 -0.25107056 0.67167931
O 9.14737020 3.12449829 5.10821241 0.60665795 0.85922340 0.92070661
O 21.85728810 3.19157838 5.11457254 0.38260235 -0.14933978 -0.42741542
O 7.94374818 6.22446039 11.00236688 -1.47378768 1.03156369 -0.91893248
O 20.41561519 6.14623001 10.82896120 1.21541676 -0.64917927 0.52891461
O 7.88823227 3.11178550 10.98808839 1.38741908 0.84433161 1.16959548
O 20.42668838 3.06913316 10.90890032 0.43693857 0.98764263 0.29608373
O 8.11967335 1.54822208 0.64801221 -0.50859196 0.96207366 0.23061746
O 20.71735744 1.51482068 0.69164964 -0.52747756 -0.50073585 -0.19966158
O 8.25753577 4.68080594 0.63927191 -0.84834951 -3.08188183 -0.61503978
O 20.70689450 4.67105950 0.60003181 0.02099374 -1.27911483 -0.09057074
O 6.77535208 1.59232033 6.28167154 0.87058729 -0.96838871 0.42340059
O 19.31948831 1.52575686 6.39555573 -0.42287570 0.81857892 -0.78893830
O 6.78238687 4.65062250 6.31749011 0.69013901 0.22134175 1.41517529
O 19.35711113 4.75860864 6.50386962 -0.42863644 1.34170064 -0.99186644
O 2.89856158 1.58842214 5.11072802 0.78136790 -0.09337979 -0.26535422
O 15.50142161 1.47282114 5.17370273 -0.06687878 0.78361256 0.99805661
O 3.11239181 4.66559894 5.13987935 1.49322642 -0.13829794 -0.24008210
O 15.57112064 4.71507234 5.20830920 -0.89386009 0.15693814 0.26673174
O 1.56925818 1.54250725 10.98726705 -0.39277580 0.79541247 -0.81557990
O 14.15875196 1.56758876 10.89103547 -0.45793292 -0.66398779 -1.03425070
O 1.62503598 4.64382659 10.83483857 0.02427538 0.17872172 -0.88261722
O 14.12197300 4.65750476 10.96935699 1.49921448 0.79767355 0.01819770
O 1.42425043 6.15322057 3.38833977 0.48844517 -0.76835072 1.94022483
O 13.97496902 -0.04664445 3.23555171 0.14333822 -1.08705804 -0.87394659
O 1.37117394 3.07775129 3.32144992 -0.61427870 -1.06581939 0.42527121
O 13.96310979 3.11474405 3.24090285 -1.54588395 0.78618802 0.59427043
O 0.01922983 -0.02314530 8.97783755 0.82003737 0.24212736 0.99889643
O 12.59338645 0.07258025 8.99568865 -0.34783417 -1.14972341 -0.01952816
O 0.01777150 3.09922688 9.01952664 0.48023574 -0.27044566 -0.21884926
O 12.51028954 3.12015007 8.98541843 -0.26505233 0.19938409 -0.21951189
O 9.76559106 6.20683501 2.43424782 -0.02076730 0.47708734 0.05685740
O 22.33761255 6.23334599 2.54547411 0.28348570 0.92730723 0.08063659
O 9.76610493 3.06576098 2.52376437 -0.10553460 1.48559543 -0.79087816
O 22.29950915 3.13891990 2.50184009 -1.73801045 -1.88692714 -0.37318959
O 8.41401649 -0.05940544 8.24132588 0.75299684 1.12070496 -1.06043826
O 20.92344281 6.18179374 8.26660613 0.02932185 -1.00311464 -0.07906980
O 8.33442386 3.17008653 8.29568121 1.10563494 0.30552227 2.80455356
O 20.99869260 3.04159009 8.29851301 0.90735494 0.29876574 -0.65617811
O 7.74849689 1.61185283 3.18986594 0.14236409 -0.30069412 -1.36861548
O 20.24868003 1.52554323 3.19074819 -1.06716226 -0.70349374 -1.23809032
O 7.64787935 4.62881226 3.30133082 0.26257563 0.54045022 -0.73781148
O 20.30464280 4.70711912 3.19694088 -1.22051898 0.03955770 0.64395651
O 6.32383762 1.49096071 9.06790304 1.47793067 -0.80925914 0.08290257
O 18.78067770 1.60991425 9.11986591 -0.54372409 0.27038717 -0.26245172
O 18.85675843 4.64050843 9.04121270 -1.30379798 1.02901910 0.33644270
O 3.42529113 1.61869755 2.51671077 1.10050791 -0.75661679 -0.13726956
O 16.12245527 1.50954897 2.53555503 -0.78025070 -0.24811315 0.13873624
O 3.47662562 4.58669303 2.52607631 1.42062056 -0.17564443 0.14587265
O 16.09471377 4.63276852 2.38280930 0.46413873 -0.80641473 -0.47179023
O 2.13540848 1.47315483 8.35642476 1.05327370 0.23784349 0.47700779
O 14.64199301 1.60136619 8.31401775 0.66539108 -1.70373066 0.19332362
O 2.07170943 4.61766455 8.41035390 -0.00922521 -1.17313511 0.85472692
O 14.60249713 4.65461411 8.27962914 -0.06586046 0.71740920 -1.13083854
O 12.15352038 1.55282407 1.45063515 -0.90525830 1.53214875 -0.19042690
O 24.68901395 1.51957119 1.43975139 0.20052095 0.56727001 -0.42316292
O 12.19382396 4.74334726 1.58012051 0.55581805 -0.81363104 0.80921331
O 24.79858936 4.61505031 1.47651245 -0.71701686 0.11817724 -0.00547178
O 10.68396824 1.47444505 7.13315628 1.49084037 -1.04906326 -0.87139640
O 23.31144112 1.53462527 7.17499587 -0.37864103 0.61005782 0.12892768
O 10.72150813 4.69359540 7.20707840 0.67398834 -0.42481549 -0.20912635
O 23.20196486 4.58422962 7.27220099 -0.28668603 -0.22354091 0.61453089
O -0.99923755 1.57688481 4.24973265 -0.40858317 -0.24643650 0.29290642
O 11.47713742 1.57147407 4.39437307 0.53270847 -0.93349363 0.19546637
O -0.98518394 4.66477441 4.29833948 -0.07675338 -0.34473445 1.43076851
O 11.55023271 4.61459478 4.28867699 -0.82402747 -1.31000853 0.09065714
O -2.45846740 1.61420487 10.10009222 0.36557479 -1.09918396 0.69938686
O 10.12711881 1.59611091 10.04348744 -0.08361762 -0.92225480 0.30323977
O -2.36190249 4.68267209 10.02544981 -2.04236508 0.68303431 -0.44033525
O 10.08572435 4.62736740 9.99488170 -0.31617093 0.47519293 -1.33711372
O 5.87124403 6.16429991 1.53356813 1.08114919 0.11762318 -0.34429810
O 18.47080614 -0.03116539 1.56155748 -0.45502338 -1.48335767 0.24963450
O 5.86670721 3.07895527 1.49776997 -0.48146375 0.41332306 -0.64761756
O 18.38746924 3.16534632 1.47615624 -0.04961071 -0.69535376 0.27999701
O 4.53532642 6.19894669 7.34148480 -1.34220577 0.26037899 -0.03064944
O 17.00781616 0.02520405 7.26542302 -0.03826162 -0.19368237 0.13066823
O 4.58238108 3.06982852 7.24739804 -0.00153700 1.61018635 0.87763725
O 17.03461313 3.17821674 7.22099608 -0.80798589 0.23969329 1.28622496
O 5.30277349 6.26465073 4.30324155 -0.14613214 0.41699975 0.22580648
O 17.95329604 0.02630619 4.24934048 -0.43762214 -0.16517046 -0.89429645
O 5.33092488 3.13398079 4.22190168 0.00458373 0.03806644 -0.41976492
O 17.89806343 3.06965034 4.28102784 -0.59827893 -0.81482206 0.24763024
O 3.79440087 6.23237000 10.01170096 0.03464391 0.61168875 -1.02433978
O 16.45087611 0.05096721 10.15407501 1.90327721 -0.52063713 1.05209382
O 3.90916533 3.13183322 10.05587425 -1.32073581 0.92161642 -0.42197376
O 16.53993932 3.07549956 10.04946952 -0.98444169 -0.20379346 1.17330867
159
Lattice="25.044288 0.000000 0.000000 0.000000 6.200624 0.000000 -2.793736 0.000000 11.480118" Properties=species:S:1:pos:R:3:force:R:3 Energy=-623.915433 Virial="-52.725987 -2.582666 -1.997703 -2.582666 -45.649826 -4.547678 -1.997703 -4.547678 -43.754359" O_vac_type=O_O2 O_vac_tier=low O_coord=3 defect_vacancy pbc="T T T"
Ga 0.03976848 0.01262662 4.57760794 -0.78132256 0.45445144 0.63352481
Ga 12.54437718 6.16607218 4.55210635 0.69365568 0.53494004 -0.09981617
Ga -0.01090527 3.08718284 4.46125852 -0.79620520 0.69491270 0.47946557
Ga 12.57916940 3.08885157 4.58174574 -0.37533208 -0.03791076 -0.52562874
Ga -1.40311440 6.12275176 10.30694179 0.50593880 0.16892086 -0.69560015
Ga 11.13649356 6.20581073 10.27190321 -0.21603334 0.16460583 -0.55177797
Ga -1.34288599 3.12342068 10.22249209 1.62976567 -0.86600348 1.67851984
Ga 11.21226526 2.96561610 10.22813983 -0.15900652 0.70505423 0.42433131
Ga 11.10693208 0.01260917 1.20129849 -0.37095769 -0.50934240 -0.17210683
Ga 23.57190521 0.02893909 1.20229259 -0.27316510 0.91377584 -0.15644711
Ga 11.13454582 3.17397626 1.20515328 -1.56380143 0.45835869 0.11587068
Ga 23.59854772 3.05537348 1.20500170 0.18789608 0.18718830 -0.79474289
Ga 9.65864035 6.17456374 6.87677228 -0.09014014 -1.85866000 0.35725510
Ga 22.27517668 0.00426181 6.89746436 1.06286761 0.04623176 0.62522915
Ga 9.74910199 3.09698521 6.89909091 0.43772966 1.13921335 -0.43346976
Ga 22.30755189 3.06904633 6.90979233 -0.42371297 0.05056204 1.64893023
Ga 6.25246749 1.60290338 4.52744026 -0.38889884 -0.57122535 -0.60898489
Ga 18.76470924 1.54522803 4.57913813 1.43284934 -0.20589383 0.28727512
Ga 6.27211742 4.66439269 4.53618305 0.18621605 0.34710266 -1.11789873
Ga 18.76331234 4.60322170 4.59462693 -1.27076277 -1.30765859 0.05441499
Ga 4.84404676 1.57257475 10.27141174 0.34043612 -0.01844396 -0.48760791
Ga 17.38617542 1.61055115 10.29465827 -1.09521283 0.68551687 -1.37047881
Ga 4.88256867 4.70324001 10.37880845 -0.04472615 0.82504217 -1.30028361
Ga 17.40277279 4.60968022 10.21519599 0.17163862 -0.10923334 -0.02667868
Ga 4.87903275 1.50841107 1.19225385 -0.45315689 -1.39006980 0.78967151
Ga 17.40659215 1.51403099 1.19766432 0.62901977 -0.65025029 1.51301134
Ga 4.86399350 4.62828243 1.08704244 -0.58889610 -0.76566053 -0.19809154
Ga 17.31315327 4.62433381 1.24356695 0.13923073 -0.25063504 -0.75512409
Ga 3.44812256 1.59396942 6.87953539 -0.23858483 -1.19038492 -0.10681450
Ga 15.98911762 1.58645448 6.98554614 0.00235197 0.25642800 -0.57692867
Ga 3.51031844 4.58583355 6.90788319 -0.56617520 0.59583891 1.45593573
Ga 15.90617100 4.63082043 6.98769262 -0.03802428 -1.13183556 0.20306195
Ga 1.54192061 1.50420833 1.79610007 0.03698567 1.16032294 -0.30025613
Ga 14.08108935 1.62437283 1.72651538 1.41561868 -0.46533616 -0.14008744
Ga 1.61395989 4.66343923 1.85305624 1.14416324 -0.10291895 -0.55699091
Ga 13.98482752 4.65374673 1.87535645 0.92520321 1.34258987 -0.74676949
Ga 0.12740207 1.49647787 7.51718435 -0.50837284 1.14170329 0.82155609
Ga 12.71160268 1.45758392 7.43659818 -0.31750807 -0.25230159 -1.07385346
Ga 0.06727438 4.61941551 7.60602371 0.11870674 -0.05201984 -0.41907651
Ga 12.59201963 4.73270481 7.58799261 0.25640385 -1.91166401 -1.32872621
Ga 9.57110697 1.46624075 3.96126682 -0.18045403 -0.55744169 0.06836587
Ga 22.11961182 1.60191331 3.92664738 -0.49080012 -0.02547093 0.79560136
Ga 9.61490054 4.57997538 3.89352106 -0.53633314 0.44341898 0.29261776
Ga 22.11069284 4.62415722 4.04723174 0.37383289 0.19079538 0.95635589
Ga 8.24774646 1.54497971 9.72859942 -0.18515149 -1.20885530 0.60423432
Ga 20.64152536 1.55167854 9.64648502 0.48409660 -0.05838312 1.04451274
Ga 8.19255103 4.62315650 9.67046932 0.03659443 0.33146071 -0.73520032
Ga 20.78175622 4.63633610 9.65850296 -0.24746651 0.90587962 -0.28635080
Ga 7.83266753 -0.00418489 1.66247824 0.82511644 -0.38997301 0.01775550
Ga 20.40254972 -0.00999840 1.84412867 -0.31388370 1.16463802 -0.31461042
Ga 7.76640024 3.04397638 1.80417339 -0.95239905 -1.03189021 0.01665122
Ga 20.33516773 3.18673052 1.76177825 0.20771753 0.19129864 0.58828040
Ga 6.32937010 0.00692334 7.59019807 0.17096372 0.02668989 -0.26511774
Ga 18.98579380 -0.02266778 7.55149139 -0.17079855 -0.45497743 -0.11380733
Ga 6.34003051 3.06316341 7.46395590 0.60685055 0.61983764 0.31635746
Ga 18.96528670 3.07549853 7.49840162 1.20140329 0.15308988 0.91028631
Ga 3.35232862 -0.02652829 3.88262250 -0.74285665 -0.99055299 -0.08870110
Ga 15.86147797 6.15050073 3.89832565 -0.77030230 1.12906346 0.65787505
Ga 3.37949664 3.13897886 3.94041983 -0.16839946 -0.87452413 -1.77158946
Ga 15.85603994 3.10849686 3.93732868 0.71053469 0.85656674 0.93543081
Ga 1.86610170 -0.00533626 9.62969973 0.58491192 0.12444197 -0.75218846
Ga 14.51119426 6.13884407 9.63338848 0.93548780 -1.19990055 -0.03432624
Ga 1.92754011 3.12289582 9.64287253 0.23480251 -0.29698847 -0.90519387
Ga 14.53645465 2.97855386 9.61652232 -0.62319934 -0.31743223 0.56051278
O 1.88273734 6.24279575 0.69281858 0.21116602 1.21691557 0.95556217
O 14.42975317 6.17697816 0.61614600 -0.66991947 -0.06992868 0.89452999
O 1.86197014 3.20488591 0.67465255 0.15695953 1.42488183 0.41227300
O 14.39327656 3.07261235 0.71015304 0.92759470 0.10521385 0.74613534
O 0.55709721 -0.01391908 6.43590824 0.94818826 -0.98484706 -0.15539393
O 12.95042964 6.24795088 6.36765798 0.33814531 -0.53779534 0.09214199
O 0.57278796 3.07151221 6.41405227 0.21474121 -0.23945906 -0.00302625
O 12.96010482 3.16607887 6.47701395 -0.31330144 0.68637242 0.09876634
O 9.21776768 0.01776348 5.13588362 -0.38108427 -1.18695454 1.34591893
O 21.73619197 -0.05783726 5.11346136 2.90155317 -0.60859886 0.18289324
O 9.23592941 3.09009968 5.11973878 -0.25892324 1.05809607 -1.05463539
O 21.79527685 3.05950685 5.11701246 -0.49297397 -1.08072836 -0.14846260
O 7.91851236 6.15562647 10.89511729 -0.57740704 -0.15162814 0.87693298
O 20.40743588 6.17319968 10.95432491 -0.32928621 0.56778095 0.86562551
O 7.80350841 3.04832128 10.90980809 -0.55913765 1.38246917 -0.25524513
O 20.34861946 2.99384026 10.79333065 0.55363657 -0.12384886 -1.37010691
O 8.20562757 1.50965912 0.59521429 -0.13233410 0.75843207 -0.10908054
O 20.65419676 1.51845141 0.53138254 -0.06053043 -0.00640748 -0.26657185
O 8.12327506 4.64792047 0.65242962 -1.74452174 2.15461983 0.36642833
O 20.64535838 4.57166649 0.68964743 1.25518052 -0.21161262 -0.49182469
O 6.75972797 1.55300739 6.38541585 0.84844203 1.99481424 -1.31545787
O 19.25027771 1.58794236 6.35002745 -0.21144799 -0.35606557 1.28586832
O 6.76232254 4.68140394 6.42236849 -1.56800192 -0.46878086 -0.75507783
O 19.27409108 4.60848730 6.33397462 0.09930385 0.32201558 1.81907370
O 2.91855653 1.51586829 5.15143651 -0.28552855 -0.24436278 -0.65718156
O 15.51498123 1.58668609 5.14095693 -0.77546566 0.67172579 0.34082070
O 3.01213584 4.61980883 5.14526512 2.13524603 -0.16059619 0.77985861
O 15.52466425 4.67523088 5.05345661 -0.81839156 -0.32852057 0.16480799
O 1.56631535 1.61246384 10.83092796 -0.35033156 -0.10482533 -1.20096214
O 14.10011491 1.56086303 10.86364055 -0.48009681 -0.50219210 0.55896836
O 1.52608615 4.59518401 10.88757633 -0.72821348 0.32808049 -1.03151679
O 14.14077372 4.63910038 10.90138751 -0.48733471 -0.14078663 0.40340952
O 1.38611945 6.20760709 3.29008746 -0.29988235 0.25936511 0.48830389
O 13.77779178 -0.04171215 3.32988060 -1.06733441 1.31685323 -0.17725089
O 1.38990167 3.13025653 3.20952135 0.33529937 0.39174208 -0.91767914
O 13.99011035 3.04726470 3.22116722 0.70853824 0.28774703 -1.23232407
O 0.01248087 0.02983772 8.96966734 -1.46382842 0.64155359 -0.19671051
O 12.49982690 0.04114636 9.01195371 -1.02515559 0.40918766 -0.07064809
O 0.02742612 3.12101450 8.95110250 -0.28069739 0.66530369 0.69578170
O 12.62731609 3.04226668 9.02761289 -0.78371544 0.56424277 0.74133161
O 9.71404321 6.18201947 2.47521004 0.36652431 -0.32518996 0.24892337
O 22.21736507 6.23890056 2.50735684 -1.21167478 -1.18391659 -0.90213750
O 9.67783864 3.11210036 2.55347350 -0.78517110 -0.33804521 0.09226143
O 22.19797305 3.07738297 2.48232011 -0.48685516 -0.38010783 -1.28044576
O 8.30142619 -0.00015158 8.18914192 0.28905059 -0.15537602 -0.26580175
O 20.81575670 6.06466518 8.27181375 -0.17445290 0.73102703 -0.31992150
O 8.23990821 3.13917948 8.21942040 -0.00233201 0.17622847 -1.07758141
O 20.86305554 3.04109622 8.20286554 1.10927314 0.39072908 0.52571298
O 7.61011792 1.52632537 3.33005246 -0.10635907 -0.18715457 0.86973889
O 20.19941234 1.58520989 3.25462146 -0.13554311 -0.63932141 0.83664240
O 7.65448571 4.53756984 3.22166887 0.11521444 1.36178047 1.13627957
O 20.18164717 4.59937038 3.25920976 0.14494376 -0.03465587 0.59692608
O 6.24362754 1.66046110 9.06283788 1.29333913 -1.29536356 0.39222086
O 18.73052131 1.46088053 8.96080068 0.46638918 -0.38255905 -1.49515999
O 6.29176814 4.58326086 8.91707918 0.04073780 -0.62702432 1.80549898
O 18.81806244 4.78846902 9.00777122 -1.72741930 -0.15127178 0.00364293
O 3.42354682 1.59090499 2.50454551 -0.32224277 0.79481810 -1.39957614
O 16.02081232 1.52045380 2.46716293 1.32591341 -0.61356151 0.29087300
O 3.34826678 4.66582564 2.50386152 0.87194687 -0.63241441 -0.04827667
O 16.07047786 4.57970221 2.49886973 0.05980189 -0.47757103 0.09289071
O 1.95189358 1.55086844 8.16487056 -0.68674039 -0.80111618 -0.79674671
O 14.62790267 1.54467900 8.29428526 1.61223683 -0.48102979 1.59740124
O 2.06559640 4.71192947 8.20094919 0.09453075 0.62077206 0.16752967
O 14.61056503 4.57236098 8.12999776 -1.05109380 0.60596129 0.45093272
O 12.12319758 1.55365933 1.56107849 -1.83670141 -0.36844459 -0.51377070
O 24.58748837 1.46301689 1.54587202 -0.55898395 0.61570738 -0.15198498
O 12.21502917 4.76148427 1.53287039 0.36703400 0.02270728 0.59781988
O 24.64183994 4.57812883 1.48835643 0.04986263 -1.63033588 -0.12798321
O 10.64976001 1.49109443 7.24646983 0.34138974 0.67694489 -0.06778596
O 23.23678937 1.47501878 7.25260944 0.88271317 -1.03181186 0.56641373
O 10.70029603 4.70565596 7.25287598 0.05670629 0.86047298 -0.08980261
O 23.32114401 4.66600022 7.22921984 -0.03156914 -0.83549956 0.09860419
O -0.98013213 1.53410610 4.19120494 -0.92999510 -0.23568378 -0.70566337
O 11.52641719 1.47952906 4.28905073 1.07576020 0.21210017 0.35249515
O -0.98149626 4.59067244 4.22862405 0.43586974 0.37614898 0.74014958
O 11.62531756 4.68709469 4.21761283 0.84745427 1.91378350 -0.90338755
O -2.33425669 1.53904312 9.97299032 -0.06125063 -1.10194545 -0.98177869
O 10.06837990 1.50448960 10.05993961 0.71117432 2.12068164 0.36121516
O -2.37491338 4.60828614 10.03168123 -1.16763128 0.76703646 -0.43894992
O 5.85607641 6.20928434 1.46860530 -1.16401256 -1.54409489 0.11474017
O 18.41373249 0.06442631 1.57100174 0.71024974 -1.38480446 0.15946137
O 5.89230780 3.13382364 1.33731673 -0.64919843 0.15662849 -0.64601073
O 18.39250036 3.07800862 1.51069994 0.70573192 1.07066562 0.18144868
O 4.43024753 6.18736424 7.17122354 1.39964567 -0.54467272 0.12722443
O 16.94173982 -0.07748804 7.23311741 0.47185391 -0.87069875 0.09921663
O 4.55220773 3.03039637 7.26830264 0.65952480 -0.70219363 0.24263885
O 16.97866840 3.00409640 7.12266760 -0.20898211 1.23703575 0.25504128
O 5.26535388 6.20367997 4.27357167 1.25271753 -0.12298862 0.54592378
O 17.89064709 0.03100048 4.25417027 0.50368724 0.15954003 -0.12160789
O 5.26166997 3.11371177 4.24805008 0.04450914 -0.28082452 -0.11421713
O 17.82378044 3.10281191 4.26460567 -1.76062965 -0.63515084 -0.18582773
O 3.83269645 6.17680158 10.05942619 0.03220215 0.52646612 -0.03425491
O 16.43377611 0.01439987 10.03000509 -1.01833805 -0.11076494 -0.67791271
O 3.87135686 3.19560622 9.95570985 0.44501432 -0.99846153 -1.04475297
O 16.41141139 3.20407381 10.04059248 0.05807468 -0.94875683 -0.90636914
159
Lattice="25.124007 0.000000 0.000000 0.000000 6.220361 0.000000 -2.802628 0.000000 11.516660" Properties=species:S:1:pos:R:3:force:R:3 Energy=-623.159100 Virial="-56.597492 0.136276 -0.936421 0.136276 -50.703137 -6.044606 -0.936421 -6.044606 -44.024588" O_vac_type=O_O2 O_vac_tier=low O_coord=3 defect_vacancy pbc="T T T"
Ga 0.12000358 0.01411263 4.61223933 1.48094713 0.59706657 0.71149077
Ga 12.57515642 6.27854650 4.43168676 0.01966937 0.13763292 1.01766590
Ga 0.07209406 3.17876800 4.58705821 -0.52456144 -1.62775613 -0.14582913
Ga 12.68731330 3.01434367 4.62706818 -0.25225505 -0.47954914 0.55009941
Ga -1.48047994 6.27136070 10.35299487 0.29909157 0.28817778 -0.42511986
Ga 11.26951914 6.23782986 10.24716805 -0.58086863 -0.47087490 0.20218029
Ga -1.43307359 3.16549550 10.35763455 1.60775501 -0.08509776 0.98424068
Ga 11.20316029 3.07220054 10.45546453 1.28544842 -1.78749157 -0.74908938
Ga 11.14409243 -0.03624092 1.15542838 -0.40820139 -0.23191569 0.18753352
Ga 23.50065998 -0.02122401 1.16951539 0.24538109 -1.21854524 -1.59698044
Ga 11.07899423 3.14796892 1.21037331 1.27135599 -0.21625216 -0.56991369
Ga 23.71770266 3.16114837 1.17833503 -0.35115036 0.86072313 1.03790739
Ga 9.78156790 6.28334007 6.96526076 1.03660563 0.75409262 0.02830830
Ga 22.32310328 -0.00498293 7.01793274 -0.42093513 -0.07113908 -0.82212456
Ga 9.76559010 3.05157632 6.87397965 -0.05346763 1.31462731 0.65723399
Ga 22.36032330 3.21418127 6.95366661 -0.87776061 0.85429086 0.55683073
Ga 6.30549659 1.56511354 4.53650643 -0.10831911 0.31524556 -1.54375753
Ga 18.90231903 1.52519419 4.58413137 -0.46287760 -0.43458689 0.72756932
Ga 6.35390085 4.69807564 4.73972797 -0.65689055 -0.74025500 -0.60622180
Ga 18.92507438 4.67963673 4.41930340 -1.77603653 0.41056312 -0.05218607
Ga 4.89816071 1.44983103 10.37261964 -1.14269999 1.04589230 -0.78040091
Ga 17.52817337 1.50742226 10.26127200 -0.74890584 -1.43991527 1.46758273
Ga 4.96565249 4.76035218 10.38138664 -1.06968543 -0.63554886 0.18693105
Ga 17.38501796 4.73342781 10.36170462 0.92131228 -0.42830459 -0.21926245
Ga 4.88526832 1.60465645 1.15437633 1.60692347 -0.93439356 0.87905198
Ga 17.44157849 1.64119000 1.27235413 -0.54858452 -0.59121236 2.06526207
Ga 4.99561295 4.76307231 1.20529047 -0.49964796 -0.56611897 0.29408581
Ga 17.41997782 4.61981277 1.18722514 1.02179939 0.93579256 -1.48589044
Ga 3.52416555 1.53583759 6.97940425 1.49770113 2.15180447 -0.35048870
Ga 16.02310930 1.57071447 6.98077517 -0.76509383 -0.31393525 1.89787797
Ga 3.37307642 4.63311812 7.04905503 -1.33314743 -0.55164849 -0.41716455
Ga 15.98168372 4.65466999 6.90215626 -0.06165718 0.88626311 0.21456866
Ga 1.49791423 1.64068871 1.71412053 0.76553265 -0.03167231 0.87869138
Ga 14.08522032 1.59296515 1.74287429 -1.30775213 -0.19835080 1.20590786
Ga 1.57397763 4.71173275 1.76658410 1.14893680 -0.09034513 1.02760750
Ga 14.11609789 4.65215842 1.85170052 0.58851971 0.15346755 0.47295623
Ga 0.11147977 1.54918762 7.47072644 -0.26021905 -0.01500524 0.64223084
Ga 12.71636687 1.53726636 7.60162549 0.31083071 -1.45495934 0.85591799
Ga 0.22322972 4.65274154 7.50391192 0.10851789 -0.11921222 -1.50015288
Ga 12.64304615 4.70729558 7.56884044 0.35160712 -0.08076674 -0.92299045
Ga 9.61760035 1.46714389 3.84335010 -0.88199789 1.14411107 0.46088971
Ga 22.21582671 1.53077762 3.96832544 -2.29681062 -0.99644612 -0.33887987
Ga 9.62137362 4.64164467 4.00621487 0.98621527 0.16701507 -1.20585325
Ga 22.20453593 4.69216424 4.03316641 1.07488124 -0.39874877 -0.27233460
Ga 8.26042791 1.56330240 9.78213365 0.45502853 0.76022838 0.50292586
Ga 20.76223320 1.60715016 9.62475946 0.64462582 -0.85432387 0.61419568
Ga 8.20138659 4.67593258 9.63404683 -1.93552106 -0.54802249 0.73915194
Ga 20.73020472 4.74735434 9.70582551 0.75077083 -0.19390055 -0.26576872
Ga 7.86913395 -0.07295086 1.71946081 -0.00742965 -1.50194691 -0.02589464
Ga 20.31811935 0.03331513 1.74391146 1.77492013 0.83802106 -0.22579143
Ga 7.73411317 3.15891425 1.75504460 -0.53748276 0.58801291 -0.16614237
Ga 20.31664575 3.10727175 1.72675238 0.34656753 -0.82145141 -0.03970776
Ga 6.45852306 0.00630809 7.47675450 -0.55556156 0.09205695 -0.22393249
Ga 19.05985914 0.02299083 7.64088237 -0.48675717 0.43047275 0.45210408
Ga 6.56656259 3.01744100 7.60260358 0.50864387 -0.41426958 -0.98281852
Ga 18.98411496 3.14403759 7.58433640 -0.70429656 -0.21385872 0.45032270
Ga 3.28553113 -0.14489775 4.00167788 0.17431278 0.18767965 0.11187344
Ga 15.95386503 6.25842624 3.92268194 0.41358150 0.46482017 -0.21257274
Ga 3.36308066 2.99143362 3.92811252 0.39603246 -0.39987555 -1.26185395
Ga 15.92366260 3.12214593 3.95259444 -0.97755518 1.52779173 0.09437938
Ga 2.05745873 -0.03586945 9.75920947 -0.58129646 -0.82004627 0.15773307
Ga 14.52731986 6.22890743 9.73126698 -0.12213924 0.50334106 -0.36775673
Ga 1.97647850 2.99084632 9.76404054 0.59766776 0.03419491 -0.76554123
Ga 14.37892144 3.13844205 9.78503164 0.20245512 -1.67533536 0.81672979
O 1.86735473 6.25391064 0.61959904 0.40570644 -0.56633019 -0.03823915
O 14.49504300 6.14299274 0.62060851 0.03032998 -0.38030253 0.36039668
O 1.78038273 3.13665491 0.69964243 0.32107152 0.41830213 -0.17486843
O 14.43784645 3.19674229 0.61675528 -0.33411074 -0.32937314 -0.15151076
O 0.46945895 0.01071094 6.32857508 -0.58430565 -0.09223908 0.23997367
O 13.15591498 6.25465951 6.31083007 -0.15971362 -0.40205526 1.14602143
O 0.47428604 3.13319463 6.41007147 -0.30007607 0.68231980 0.21412017
O 12.96934959 3.12563035 6.36832396 1.82720071 -0.20550193 0.00840743
O 9.32470012 -0.03280991 5.15034956 0.25745884 0.39291406 0.02235604
O 21.84663354 -0.06972996 5.08715523 -0.47838287 -0.87246723 1.37908840
O 9.21855562 3.12543998 5.02904117 0.35261548 -0.41092137 -1.77117779
O 21.80698281 3.21078782 5.06339745 -0.23610588 -0.55592613 0.09869271
O 7.91155777 6.20886663 10.88951300 -0.84953088 0.45586720 0.24485107
O 20.52678081 6.16864908 10.87021275 -0.81847478 0.40393400 0.65206901
O 7.92623392 3.20161431 10.79828906 0.14919320 -0.89525183 -1.39131130
O 20.45389605 3.13383726 10.90484205 0.41928973 -0.57548504 -0.30967095
O 8.05210513 1.39900615 0.61116633 -0.36299187 -0.94947400 0.77756138
O 20.72365806 1.49516828 0.58269816 -0.81817038 -1.17427839 -0.29147846
O 8.27717816 4.64672474 0.61894417 0.08347511 -0.20514090 0.60730878
O 20.76945751 4.46838321 0.54680092 -0.77602833 1.49293730 1.26352243
O 6.67296828 1.56117399 6.44212876 1.07078192 0.25572618 -0.60392875
O 19.41279250 1.54196715 6.29658782 -0.18700470 1.60101626 0.85510087
O 6.72618284 4.67973544 6.42233120 1.39585130 0.03692205 1.03521107
O 19.27159615 4.66713174 6.37364188 0.30180049 1.02891677 -0.88327339
O 2.97163529 1.41320992 5.18537104 0.43502193 0.50210910 -1.67900737
O 15.60001630 1.38791447 5.10872495 1.91609299 0.64392066 -0.89577256
O 2.96551439 4.56049194 5.15673620 -0.05314535 0.62785967 0.09026420
O 15.55090427 4.66349217 5.14640440 -1.84247686 -0.56669041 -0.92090718
O 1.59854683 1.55500545 10.91191563 -0.55341142 -0.96605840 -0.01260916
O 14.11235724 1.56592017 10.81560807 -0.32547437 1.87018815 0.18264269
O 1.56426471 4.69552274 10.87897531 -0.33911479 0.25458049 -0.38410659
O 14.09818535 4.72500393 10.88151780 0.02947404 -0.25803457 -0.94590310
O 1.51963545 6.14364420 3.19383969 -0.01924166 -0.21076327 -0.57564759
O 13.95671908 0.17136520 3.27921377 -1.40056733 -0.77832899 0.00372943
O 1.40510383 3.09615727 3.26716805 0.79434533 -0.78822879 0.12029974
O 13.97591573 3.05346453 3.26623099 0.74329737 -0.04775566 -0.27959937
O 0.01401289 -0.09787627 8.84128515 -1.83159280 0.22340547 -1.07049376
O 12.52320870 -0.13223284 9.05359490 -0.53836178 -0.96378813 -0.76670006
O -0.03535666 3.16578630 8.99587354 0.18083165 -0.04281122 0.58594872
O 12.54208050 3.08801827 8.97827470 0.68755693 -1.40833596 -0.71463240
O 9.70504431 6.25944251 2.53446608 0.22407999 -0.36842017 0.37426882
O 22.27893148 6.34458134 2.48547696 0.13929243 1.10712902 0.51795215
O 9.82820555 3.19103383 2.51072052 -1.04933854 0.33038519 0.99051920
O 22.28883150 3.26988495 2.45153673 1.48407741 -0.20219645 -0.03862023
O 8.28327138 -0.03661157 8.27348359 -0.56312813 0.77190551 0.60625061
O 20.87520904 6.24146694 8.25748172 -0.93161764 1.18281919 -0.79849443
O 8.30570583 3.08587681 8.31588560 -1.61625510 2.27939693 -0.85556676
O 20.86096164 3.09534740 8.25144298 -0.35788789 0.19140724 -0.76533000
O 7.70967523 1.55645090 3.15846532 -0.00831474 1.09043782 -0.23504250
O 20.29045464 1.54514366 3.19536276 -0.04487106 -0.64045880 -0.98176550
O 7.70637547 4.57963978 3.27365614 -0.74672078 0.25486123 1.35298969
O 20.25730541 4.77387074 3.25006378 0.78321926 -0.36849359 0.79373631
O 6.16904407 1.61966726 8.95335216 -0.75872468 0.19570621 0.42527914
O 18.89272268 1.63044766 8.95799271 0.16315073 -0.58007993 -0.50300610
O 6.16562174 4.69253560 9.02739979 -0.96808865 0.31972385 -0.91176379
O 18.78312021 4.68335779 9.02319384 0.44988297 0.10435359 -0.05583857
O 3.54019900 1.57617554 2.40447908 -1.39126382 0.76087509 1.41720103
O 16.05158476 1.51304107 2.48592355 0.51668863 0.67585012 1.55680920
O 3.64847883 4.64487633 2.41188066 -0.65404939 0.36644389 -0.67188162
O 15.98758201 4.72139189 2.44553196 0.27284772 0.85429852 1.03468309
O 1.98397151 1.58514076 8.28445756 0.28410245 -0.01842080 0.30360826
O 14.61417491 1.67245049 8.30409677 -1.00401212 0.75498929 1.21734672
O 2.19896176 4.71501205 8.20929818 -1.00762959 -0.22182832 -0.87261776
O 14.67686433 4.67945690 8.18842617 0.03269986 0.17333672 -0.46141611
O 12.01878529 1.43905220 1.46375702 -1.00461136 -0.14844762 0.14239729
O 24.68206843 1.55704018 1.47915036 -0.21272435 -0.08947926 0.97516594
O 12.15549138 4.61028763 1.45737829 0.38629647 0.66853806 0.90883827
O 24.76915828 4.64218286 1.45700543 -0.19974654 1.03359205 0.20578314
O 10.71684395 1.54804996 7.28018764 -0.27439233 0.29843704 -0.09648593
O 23.18693689 1.52551438 7.24392456 0.02423078 -0.04848856 0.25996835
O 10.74153829 4.69565065 7.01653051 0.26865308 0.96063759 0.01811866
O 23.32637816 4.76640479 7.27820374 0.03401315 0.17040198 -0.86386623
O -1.04349482 1.53089290 4.34706858 0.51201875 -0.21324185 1.09127686
O 11.66389255 1.54189134 4.33709612 -0.14608545 -1.04520350 -2.28357094
O -1.05690619 4.68762986 4.35927920 0.04624762 -0.03185980 -1.30294990
O 11.48204463 4.69569949 4.29356151 1.22467047 -0.05420815 -0.16174108
O -2.39547435 1.46807825 9.95749812 0.34417605 0.42872041 0.17902611
O 10.13228345 1.65823003 10.10726768 0.57676553 0.18511977 -0.24832378
O -2.36025402 4.65146945 10.01204253 -0.30679030 0.14677823 0.54268048
O 5.88218361 6.20276771 1.54481965 -0.21016309 -0.53474406 0.52706915
O 18.35932514 0.10552913 1.51670784 0.17832731 0.05392847 0.06763593
O 5.96810773 3.08256035 1.50475908 0.20227195 0.65996235 0.21740523
O 18.37878253 3.13835287 1.51889032 0.88993642 -0.56421064 -0.17726891
O 4.39176617 6.21418695 7.27255195 0.89348138 0.33308559 -1.26872602
O 17.11282313 -0.03190574 7.23539241 0.48665825 0.49600690 0.51863822
O 4.57232453 3.16076504 7.31842574 1.40110970 0.26450191 -0.17067295
O 17.03814870 3.06370095 7.26583197 0.42567310 0.63736195 -1.03933357
O 5.30008701 6.25223347 4.17903041 -0.01791093 -0.71102639 0.17662136
O 17.77092833 0.04769364 4.29132945 0.13049932 -0.50595533 -0.36375530
O 5.24621737 3.06543829 4.32262116 2.17778884 -0.18527728 -0.96140631
O 17.83292665 3.02667411 4.28206624 0.96438600 -0.82261830 0.10505665
O 3.85354661 6.14178115 10.08765377 1.00792290 0.07583614 0.44176672
O 16.50983623 -0.02058587 9.96167620 -0.31552649 -1.22003121 -1.13263960
O 3.85763601 3.06525151 9.97821096 -0.67061402 0.05784760 -0.53895904
O 16.49444693 3.11019791 9.96654383 -1.25388701 -0.34566958 0.15860565
159
Lattice="25.097072 0.000000 0.000000 0.000000 6.213693 0.000000 -2.799624 0.000000 11.504313" Properties=species:S:1:pos:R:3:force:R:3 Energy=-622.999432 Virial="-52.863848 1.946553 -4.873880 1.946553 -44.976068 -4.677207 -4.873880 -4.677207 -44.655199" O_vac_type=O_O2 O_vac_tier=low O_coord=3 defect_vacancy pbc="T T T"
Ga -0.02447065 0.07326323 4.54132327 0.59200401 -0.42985410 1.04173633
Ga 12.55452508 6.18416362 4.60664475 0.09394303 -0.36837333 -0.99670503
Ga -0.04786291 3.08995414 4.52121620 0.00244000 0.07914469 1.16853329
Ga 12.57898407 3.18656748 4.53828342 -0.14391907 -1.09606466 -0.74600453
Ga -1.32568007 6.17978711 10.30106256 0.74819954 0.29482329 0.25795792
Ga 11.13684379 6.26264538 10.36477912 -0.37048391 -0.24029180 -0.69766763
Ga -1.42141543 3.17166328 10.38967738 -1.40286254 -1.63669962 -1.13865057
Ga 11.16126858 3.17503962 10.30317381 -0.03776979 0.27375651 -2.44382277
Ga 11.17699283 0.00800689 1.14284050 0.72962956 -0.43649118 -0.64001760
Ga 23.64816915 -0.01170926 1.19520557 0.26219122 -0.16952477 0.33434651
Ga 11.14126076 3.07699561 1.18928815 0.06394019 2.04385509 0.89129557
Ga 23.59664071 3.10646632 1.29975408 1.12084333 -0.31771644 1.84998639
Ga 9.67586927 6.16949272 6.89494774 -0.83740185 1.08797488 0.69888466
Ga 22.24326726 0.03297799 6.90127659 1.12844326 0.20142229 -0.70806069
Ga 9.78448224 3.04779604 6.90628471 -0.65985030 -1.03175601 0.30906230
Ga 22.22842210 2.97246891 6.97599994 0.10293267 0.48734466 -0.07234167
Ga 6.33581645 1.54531626 4.59016935 -0.02766419 0.07555835 0.62684607
Ga 18.83945989 1.58027857 4.55268371 -1.36444389 0.51231351 -0.43082771
Ga 6.27854505 4.63436444 4.57020447 0.35457323 -0.98279833 -0.17834707
Ga 18.82985767 4.71907601 4.59103201 -0.54944483 0.61725324 -0.12228624
Ga 5.01287177 1.53940732 10.33190773 0.65555920 0.07416032 -0.82482357
Ga 17.40540452 1.59428370 10.27537261 1.07875447 -0.67670506 -1.19892813
Ga 4.82561873 4.75072098 10.32987916 0.14577479 -0.90890557 0.62199935
Ga 17.48553488 4.66479716 10.29907674 0.10783720 -1.72339541 -0.39063910
Ga 4.88796231 1.54598885 1.13352240 0.87457883 -1.13708765 -0.05488905
Ga 17.38984123 1.49792238 1.11791777 0.56929696 0.51289478 -1.00219681
Ga 4.82946067 4.71213097 1.17292768 0.54604064 -1.64362205 0.91373900
Ga 17.35825294 4.59153549 1.18618751 -0.85840699 0.99879579 1.16806436
Ga 3.52785286 1.62981381 6.87752553 -0.30045198 0.26447212 -0.13438881
Ga 16.00020015 1.52188105 6.87677912 -0.74016718 1.18029768 0.30066798
Ga 3.45730871 4.58557931 6.87173363 -1.46846641 0.43854697 -1.36524014
Ga 16.04468073 4.70138231 6.91242751 -0.74130596 0.31073754 -1.50939850
Ga 1.50467967 1.53386532 1.84325739 -0.24732722 0.06608325 -0.59260025
Ga 14.13523741 1.53094511 1.80918893 -0.16892441 0.77028146 1.15142843
Ga 1.52428171 4.67778809 1.83317223 -0.00059096 0.85434376 -0.29902316
Ga 14.09117286 4.72260464 1.87577439 0.05609650 0.09628554 -0.45591845
Ga 0.22067601 1.54744698 7.53200992 -0.67504615 -0.74520959 -0.27811950
Ga 12.67051672 1.53811878 7.54069112 0.26410090 0.27738024 0.04495085
Ga 0.20029504 4.65459857 7.56713452 -0.34273489 -0.87714767 -1.42950476
Ga 12.67745659 4.64398556 7.47857464 0.05044712 0.29890014 0.43382234
Ga 9.63734614 1.57054906 3.99122033 -0.45764428 0.75711529 1.34787012
Ga 22.17458760 1.60104804 3.93250433 -0.68385908 0.64107288 -0.62494838
Ga 9.55125736 4.70766500 3.94298694 0.12492741 -0.48619370 -0.05715389
Ga 22.08948640 4.72695447 3.91993194 -2.48295109 0.63606247 0.43541997
Ga 8.23124050 1.56124109 9.68462919 -0.71250480 -0.47453010 0.09774586
Ga 20.69173833 1.49667966 9.59543325 0.55720774 0.91402530 -1.41538036
Ga 8.18390746 4.66282748 9.71646619 0.16620060 1.70344843 -1.00671876
Ga 20.72954221 4.69390593 9.69062972 -0.02994707 -0.56431182 -0.17809155
Ga 7.91659043 0.01900078 1.82693980 -1.78008183 0.00493399 -0.12989199
Ga 20.41730237 0.06841098 1.79798561 0.01453861 -0.84667004 -0.10390863
Ga 7.87987284 3.06794460 1.87617265 -0.64240630 1.60005541 1.25450723
Ga 20.37467429 3.16083661 1.80975282 0.28301563 0.05172224 -0.08150576
Ga 6.40353834 -0.02781006 7.59795983 -1.11024019 -0.92270919 -0.98804641
Ga 18.84991744 0.00284813 7.55011517 -0.08836599 0.54137799 1.04531898
Ga 6.51050922 3.09410967 7.53431495 0.19460996 -0.30003814 0.88640464
Ga 18.93163934 3.10685890 7.55310647 -0.13851178 1.51521320 0.35263388
Ga 3.34458339 0.00449869 3.89566896 -1.13607792 0.54830365 1.12683972
Ga 15.88649692 6.20122479 3.94925977 -0.84657912 0.09017663 1.42128836
Ga 3.35273974 3.16763624 3.95887314 0.65196637 0.40270261 0.79380469
Ga 15.83004855 3.10842101 3.93787047 0.90718750 -0.98903343 0.76887253
Ga 1.96623358 0.03371405 9.75013266 -0.28424645 -1.74965468 0.96276624
Ga 14.52196506 6.25885090 9.67468436 -0.49699171 -0.79572047 -0.15725072
Ga 1.83650749 2.98734896 9.74444838 0.52625500 0.86217420 0.37492625
Ga 14.56661698 3.20060735 9.74944044 0.09215705 0.00420799 -0.53989063
O 1.86189852 6.26300670 0.61669689 0.71659428 -0.37812346 -0.70135159
O 14.40344947 6.19233667 0.61652090 0.52199524 0.61015020 -0.26302179
O 1.90833839 3.16156943 0.59485065 0.07024220 0.34448181 0.83681700
O 14.47634179 3.14670799 0.57596678 1.72460744 -0.60956119 -1.27029594
O 0.52353097 0.06643397 6.39351629 0.53596489 0.47286488 0.14236013
O 13.07088020 6.23997090 6.33404002 -0.48519703 0.48488217 0.99574880
O 0.40444538 3.12232020 6.38181819 0.09738122 -0.68532319 -0.18354497
O 13.01118226 3.07833846 6.33454063 -0.03392933 0.20584283 1.20060497
O 9.26648808 -0.02190763 5.11493220 -0.33141131 -1.94048949 -0.43035739
O 21.83134934 -0.13203666 5.13546363 1.65574867 0.17386003 -1.15969512
O 9.28229560 3.03462125 5.21108642 -0.09409106 -1.24231949 -1.58031173
O 21.81868692 3.06170692 5.07475580 -0.03366144 -0.63143096 -0.12821700
O 7.85890503 6.23276292 10.95331148 0.63154865 -1.37844125 0.68140410
O 20.31722679 6.20742409 10.89358599 -1.58426342 1.15167227 0.19929363
O 7.88967192 3.07248805 10.89037973 0.21939517 -1.28577097 -0.04539384
O 20.38092205 3.05412536 10.89630981 -0.48583900 -1.10154826 -0.11917712
O 8.10959512 1.61486779 0.55372895 0.42088981 0.69190930 0.70337691
O 20.69426529 1.53396517 0.60083346 -0.58578752 -0.47945399 0.25597426
O 8.19040851 4.67473740 0.64143171 0.97068434 0.52616179 -0.84218134
O 20.80018915 4.63577678 0.59655171 -0.56996095 0.17083985 0.39955992
O 6.75927541 1.58200459 6.39043010 0.07736421 0.60413647 -0.25843262
O 19.37612097 1.61659956 6.39278541 -1.04602632 -1.41075687 2.06276435
O 6.76435456 4.68825883 6.35006198 -0.07426621 0.96182581 0.98725940
O 19.31409503 4.57280856 6.40039278 0.68554389 -0.32935893 0.01500182
O 2.95868009 1.56290382 5.13912379 0.50401144 0.97319267 -0.34144694
O 15.59542777 1.57508479 5.10653329 -0.19158507 0.94957839 -0.37840670
O 3.08928075 4.62915856 5.11731347 -1.16498403 -0.00507426 0.58218399
O 15.57841313 4.65905076 5.01844595 -0.43962664 1.73170687 -0.81203942
O 1.60654024 1.57560664 10.88414450 0.90722637 -0.75127227 0.85997821
O 14.21085009 1.57028453 10.83505087 0.33263362 -1.28946521 -0.73052398
O 1.51114904 4.67377545 10.76795785 -0.84598035 0.25854832 0.35284881
O 14.07486380 4.65220577 10.86489952 -1.16840673 0.16455219 -0.06939493
O 1.41741711 6.19740201 3.31280537 1.04575188 0.68006690 0.77991598
O 13.98779009 0.00097622 3.29994939 -0.23563600 -0.28908664 0.73327442
O 1.44855440 3.08497427 3.20962200 -0.36522977 -0.77584035 1.06975868
O 13.99747427 3.06136173 3.27209743 -0.04887659 0.21781024 0.46453264
O 0.09686302 0.03395041 9.05335120 -0.38675711 -0.00270799 0.28365400
O 12.56414107 0.08173408 8.91938227 -0.20118103 -0.97031990 0.01985464
O -0.04091363 3.13571168 9.01288796 -0.17523502 -0.34092710 -1.11608482
O 12.55241438 3.14598081 8.98239604 -0.37751941 -0.83797645 -0.64391806
O 9.71634097 6.24855936 2.53113679 0.83373661 1.27137161 0.35587115
O 22.19607491 6.15725888 2.47091627 0.00103467 -0.01611676 1.52033327
O 9.75231866 3.14761557 2.51742563 0.80528272 1.34380232 -1.93683779
O 22.27450075 3.07121690 2.47685426 1.00013727 0.07769875 0.60151607
O 8.40449234 0.00948010 8.27834802 2.87311729 -0.26370070 -0.04217135
O 20.92555607 6.15747771 8.24720259 1.11878303 -0.83697605 -0.35432643
O 8.40876902 3.08194609 8.29898362 0.52509898 -0.35454302 0.41176396
O 20.88672709 3.10035316 8.28127430 0.30749150 1.42050095 -1.26778126
O 7.56467450 1.57913203 3.18456711 -0.03042916 0.03163605 -0.91159164
O 20.17777605 1.54029961 3.28972302 -0.18799126 0.46127743 0.36565122
O 7.57704447 4.62211698 3.25234080 -0.28204010 -0.50288109 0.06497884
O 20.14934774 4.65459593 3.29570712 1.07587987 0.24809575 -0.27407931
O 6.29542516 1.58012705 8.97982035 1.01613142 -0.53017466 -0.37912975
O 18.86508281 1.54128209 9.01828724 0.30769600 -0.11112682 -0.50092037
O 6.24063410 4.58148107 9.03255169 0.63909615 0.76721694 0.34234372
O 18.75591605 4.71424469 8.96403986 -0.40057512 0.87745490 -0.98588506
O 3.52460961 1.45868630 2.55041678 -1.48009272 0.54131203 -0.15884391
O 16.05691649 1.59711133 2.54997027 0.28607726 -1.32647567 0.54578385
O 3.55920251 4.59400726 2.48554914 0.35542940 0.49180126 -0.44357870
O 16.06742363 4.60283234 2.66387610 1.54431887 0.91960151 0.23330903
O 2.08475040 1.54445648 8.21586989 0.55956585 -0.13039454 0.51190628
O 14.60437890 1.47949556 8.25719267 0.17609745 -0.89036389 -0.12840790
O 2.09560891 4.73685613 8.30728698 0.42013875 0.85452414 0.84244206
O 14.67495853 4.69063762 8.22721781 -0.15304982 0.01740389 0.33280712
O 12.07644445 1.56789896 1.48358298 0.16889022 -0.40571591 -0.71421668
O 24.72894878 1.49800402 1.43453570 2.00440616 0.03827678 0.19036751
O 12.12289897 4.64603163 1.46539812 0.03083612 -0.19391739 0.13982088
O 24.70018048 4.62124919 1.43060517 -0.21257550 -0.71122003 0.18216271
O 10.66072610 1.54356494 7.17670866 0.97406351 -0.32157816 -1.99420115
O 23.20536748 1.61136775 7.25241476 0.34354195 -0.33870568 -0.25309495
O 10.82102808 4.67225793 7.19535887 -0.44314968 0.34480924 1.27735772
O -0.96939287 1.54700161 4.28684824 -0.59154210 0.80176074 -1.28148277
O 11.57814323 1.50240143 4.35788177 -1.73435491 0.70686896 0.08126182
O -0.93671128 4.72337570 4.15628723 -0.28954770 -0.60582570 0.35274921
O 11.62951653 4.64838115 4.22542761 -0.45433894 0.92888410 0.18238316
O -2.40953854 1.55879056 10.02163437 0.80216905 -0.41767088 -0.78908697
O 10.12683871 1.50170400 10.05233425 0.28528688 -0.11272659 -0.29729537
O -2.37265471 4.64558653 9.92427177 -0.88153598 0.84542215 -0.63809779
O 10.05848816 4.70721408 9.96929522 -2.48003099 -1.28419858 1.50715927
O 5.82696857 6.29503819 1.49599107 -2.18048861 0.04316776 -0.94424793
O 18.37874717 -0.04615326 1.48756927 -0.23227591 -0.06832940 0.23321382
O 5.85901818 3.14416205 1.46505500 0.76113654 0.98886941 -1.29722499
O 18.43585804 3.03242847 1.48778319 -0.02511875 0.43922628 -0.50291884
O 4.50139730 6.15559942 7.13865210 0.27097116 -1.11675652 -0.91537850
O 17.00727276 0.05216907 7.27185738 -0.15249483 0.41044962 -0.70004648
O 4.48472004 3.08604386 7.15399598 0.02471443 -1.16873291 2.07359521
O 17.00299128 3.14380684 7.23509797 0.84956157 0.67862266 2.03220888
O 5.22659540 6.10524433 4.32932738 -0.18847464 0.16777701 0.42111058
O 17.68548138 -0.05379743 4.40208351 0.07916774 -0.93886491 -0.54309725
O 5.32814925 3.17362208 4.37506113 0.49731687 -0.46021811 0.26787586
O 17.80007220 3.10752917 4.25608791 1.71186422 -0.04008978 0.80328928
O 3.84176347 6.16711910 10.02525471 -0.08123011 0.16292394 -0.86887416
O 16.32503308 0.01483178 10.03964213 -0.68180513 -0.15002585 0.57300646
O 3.87914477 3.14406806 9.96489232 -0.57814559 0.97025256 0.30871790
O 16.43025522 3.18320397 10.03955929 -0.33790637 1.26877251 0.12692811
159
Lattice="25.120243 0.000000 0.000000 0.000000 6.219429 0.000000 -2.802208 0.000000 11.514935" Properties=species:S:1:pos:R:3:force:R:3 Energy=-624.002383 Virial="-59.847841 -1.219964 -1.585539 -1.219964 -42.989724 -2.809804 -1.585539 -2.809804 -40.622259" O_vac_type=O_O3 O_vac_tier=low O_coord=4 defect_vacancy pbc="T T T"
Ga 0.04630051 -0.00262832 4.62314544 -1.00621368 -1.04418553 -0.77670204
Ga 12.51245411 6.18750339 4.55418080 -0.29423639 0.01471207 0.08252512
Ga -0.05385963 3.13532474 4.52811246 1.19680167 -0.27521937 -0.46603198
Ga 12.64348948 3.13031923 4.59125405 0.20982652 0.24186704 1.01019505
Ga -1.40147000 6.21432585 10.28535562 0.78713884 1.85862447 -0.29314875
Ga 11.17372549 6.22399713 10.38455143 0.48649122 0.03391699 -0.31592440
Ga -1.41316894 3.03649999 10.38297629 -0.32868895 -0.95749078 0.56213475
Ga 11.19455178 3.05522889 10.40825180 -0.41148990 -0.03382781 0.14187192
Ga 11.16673772 0.01237951 1.13701844 -0.46115320 0.45787032 0.42944763
Ga 23.71231397 0.01730326 1.18623924 1.10371199 -0.22903848 -1.09677318
Ga 11.14847202 3.14088483 1.14539217 -0.49217466 -0.56544213 -0.56137450
Ga 23.71352967 3.12156264 1.17584334 0.38530666 -0.66926384 -0.68518442
Ga 9.76459773 6.22818161 6.95787324 0.19906368 -1.46069285 0.32010344
Ga 22.26882614 -0.04219608 6.94164521 0.78371065 -0.11955305 0.72249872
Ga 9.70392819 3.10832749 6.94904128 0.02609945 1.31187593 0.88684407
Ga 22.25371557 3.21120691 6.98004321 0.58619001 -0.04402943 -0.28471464
Ga 6.29690595 1.44836947 4.62001497 1.28685184 -0.64326583 1.19492828
Ga 18.85931873 1.47121653 4.61481895 0.64329806 -0.78084706 -0.36549670
Ga 6.36266595 4.53636130 4.53566338 0.35830551 1.22222387 -0.06711970
Ga 18.81428324 4.64105688 4.49548356 1.39585037 -0.63774018 0.32417502
Ga 4.88906912 1.62576111 10.33256907 -0.16817579 -0.27864042 -0.49487113
Ga 17.41684838 1.51310035 10.35529940 -0.86632901 -1.25202037 -1.54419476
Ga 4.86288049 4.62079736 10.35969752 -1.25705569 -0.57993806 -2.00168464
Ga 17.42011342 4.60993082 10.35038111 -0.17771230 -0.46584750 1.23622890
Ga 4.77051414 1.56920741 1.17527909 0.19379128 0.65182233 0.66842185
Ga 17.41142624 1.55866726 1.17606691 -0.27832062 1.38392555 -0.29312894
Ga 4.83945777 4.74042343 1.15495555 -1.14148639 0.38726143 0.15253471
Ga 17.39517153 4.62464425 1.23393143 0.34917183 1.50972169 -0.87351827
Ga 3.39381340 1.54735977 6.92556095 -0.90091055 0.31912904 -0.37742976
Ga 16.00878866 1.53983412 6.90206534 -1.22020665 0.32153839 -1.06990561
Ga 3.44271806 4.68112107 6.93135627 -0.38645118 1.18162032 0.68152939
Ga 16.02392051 4.74598534 6.93120747 1.41180608 0.30481445 0.34956601
Ga 1.48750340 1.54671746 1.81220610 -1.42640063 1.29910957 -1.05992761
Ga 14.12382339 1.53233592 1.72206429 1.12292431 0.48972744 -0.00149121
Ga 1.54868381 4.66174167 1.80924959 0.98826628 -0.76561954 -0.59969951
Ga 14.06315952 4.67503139 1.80765656 -0.16340546 0.37575265 0.55063663
Ga 0.14052048 1.55170111 7.50375924 0.95581592 1.56021015 0.12062938
Ga 12.76801690 1.64015483 7.57824807 -1.28853661 -1.87367187 -0.60236965
Ga 0.19458930 4.69687696 7.50860112 -0.51439130 -0.33556324 1.89112228
Ga 12.70943656 4.69158383 7.52618995 0.56347959 -0.02662101 0.15368634
Ga 9.60828558 1.58896145 3.95812960 -0.40561655 0.90300157 -0.02620089
Ga 22.21870258 1.52766336 3.94934946 0.50120561 -1.36598915 0.19620883
Ga 9.61860093 4.64757803 3.94399863 0.11667609 -0.34167310 0.39671992
Ga 22.20569997 4.67743543 3.97670091 -0.20018163 0.20970071 1.39134370
Ga 8.24359952 1.55369103 9.70712788 0.87742320 0.66764703 -0.89637988
Ga 20.80260594 1.57348581 9.76337048 0.59351689 0.26495417 -1.70641515
Ga 8.21721423 4.70820960 9.73284289 -1.59051351 -0.82733706 -1.35329152
Ga 20.80726001 4.71908124 9.67882320 -0.37938198 -1.95621059 1.01295920
Ga 7.77653624 0.01494540 1.85686207 0.36564423 -0.09762742 0.58567007
Ga 20.42087065 0.02032260 1.87571557 0.52627570 -0.60999261 -0.82339210
Ga 7.81301387 3.09153265 1.76217058 -0.53346518 -0.37387900 1.30570822
Ga 20.39217269 3.07497383 1.82812864 -1.24077989 -1.08881120 0.49359997
Ga 6.41037541 0.08393057 7.59491873 -0.28412255 0.22065819 -0.90021310
Ga 18.97716949 0.06598354 7.54273606 -0.16486042 -0.83910647 1.14395560
Ga 6.43201928 3.15794683 7.51089234 -1.53954878 0.31251770 -0.40719614
Ga 18.90471392 3.16934576 7.51420216 -0.03581904 -1.40640207 -1.26177929
Ga 3.34139104 -0.03157326 3.91470297 0.05393721 0.81953945 -0.11914792
Ga 15.89249533 6.23638709 3.92414340 -0.65721782 0.43301655 0.83186938
Ga 3.40638561 3.13263124 3.87332780 -0.61168395 0.24556112 0.40042376
Ga 15.93745454 3.09367183 3.94607634 -0.10343996 -0.62596014 -0.35995828
Ga 1.92374798 0.02706511 9.71157829 -0.79243353 -0.66795944 1.78076453
Ga 14.48144876 6.18914023 9.69322119 0.26522461 -1.68619333 -0.41071415
Ga 1.91401445 3.09852523 9.71406704 -0.93174639 0.53415478 -0.08991771
Ga 14.39973139 3.18492660 9.68663728 0.97948393 0.71625872 -0.65048069
O 1.92340545 6.21944037 0.65775931 -0.07296922 -0.07668023 -0.45621529
O 14.52845041 6.21680103 0.62543262 -1.21543355 -0.10406509 0.85971438
O 1.86232722 3.05868392 0.59942921 -0.89069937 0.29465463 -0.65213385
O 14.42109248 3.12490038 0.64347502 -0.35351936 -1.05831337 -1.16188485
O 0.45735370 -0.03434826 6.31492751 0.77540194 -1.64679255 -0.40716027
O 13.14388400 6.19821669 6.44382007 0.17346763 -0.24967883 -0.04556029
O 0.56005099 3.11331712 6.47340185 -0.87798615 0.17762326 -2.21877751
O 13.04489187 3.13368397 6.35342954 1.42010169 0.52497323 1.12106554
O 9.25535675 -0.06210057 5.14646016 1.60145712 0.02274356 -0.46383271
O 21.87425733 0.07525260 5.13665196 -1.11441837 0.01896892 0.97304272
O 9.26508262 3.18490607 5.07670204 -0.33570549 1.66135423 -0.13040041
O 21.87627708 3.14435609 5.10585723 -0.22530627 0.22175701 -0.83368576
O 7.82858682 6.21102605 10.86582137 -0.81263824 0.25753201 0.85576377
O 20.45607202 6.23501208 10.91829317 -0.52019073 -1.05737662 -1.45368457
O 7.88792285 3.10609216 10.86629047 -0.74206478 -0.96827423 -1.28904199
O 20.45056643 3.07694129 10.98392671 0.14437672 1.15006887 -0.19661349
O 8.13161239 1.55142235 0.70208272 -0.70122820 0.55809928 -0.71172017
O 20.72933069 1.55239531 0.68235494 1.07561468 0.67755431 0.40495406
O 8.14800499 4.63214874 0.61836165 0.33006411 0.93981279 -1.83073119
O 20.64657601 4.61291929 0.69544282 -0.83088691 0.55792335 0.53181670
O 6.73113575 1.55613359 6.37539122 0.56279263 -0.55121862 0.99330315
O 19.36202043 1.49588482 6.29010670 1.74125110 0.55227638 -0.79847577
O 6.74225743 4.63646215 6.43363096 -0.88875661 0.02361703 -2.33309559
O 19.37221511 4.63175966 6.40002447 -0.15644965 0.78508139 0.21840512
O 2.93631618 1.53814612 5.12823211 1.05724153 0.32456207 0.67511644
O 15.48752161 1.52291647 5.21800224 -1.41507033 -0.19508088 -1.04532951
O 2.99748123 4.65458821 5.12082973 -1.38095799 0.57719579 -0.17833405
O 15.49254164 4.64756521 5.12194701 0.52311427 -0.00609146 -0.63441635
O 1.58400401 1.51604387 10.82560434 0.68629112 -1.02927595 0.55778289
O 14.16169661 1.65176403 10.94623773 -0.08948034 0.79639811 -0.66362452
O 1.60943783 4.68275470 10.88420010 1.54034826 -1.53086703 0.81853268
O 14.17761988 4.73908553 10.89583922 -0.77218922 -0.66072155 0.10265273
O 1.43265713 6.19031679 3.25758191 0.35597765 0.24859323 -0.97114782
O 13.91165687 -0.01438109 3.23917267 -0.82014102 1.99812419 0.31483109
O 1.36661620 2.99599225 3.29012731 -0.66560956 0.59191995 -0.20824410
O 13.98930248 3.08241573 3.25575799 -0.10381617 1.06030700 1.60325398
O -0.04466967 -0.07507317 8.97649562 -0.32402610 -0.30017270 0.03472801
O 12.50527237 -0.03643655 8.96249292 -0.27549968 0.95460675 0.04258345
O 0.00337895 3.13536943 9.03622123 -0.18654958 -0.87234616 1.06308741
O 12.50180439 3.08607630 8.95111172 0.88405413 -1.54407946 0.67803307
O 9.75058640 6.24916133 2.49626238 0.86136517 0.91577108 -0.38759789
O 22.27714839 6.14918664 2.57344262 1.15881199 0.67846731 0.40950083
O 9.77498843 3.06955014 2.49465811 -0.61836655 0.76096703 0.40178426
O 22.25477536 3.08146174 2.57554862 -0.15777653 -0.14700762 0.06556488
O 8.39678387 -0.05784277 8.22988379 -1.36613736 -0.44320334 -0.47593590
O 20.92669870 6.23109280 8.24637321 -1.37096124 -0.78605076 -0.56994308
O 8.39685459 3.12218240 8.31982965 0.45040557 0.04699782 0.14554958
O 20.96129793 3.07320319 8.24557877 0.89205580 -1.49295925 -1.63004382
O 7.64085834 1.51447708 3.25264321 -1.33844109 1.03556613 1.14516928
O 20.21353988 1.54751075 3.26470326 0.35599293 -0.25599201 0.99211136
O 7.62850031 4.67825965 3.22589495 0.79215499 -0.11285167 -0.71705178
O 20.25442780 4.70378256 3.23503013 1.36410747 -0.64303624 1.21272007
O 6.30003347 1.59257901 8.99704979 0.08034914 0.14045880 -0.27764217
O 6.30506846 4.63564295 8.98310217 -1.20879272 1.08381314 0.30874689
O 18.88839029 4.74735821 8.99550811 1.33831728 -0.42027437 -0.46549898
O 3.46292433 1.57205083 2.47879480 -1.04983893 -0.49804519 0.18229247
O 16.02700231 1.57657867 2.49859051 0.49913918 -0.27829832 0.04962051
O 3.47873901 4.62348564 2.54873467 0.06762509 -0.28113555 0.29251963
O 15.99156970 4.64362730 2.42887420 -0.35779833 -0.44793982 -0.00881675
O 2.13282074 1.53416403 8.21851035 0.91916815 -0.24912076 0.70700889
O 14.67801685 1.50741312 8.30600731 -0.15960954 -0.82451592 0.14365629
O 2.02602324 4.71379536 8.26028162 1.23008700 0.75234285 -0.21552711
O 14.65432867 4.67401238 8.24009413 0.11402745 -0.23474180 0.31387554
O 12.19222918 1.52139293 1.45295238 -0.13626182 0.99540416 1.16465261
O 24.65300281 1.62408823 1.48939390 0.25651208 0.21928336 -1.07528813
O 12.17932209 4.65993133 1.54868544 1.23738499 -0.78313344 0.73526938
O 24.68141989 4.65993447 1.45837275 -1.44154410 0.09420187 -0.06648309
O 10.75505876 1.55772063 7.19957812 0.29091958 -0.58957978 -0.00824714
O 23.35138404 1.49287399 7.22161835 0.68506791 -0.09489940 1.11892972
O 10.75039667 4.73030429 7.27254850 0.85463388 -0.66549987 0.39264959
O 23.29300939 4.71560170 7.19849487 0.26729464 0.49956154 -0.95498801
O -0.93106569 1.56470388 4.27043603 -0.28816568 0.09508097 0.65660457
O 11.62176675 1.58898827 4.39116985 -0.85613216 0.04398414 0.75422773
O -1.03913112 4.66959810 4.30499809 -0.52544173 -0.50191680 0.11778265
O 11.55194980 4.62642889 4.27194279 -0.61675901 -1.55578132 0.42506540
O -2.38699720 1.53170474 10.00658619 -0.61087135 1.09380037 -0.30344994
O 10.10066397 1.59048671 9.93126813 -0.90231710 0.84578162 0.59210100
O -2.32892441 4.66158610 10.04053901 0.09947405 1.73808891 -0.67221871
O 10.18333768 4.78907865 10.03593198 0.03152413 0.57014758 0.26503437
O 5.77452782 6.27508307 1.47658525 1.11196018 -1.33383822 1.09737140
O 18.43958759 0.03807508 1.45741411 0.21378791 0.48281042 1.05951823
O 5.83546772 3.03048781 1.44220729 0.82960655 -0.24389983 0.01674983
O 18.45700385 3.07037189 1.46821149 -0.45108911 -0.27866763 -1.65985276
O 4.44854526 6.25277669 7.24682371 1.24977808 0.31352820 0.99486007
O 17.00256252 0.00830390 7.17516624 0.29588525 -0.18369648 0.88006035
O 4.48917126 3.16915551 7.14366509 0.85388311 1.12026732 -0.87388854
O 17.01430014 3.08542477 7.15781829 0.40588685 0.98671358 -0.20057624
O 5.25898713 6.15625561 4.29078278 -0.14961651 -1.52034891 0.12549309
O 17.84740732 -0.04392366 4.34033545 -0.36863568 0.64388269 0.77935463
O 5.23931197 3.10078176 4.25447910 0.21454035 1.50041803 0.75913763
O 17.83319042 3.16100899 4.28058945 1.19464291 -2.25933959 -0.07148083
O 3.90509885 6.12418891 10.03880092 -0.24777678 -0.12250338 0.89915302
O 16.34492473 -0.05985019 10.07471274 -0.41152743 -0.69561840 0.03844280
O 3.84116200 3.13768055 9.94959874 0.69462232 2.30253757 -0.35995928
O 16.55709060 3.09966284 9.99753831 -0.43625205 0.53223281 0.40483005
159
Lattice="24.923904 0.000000 0.000000 0.000000 6.170819 0.000000 -2.780306 0.000000 11.424934" Properties=species:S:1:pos:R:3:force:R:3 Energy=-623.120699 Virial="-56.937029 -0.767763 -1.439554 -0.767763 -48.194082 -1.543852 -1.439554 -1.543852 -40.015539" O_vac_type=O_O3 O_vac_tier=low O_coord=4 defect_vacancy pbc="T T T"
Ga 0.03488989 -0.03318237 4.50744795 0.37603749 0.22536837 0.31608016
Ga 12.34308177 6.02428413 4.43412841 0.21160695 -1.08035547 0.19219195
Ga 0.08889269 2.99211547 4.60346059 -0.40366757 -0.65169545 -0.45804199
Ga 12.51641096 3.17132524 4.50180254 -0.26903637 0.49733908 -0.24744972
Ga -1.38261573 6.27485665 10.19737918 -0.93039328 0.06545496 0.00617384
Ga 11.11603313 6.14706679 10.24688212 0.25548367 0.62458312 -1.01303650
Ga -1.35373295 3.08255612 10.16599979 0.40584641 -0.26621345 -0.20134838
Ga 11.13219815 3.25358723 10.29540953 1.39202027 -0.15947852 -0.16056627
Ga 10.96210131 0.02656766 1.33133916 -0.50961642 -1.49367768 -0.96395776
Ga 23.55553536 0.07630400 1.11064642 -0.22730010 1.12350788 -1.03717045
Ga 11.09204497 3.13219432 1.13813086 0.96585000 0.44541052 -0.14183428
Ga 23.45780881 3.05461247 1.20531418 0.56484659 -0.70218659 -0.18061781
Ga 9.55712963 6.14208274 6.80880064 0.15121256 -1.20155136 0.12789107
Ga 22.17171770 0.02135187 6.82240578 -0.70058911 -0.68555404 0.55140751
Ga 9.65800908 3.07430089 6.88879018 -1.07105861 0.42068200 -0.78307720
Ga 22.08073714 3.06483723 7.06852747 -0.21685070 -0.91817898 0.23614236
Ga 6.27641712 1.58300350 4.56522649 0.01459573 0.04284525 0.42152248
Ga 18.74987242 1.47286451 4.48297301 0.05441616 -0.48970874 0.32468730
Ga 6.13264787 4.69891204 4.45389341 0.20790853 0.85935063 -0.97215214
Ga 18.73941864 4.55378124 4.42836763 -0.28902650 -0.52620791 0.19543279
Ga 4.74550139 1.50329419 10.23721371 0.30019115 0.25442259 -0.35429215
Ga 17.37566317 1.50333882 10.27907145 0.63585712 1.87784171 0.44253459
Ga 4.93062004 4.70647569 10.25301721 0.38852071 1.40720720 0.17007458
Ga 17.26175553 4.57308953 10.35453202 -2.16008368 -0.21273058 0.37709256
Ga 4.86480235 1.48401352 1.13195900 -0.69408118 -0.90724841 -1.54564377
Ga 17.25537990 1.30623410 1.35843147 -1.06693928 -0.07442857 -0.14468412
Ga 4.80090226 4.70755602 1.15277562 -0.15199452 -0.21405893 1.37234022
Ga 17.24457211 4.70658203 1.17788641 1.14134252 -0.08502151 -1.32383346
Ga 3.41821445 1.46079713 6.85481641 0.25987771 -0.31337127 0.01102826
Ga 15.95041856 1.54056812 6.93011910 -0.02508239 -0.81597263 -0.26487165
Ga 3.24686076 4.67495744 6.81344626 -0.49153802 0.64316471 -1.57279391
Ga 15.95676177 4.83220949 6.93539574 0.86474194 0.03754449 -0.32609955
Ga 1.37916095 1.55959869 1.71640294 -0.23243792 1.97237878 0.37215434
Ga 13.93740632 1.52897223 1.93301004 0.23550045 0.05314726 0.04313478
Ga 1.60367805 4.69093456 1.82583176 -0.55112991 -0.20773002 -1.07262263
Ga 14.02621035 4.60860373 1.81455451 -0.32340983 0.42081704 0.62724734
Ga 0.01750691 1.59004691 7.44658433 -0.47365199 -0.15384097 -0.52840498
Ga 12.50338714 1.66456970 7.63340176 -0.29122846 -0.24406878 1.01796870
Ga 0.11583659 4.57096301 7.53274107 -1.21762335 -0.20779907 0.45617845
Ga 12.66046804 4.65312174 7.37501838 1.14246990 -0.28804424 -1.49316139
Ga 9.58177961 1.56500015 3.83776668 -0.82747633 -1.93379698 1.28699455
Ga 22.07424189 1.56265732 3.88433313 0.23435644 0.50447378 -0.31877862
Ga 9.47078976 4.70111914 3.88926198 -0.94771654 0.72514345 -0.41408115
Ga 22.02434319 4.61682345 3.97662568 -0.30949245 0.55598960 0.34030657
Ga 8.14604814 1.50564784 9.57186704 0.88281038 0.87969332 0.28418816
Ga 20.48619615 1.55019883 9.62575819 -0.70152679 0.31377477 -0.04673956
Ga 8.16392137 4.51553589 9.63003893 -0.38529959 -0.43636834 -0.09003522
Ga 20.47386189 4.62304611 9.60012822 -0.58773825 -0.62558182 1.71125406
Ga 7.64542982 -0.14361202 1.80864075 1.22826029 -0.16777199 0.82259391
Ga 20.30073510 -0.01410621 1.75381820 -1.14173142 0.56623672 -0.62731240
Ga 7.66777037 3.05301279 1.73830959 0.08269059 -0.20797674 1.04320908
Ga 20.18360809 3.10730944 1.87848962 0.40253452 0.52671888 -0.71640243
Ga 6.37697089 0.02221144 7.57642831 -0.85096289 -0.31544254 0.38697408
Ga 18.83913127 0.00566474 7.42343644 0.75007406 0.67982721 -0.31156633
Ga 6.43797807 2.93288299 7.56454086 -0.55175055 0.48719012 -1.94433967
Ga 18.83592797 3.22319533 7.48523782 0.52234801 0.19884153 -0.45349798
Ga 3.32094150 -0.09848695 3.87936074 -0.22025104 0.50461588 1.37373732
Ga 15.72455128 6.20152652 3.78731594 -0.37940529 -0.03448302 0.55061002
Ga 3.22812184 3.24268121 4.06417203 -0.91903425 0.04510041 -0.12171182
Ga 15.75322173 3.12664123 3.97556927 0.49244703 -0.01038387 2.02386483
Ga 1.93954651 -0.03733407 9.82731185 0.67605150 -0.44600044 -0.79913328
Ga 14.28045153 6.15505329 9.59999790 0.03012489 -0.62444902 0.35590902
Ga 1.79388785 3.04499105 9.65501690 0.80816975 -0.28224252 0.46712407
Ga 14.26722656 3.18215047 9.70883481 1.34822436 0.15703101 0.66989542
O 1.90139196 6.26215559 0.65881544 -0.64730607 -0.20197221 0.63959701
O 14.19898694 6.17530310 0.42081831 1.26984752 -0.51637108 -1.68720439
O 1.95405137 3.04981600 0.60990135 -0.32233195 -0.28354687 0.73426643
O 14.33753492 3.07339808 0.67361637 -0.13497096 0.05549773 -0.01408933
O 0.50207014 -0.12129669 6.27662249 -0.88363809 -0.37746515 -1.28011573
O 12.90307437 6.25652270 6.29881676 0.12621775 -0.12270330 -0.64698524
O 0.46473701 3.02375004 6.32665821 0.30273017 0.15110601 1.47468142
O 12.92264910 3.12423651 6.21128368 -0.59739206 -0.07973121 -0.23985575
O 9.23299630 0.17299766 4.98135891 -0.24334813 0.86540665 -0.44929494
O 21.61113970 0.01320793 5.13655593 0.00698513 -0.37004580 0.51552468
O 9.19987977 3.08426951 5.08944996 1.75672861 0.90097372 0.08660811
O 21.85572155 3.11116770 5.10987618 -1.39572232 0.69191529 -0.77502386
O 7.83276153 6.12451993 10.86929326 -0.09597828 -0.01751169 0.10164596
O 20.41911821 6.19070332 10.81332297 -0.44833751 1.78993065 -1.19739452
O 7.89825134 3.21265007 10.85440452 -0.20351844 -0.34837951 0.27732797
O 20.16702889 3.14209170 10.87284360 -0.14751525 0.96225496 -0.40840887
O 8.07456877 1.63473081 0.64145709 0.63220579 -0.43004286 0.90386105
O 20.56193759 1.64867986 0.65309492 0.54954090 0.87706796 -0.71289798
O 8.02281104 4.72250128 0.69471582 -0.51122561 0.40565156 1.04926086
O 20.62630404 4.51823897 0.62251290 -0.14261692 0.49955432 -1.03871843
O 6.73588226 1.53772861 6.52041494 0.15055628 1.61176975 1.00929671
O 19.28088186 1.37947245 6.38971831 -0.39954917 -0.62781633 -0.83075418
O 6.57961020 4.56127532 6.18881352 -0.98224226 0.79572509 -0.10652960
O 19.17714859 4.63007262 6.33821282 0.42316394 0.40282376 0.96393524
O 2.85584637 1.63090696 5.31220939 0.48794683 0.43809882 1.54715256
O 15.45231247 1.56162508 5.13659833 -1.33852013 0.06025236 0.71291242
O 2.93026747 4.66236489 5.10986036 1.26085534 -1.01187587 0.43589802
O 15.53445393 4.75286567 5.04817130 0.18682341 -1.05357285 -1.14516669
O 1.61300561 1.53481732 10.76817969 -0.01410089 -1.67857958 0.41645337
O 14.10331607 1.56741610 11.03158582 0.24406758 -1.04594275 0.50671449
O 1.57337019 4.57569087 10.79920232 -1.04078084 1.51478338 1.31866089
O 14.12736034 4.60389807 10.93282341 0.72520673 0.61921378 0.22952197
O 1.31771238 6.21091212 3.25652600 1.00769033 0.13637372 -0.48841010
O 13.85293579 0.05095233 3.21724851 0.46199505 0.48180466 -0.14068204
O 1.29083867 3.06171481 3.20323270 -0.14663982 0.16493632 0.87638349
O 13.86572219 3.05220170 3.41013263 -0.12515794 -1.21646413 -0.08285947
O -0.09697170 -0.02754301 9.01362390 -0.50783071 0.06668351 -1.22765124
O 12.39952709 0.04844599 8.97509730 -0.40396841 -0.17795102 -0.56553575
O -0.02471878 2.97256719 8.97854435 0.32239556 0.17427597 1.63191576
O 12.42238122 3.11073536 8.98552509 -0.57541078 -1.28666771 -0.94694932
O 9.58233188 6.21523497 2.51364370 1.24398474 1.44592607 -0.03141094
O 22.24224543 6.29022054 2.50957390 -0.16939418 -0.26297508 -1.19356969
O 9.73676523 3.11405937 2.43562567 -0.22657619 0.92416504 -1.67754061
O 22.10470804 3.03635561 2.53453054 1.34888148 -0.27863926 -0.40863105
O 8.44669505 0.09669445 8.16162688 0.38353700 0.41014937 0.74232188
O 20.72868016 6.12528612 8.10948778 -0.44734249 0.78838769 -0.81395887
O 8.24202232 3.07123187 8.21384410 -0.09888883 0.30096918 1.35902777
O 20.86291155 3.22922565 8.23154913 0.48471919 0.12439776 0.71271321
O 7.61406817 1.55585331 3.30943165 0.11258995 0.29104093 -1.18822845
O 20.07478968 1.44810255 3.35867168 0.34641610 -0.46392271 -1.95095135
O 7.63813950 4.63224681 3.13724751 -0.10766753 -0.70166251 -0.46921265
O 20.21445407 4.73777483 3.27029452 0.25983260 0.15084783 0.03757978
O 6.27708028 1.59867574 8.90230085 1.18581010 -0.63915778 0.64933629
O 18.72737136 1.62393747 8.97557309 -0.36681713 0.61871756 0.86076228
O 6.19549092 4.70061163 8.92784315 -0.56016193 0.11665020 -1.02782888
O 18.66459610 4.66909384 8.82198086 -0.96717910 1.95206125 -0.69839187
O 15.90382971 1.42764249 2.52397255 -1.01832851 0.33831758 0.18905492
O 3.50667368 4.69102538 2.40229845 0.93111592 -0.36567073 -0.13210264
O 15.87174337 4.57028965 2.57738981 -0.20836030 1.23961946 0.56981288
O 2.05778049 1.55238340 8.09164714 -0.13888714 0.75188512 1.25171917
O 14.50446222 1.47798690 8.19271800 0.07343133 0.42494296 1.69591058
O 2.14304718 4.67920858 8.09187657 1.07918172 -0.29380708 0.06337885
O 14.64362756 4.59842719 8.23985893 -0.48173877 -1.97004933 -0.24605869
O 12.06165895 1.36888444 1.52474512 0.59715923 -0.55205551 -0.08134701
O 24.49136027 1.50929016 1.34874033 -0.19377895 0.39616479 -0.31847947
O 12.07678798 4.65046067 1.37482307 0.95851034 0.10033764 1.20871991
O 24.43922818 4.64455810 1.60269688 -0.43286682 -0.75175654 0.19876972
O 10.59502706 1.55798758 7.20065684 0.42091951 -0.86393875 -1.09384617
O 23.03656921 1.51986389 7.19125849 0.31506007 -0.12530177 -0.33971318
O 10.79284793 4.60857553 7.26140043 -1.51284994 0.78876545 0.74514459
O 23.20547110 4.51505788 7.11385595 -0.38118071 0.44909078 0.28839743
O -0.90773659 1.57960263 4.32284171 -0.20837190 -1.66681855 0.09402465
O 11.54518396 1.58944786 4.31193352 0.06332901 0.32461817 -0.17175672
O -1.03202014 4.71541995 4.26005245 0.00249978 -0.41615734 0.13702557
O 11.46861441 4.58149470 4.23828601 -0.63975289 -1.79530032 0.08922603
O -2.31511329 1.62940393 9.95975495 -1.50168907 -0.66580548 -0.41936311
O 10.12540943 1.65461338 9.82327538 1.65314425 -0.48516248 1.59599688
O -2.44206215 4.59069950 10.02845236 -1.14915024 0.69695611 -0.93643489
O 10.04023795 4.64373639 10.10504322 -0.65149392 -0.66376317 -0.90874859
O 5.85776862 6.28365628 1.38048280 -0.18521333 1.07650545 0.45496919
O 18.38369322 0.05665222 1.45202868 0.63633826 -0.55236706 0.91253628
O 5.90604481 3.09422459 1.42642772 0.48402225 0.13287171 1.28428392
O 18.16104484 3.07999081 1.44873482 0.07926143 -0.05337143 -1.11619934
O 4.54750868 6.15008616 7.10417633 0.61692757 0.11096599 -0.36143087
O 16.85896368 0.04082247 7.08348967 -0.29295497 -1.01753144 -0.55483086
O 4.22598799 2.94902776 6.98982460 0.42514296 0.19222480 -0.10775316
O 16.91181329 3.03822804 7.19355880 1.36550965 -0.30635367 2.12736147
O 5.19464250 6.06854520 4.27991175 0.99177039 0.24547428 -1.09061085
O 17.78665241 0.05375324 4.37727981 -0.29302430 0.42057953 -1.64877007
O 5.05062320 3.06712918 4.19666689 0.27141263 0.30289732 0.85825758
O 17.74640138 3.21839072 4.18753457 0.06388853 -1.89886115 0.06978840
O 3.78271149 6.22903065 9.89571099 0.41234515 -0.15800964 1.89928026
O 16.30825276 -0.00344417 10.04618625 0.32027784 0.17845848 -0.86473726
O 3.86060128 3.07691211 9.82671265 -0.00419755 -0.16929563 0.28878732
O 16.38877689 3.02464842 9.83834025 -0.40329971 -1.12779596 0.07194361
159
Lattice="24.738371 0.000000 0.000000 0.000000 6.124883 0.000000 -2.759610 0.000000 11.339887" Properties=species:S:1:pos:R:3:force:R:3 Energy=-623.002675 Virial="-53.933219 1.652022 -2.620648 1.652022 -46.987393 -4.889931 -2.620648 -4.889931 -46.420593" O_vac_type=O_O3 O_vac_tier=low O_coord=4 defect_vacancy pbc="T T T"
Ga -0.06435620 -0.01338048 4.49744570 0.03223741 -0.51674741 0.37193736
Ga 12.40288705 6.06607465 4.43997477 0.26171901 -1.85656196 0.35876054
Ga -0.02476050 3.13807827 4.48903971 0.86212959 -2.14289964 -0.51767658
Ga 12.27388929 3.11055537 4.55132763 -0.55082246 -0.91252826 0.53615783
Ga -1.26987471 6.09245684 10.17985515 0.00679670 0.38204979 -0.70534132
Ga 11.11329004 6.14715148 10.17850124 -0.33294890 -0.32948417 -0.89764528
Ga -1.38272485 3.06112887 10.14120870 -0.61183280 -1.01645755 -0.00526888
Ga 11.05718398 3.10342779 10.04972635 -0.67725846 0.90260062 0.70110014
Ga 10.88642921 -0.09260691 1.17039323 0.23650264 1.22380989 -1.69563975
Ga 23.41105593 0.09384927 1.22962647 1.36429145 1.74841446 0.14300840
Ga 10.97922841 3.07443444 1.13782542 -0.30225026 1.15133500 -1.31778721
Ga 23.41024809 2.99736217 1.16064797 0.07849165 0.57211046 -1.48060869
Ga 9.53055269 6.19296618 6.89699740 -0.62866805 -0.89633759 0.55025198
Ga 21.96382505 -0.09464436 6.77913751 0.61573933 -0.65032193 0.01502284
Ga 9.55443037 3.06768848 6.85164193 0.98550323 -0.34703587 -0.84145847
Ga 22.01730613 3.11213963 6.93703569 -0.17186230 -0.49229061 0.36112960
Ga 6.19381741 1.60411578 4.57519320 0.47886077 0.47809605 -1.09879262
Ga 18.65676705 1.59218616 4.51441674 1.89142716 0.55577665 1.94746732
Ga 6.21574631 4.66427320 4.47182930 -0.25986745 1.07180789 -1.50293942
Ga 18.55927925 4.66674853 4.48684298 0.60233795 -0.98995401 0.19647055
Ga 4.80610731 1.53765318 10.14101911 -1.05260163 -1.23761779 0.86989854
Ga 17.11480750 1.43911434 10.15732710 1.20048821 0.08027396 1.09912558
Ga 4.86108862 4.59214545 10.17380413 -0.58387383 0.64538534 0.01428207
Ga 17.13962945 4.52678577 10.26418642 1.41787632 -0.51948778 0.78544126
Ga 4.69816008 1.39779727 1.22108250 -0.20187958 1.83775889 0.55637733
Ga 17.08844019 1.55802439 1.18677367 -0.65787112 0.22578180 -0.87129975
Ga 4.78657239 4.57438271 1.14776433 0.67817751 -1.00650002 -0.01623232
Ga 17.06238361 4.60715851 1.18486385 -0.69468526 0.36263167 0.40062987
Ga 3.42435275 1.61179072 6.81991421 0.88385681 -1.87672357 0.32985436
Ga 15.80487998 1.57344472 6.82983631 0.30637247 0.72040820 0.69677482
Ga 3.37230685 4.57917126 6.91465018 0.08775318 0.41274935 -0.93175868
Ga 15.86948674 4.54403632 6.81435613 -0.48052678 -0.23372452 -0.26048901
Ga 1.53213966 1.59268239 1.78496152 -0.70056677 0.91840741 0.92965593
Ga 13.89821575 1.46562670 1.75800530 0.27517387 -0.01438173 0.63866499
Ga 1.39876411 4.58164425 1.79155928 0.04303591 -0.17143589 -0.97103969
Ga 13.89012087 4.63412285 1.79706693 0.05724312 -0.50690612 0.26564342
Ga 0.15832228 1.53860148 7.44128771 -0.38619377 -0.33230369 -0.13308472
Ga 12.50897156 1.49380517 7.47476911 -1.02226689 -1.11744090 0.60531747
Ga 0.12332153 4.59332155 7.35088988 -0.42235831 -0.35968332 -0.26557446
Ga 12.47537704 4.53768013 7.43334805 -0.76846828 -1.00265197 -0.72212259
Ga 9.45647723 1.50899558 3.96303773 -0.86115628 -0.52099471 -0.17597313
Ga 21.90357355 1.56339987 3.86175450 0.53028461 0.03013334 0.13775217
Ga 9.45787106 4.55271984 4.04838420 0.12234087 -0.64392156 0.42205886
Ga 21.75401228 4.57856328 3.85444547 0.86815292 1.11467796 -1.06600712
Ga 8.20662464 1.59837620 9.62544869 -0.87215499 1.02817657 -1.58391352
Ga 20.46606464 1.46315017 9.52519204 -0.05900620 0.05930192 0.65825340
Ga 8.11454812 4.56540030 9.54074039 -0.36779523 0.98351802 -0.96959353
Ga 20.40786029 4.60876576 9.61204492 0.17666113 1.13966536 -0.92713259
Ga 7.76599684 0.02287767 1.65133134 0.96068499 -0.96240463 0.10613778
Ga 19.99856563 0.13089534 1.76964514 0.69637784 0.04605811 0.33862049
Ga 7.75973913 3.08331984 1.75392039 0.42298117 -0.19278527 -0.73645465
Ga 20.08494604 3.17975151 1.82120899 -0.03691005 -0.27458250 1.13899767
Ga 6.31795599 0.11707485 7.50113195 -1.62780448 1.07587294 -0.22052382
Ga 18.74798172 -0.05515875 7.41415429 0.79608080 -0.70484951 0.86370747
Ga 6.37808332 3.02193900 7.46872865 0.63764424 -0.44939106 0.50655150
Ga 18.74883753 3.05532360 7.47799447 0.41417541 -1.12915929 -0.77571227
Ga 3.30073350 0.00203948 3.91913069 0.27989399 -0.89541508 -0.42521971
Ga 15.64709550 6.05642647 3.95571146 -1.27990968 1.20174229 0.80516426
Ga 3.28937993 3.23598745 3.80396861 -0.54924002 -1.10472175 0.71498765
Ga 15.59615898 3.06985892 3.84359627 0.98200996 -0.19538279 -0.41213389
Ga 1.84667935 0.14484042 9.53622518 -0.91615892 0.53416978 0.62326215
Ga 14.33661937 6.12823848 9.63312263 0.70201602 -0.52810120 0.31241936
Ga 1.79065581 3.08404516 9.54098592 -0.13852487 0.33340047 1.04577587
Ga 14.22419838 3.09450132 9.61863968 -0.67608521 -0.98257191 0.75002096
O 1.82734012 6.23209212 0.60937012 -0.53244094 -1.30345529 0.38394146
O 14.26216225 6.13979552 0.70437229 0.40826796 -0.19077494 1.36778592
O 1.93544338 3.04625872 0.65565427 1.31622103 -0.57253708 0.08271283
O 14.22404657 3.06298746 0.72512017 -1.44331613 0.86267559 0.49029748
O 0.41734921 0.01724113 6.38887893 0.01769005 0.81390799 1.03563960
O 12.74109794 6.14707529 6.17988076 0.55756059 0.68758105 0.89142527
O 0.40853998 3.04836902 6.26550317 -0.98321152 -1.15403803 -0.17500957
O 12.90959592 2.98160792 6.30587261 -0.07630700 -0.03416216 -0.54829206
O 9.18789717 0.03622446 5.06436324 -0.15311131 -0.68056253 0.90527160
O 21.56328381 -0.07328982 5.02308886 0.33131924 -0.61209719 -0.48814677
O 9.16405078 2.98735222 5.12530440 -0.50218038 -0.35489958 -0.59794166
O 21.51286864 3.06864208 5.09427959 -1.24335310 -0.34883052 -0.68474564
O 7.69351917 6.19476375 10.71044730 -1.36514493 0.26288942 -0.86289091
O 20.11703581 6.06735937 10.68330707 0.68173199 -0.03403149 -2.21610887
O 7.64032144 3.02366008 10.72403221 -0.30057570 -1.05759942 -0.45880297
O 20.09128938 2.98119717 10.73819219 1.06483880 0.33240158 0.54088960
O 8.08827761 1.41873060 0.75139896 0.48854241 0.67645195 0.46434999
O 20.41290181 1.54441433 0.62107223 0.07937366 -0.59588753 0.28461729
O 8.11125618 4.56576834 0.62164601 -0.07154037 -0.10521932 -1.34010484
O 20.44851485 4.55930216 0.71438100 0.67784573 -2.10545884 0.44531653
O 6.57735150 1.50986302 6.26683250 0.24798657 0.05168631 -1.74894904
O 19.05637278 1.48050918 6.19864636 -1.05892980 -1.08073995 -0.36818196
O 6.65236674 4.60305775 6.24007521 -0.19667131 -0.27129936 -0.33988319
O 19.08753571 4.65975629 6.27073678 -1.55792995 1.36159805 0.90314288
O 2.84914624 1.49409463 5.06371975 0.32888033 0.83502291 -0.18679031
O 15.31328562 1.43475540 5.14658135 0.57777993 -1.08852404 -0.06750351
O 2.88047545 4.62379946 5.05656310 -0.28987157 -0.04454153 -0.27336918
O 15.32166280 4.51936362 5.11610470 -0.45065248 -0.84220686 0.30791272
O 1.64150655 1.56212410 10.78911054 0.38282135 0.09321542 0.09281653
O 13.93675506 1.55116322 10.71739853 0.63531113 0.16373124 -0.22865493
O 1.44737930 4.47917351 10.65923224 0.72097050 -0.29091162 0.58985692
O 13.83606898 4.60648337 10.73956028 0.40382164 1.75596511 0.25013821
O 1.33615308 6.06293124 3.20609537 0.78437747 1.80822405 0.98136308
O 13.75661880 0.05236846 3.22523240 0.13213995 0.67975624 -0.12025847
O 1.32946701 3.08349240 3.22112905 -0.44012682 -0.07923998 -0.96951651
O 13.78821856 3.04271405 3.15151030 0.84304806 -0.03907539 -0.96684650
O 0.02921997 0.04816501 8.89283879 0.36022444 0.79743832 -0.18054169
O 12.32436637 -0.04470657 8.82298306 -1.81591416 0.54992018 0.64044668
O 0.02620157 3.04096688 8.88277009 -0.48908158 0.20186340 0.59432588
O 12.40290871 3.10662861 8.88202083 1.14989614 0.28928322 -1.48426902
O 9.64746478 6.14565941 2.42552961 0.13651351 0.22271277 0.13863704
O 21.98345751 6.12704449 2.40949149 -0.85040168 0.20654384 1.01724104
O 9.61372681 3.12379953 2.54135696 -0.08305634 -0.52277089 1.35977434
O 21.93151166 2.96407781 2.41139741 0.94608466 -0.24686495 -0.36616653
O 8.21178295 -0.02616516 8.12971448 1.17747142 0.36595767 1.01152571
O 20.59837522 6.23708251 8.14975150 -0.01886752 0.90349454 -0.37351369
O 8.18126161 3.03424156 8.15751320 0.53232308 0.22415258 -0.97798185
O 20.61455912 3.13395937 8.14242211 -0.32429621 -0.45427369 0.73333080
O 19.95725356 1.48622106 3.17028457 -0.18744135 -0.33690415 -0.32858677
O 7.52960273 4.51946672 3.06932148 -0.56590487 -0.38648779 -1.20735242
O 19.87168249 4.60561446 3.22219228 -0.55219765 -0.12309920 -0.36829964
O 6.24415002 1.57862974 8.85063643 0.55259361 0.55251402 0.33223774
O 18.57396179 1.55912976 8.92054028 -0.19166106 -0.41057520 -0.89987801
O 6.25039799 4.55835588 8.86032408 0.33800457 -0.65153108 -0.23455783
O 18.50757446 4.61367491 8.94429693 -0.09885176 -1.16612855 2.14753056
O 3.43209458 1.56328032 2.40737514 -0.40348726 -0.76249915 -0.13403099
O 15.75128036 1.50369284 2.50284411 -1.45539670 1.02136136 0.78554066
O 3.46088504 4.51364849 2.44103515 0.97366943 1.08971298 0.92017436
O 15.78920583 4.56619396 2.55715807 0.64338283 0.90207956 0.32126715
O 2.05894575 1.55331360 8.15767167 1.08049446 0.77423723 -0.25389864
O 14.44789422 1.49522112 8.16281040 -0.07349981 -0.53449551 0.24990521
O 2.10937657 4.50451295 8.08374618 0.84992101 0.94495144 0.37097336
O 14.42887061 4.57849089 8.15450360 0.67035241 -0.86326596 -0.59812560
O 11.92480894 1.63202654 1.45160392 0.12069419 0.91582062 0.54160041
O 24.29671371 1.49814403 1.55965743 -0.50147561 0.56008201 -0.83052744
O 11.98497059 4.61017679 1.55415603 -0.20191281 -0.22911761 -0.89870795
O 24.41652345 4.54823637 1.43928529 -0.15108560 0.32738839 0.05651083
O 10.52293170 1.65796137 7.14957752 -1.15740312 1.69736976 0.27940615
O 22.83531742 1.63532915 7.14566498 -1.49866447 -0.15284296 -0.26718952
O 10.56518728 4.64918248 7.20265665 -0.10819146 -0.62211387 -1.15376574
O 22.91302501 4.55614092 7.13372000 -0.47426414 1.17102230 0.06588692
O -1.02706286 1.49878130 4.22165586 0.34309083 0.30621419 0.08949719
O 11.36659862 1.56926323 4.26718618 -0.99742365 -0.32911232 0.30791572
O -0.93204608 4.57440366 4.11788071 0.25992013 -0.78968433 0.49279357
O 11.37468903 4.63953419 4.22635843 -0.51820514 -0.61790582 -0.71912728
O -2.25223149 1.47402875 9.88345808 0.25188454 1.23064184 -0.91024991
O 10.04934647 1.55719892 10.03018500 -0.18242241 0.48586820 -0.64604049
O -2.34851514 4.51991466 9.99799984 0.11934306 0.13209876 1.89338449
O 9.94684125 4.47443113 9.84357132 0.28168909 1.28494241 -0.46057447
O 5.77390581 6.16456530 1.43820297 0.41289451 0.13102192 -0.49916150
O 18.15753979 0.11815098 1.45064613 -0.02321068 1.80896719 -0.04075753
O 5.84642287 3.18389193 1.52770542 -0.20512326 -0.46828407 0.84990917
O 18.10222280 3.12690295 1.41594242 -0.96404128 0.34681510 0.72392209
O 4.34694004 6.04378139 7.11678425 0.09411940 -0.58344469 -0.16599083
O 16.73563284 0.01743826 7.06419414 0.53397632 -0.10154607 0.06597425
O 4.40869680 3.01579503 7.07301325 -0.52899147 0.65231849 0.85025949
O 16.85914907 3.06247303 7.12941834 0.21342385 -0.64037678 -0.37794443
O 5.10907091 6.11806846 4.23222179 0.70462177 0.23215826 1.64994325
O 17.42174534 -0.00749853 4.08098959 0.70384463 -0.13859203 0.60905889
O 5.20938416 3.15210387 4.19312547 -0.65035388 0.46631899 -0.44612029
O 17.51587587 2.99708500 4.18895924 -0.52909546 0.39139882 -1.39106655
O 3.83501162 6.12553211 9.86945699 -0.03686333 -1.04058604 -0.18188892
O 16.21056353 0.01375509 9.90026939 0.50678605 -0.77669411 -0.48587760
O 3.74115935 3.05443319 9.78246389 0.81996648 -1.04289203 -0.10862907
O 16.21323427 3.06599705 10.00365933 -1.01733518 1.58404760 1.24711008
159
Lattice="24.853102 0.000000 0.000000 0.000000 6.153289 0.000000 -2.772408 0.000000 11.392479" Properties=species:S:1:pos:R:3:force:R:3 Energy=-623.295741 Virial="-56.563567 1.198696 -0.460800 1.198696 -44.603609 -3.697322 -0.460800 -3.697322 -39.524114" O_vac_type=O_O3 O_vac_tier=low O_coord=4 defect_vacancy pbc="T T T"
Ga 0.09743691 0.00233699 4.54363289 0.24519327 -0.14754697 1.16570203
Ga 12.48090223 6.18191411 4.55406813 0.19572123 0.23335018 0.13231098
Ga 0.12999380 2.99294571 4.53672243 -0.35889339 0.73156862 0.54217671
Ga 12.39961906 3.15987097 4.57784654 -0.38879844 -0.59032404 -0.14795410
Ga -1.43266738 6.24584764 10.15788532 -0.53067411 -0.69512434 -0.74801699
Ga 11.02971286 6.10767264 10.20301667 0.42707166 -0.10768441 0.26000000
Ga -1.34934536 3.09175368 10.16419728 -0.43319929 0.98052104 0.76297297
Ga 10.99017330 3.09988134 10.25364581 0.33592115 -0.16619321 1.12039229
Ga 11.10615165 -0.00056666 1.12577836 0.81736836 0.15722418 0.83574476
Ga 23.45253021 0.01970663 1.22965051 -0.43214458 0.82392561 0.16941408
Ga 11.03432037 3.14902877 1.08510524 0.07860049 -0.12980387 0.47210739
Ga 23.54734832 3.09481452 1.18814023 0.14305611 -0.98241967 0.77161437
Ga 9.66309713 6.19783090 6.86907243 -0.99672689 -1.51551597 -0.25217517
Ga 21.98204856 -0.00388279 6.87183728 0.68302641 0.56373559 -0.39046732
Ga 9.68426695 3.00654926 6.91542152 0.50287635 -0.66772228 0.64348156
Ga 21.98670983 3.07740977 6.88237837 -0.48289203 -0.56095238 0.27261455
Ga 6.26361012 1.50546032 4.64354906 0.13646388 -1.29219185 0.43295605
Ga 18.69105439 1.53660273 4.58548451 -0.38713881 0.88116321 0.15355468
Ga 6.11954900 4.53323698 4.57523361 0.48534321 1.59831795 -0.73481677
Ga 18.71687680 4.71411285 4.52906460 -0.47033414 0.93311334 -0.28807238
Ga 4.84134383 1.39450068 10.30260957 -1.36315754 0.90888274 -1.14534645
Ga 17.30511544 1.50378461 10.21392386 -0.41542643 -1.90629482 -0.12676424
Ga 4.81872241 4.66360967 10.29030082 0.86549005 -0.66830869 -1.42564725
Ga 17.29394198 4.55591380 10.21974203 0.43628730 0.78799632 -0.44716004
Ga 4.83184227 1.49277411 1.07213197 0.07987652 -0.20604268 0.36613698
Ga 17.32162664 1.52787072 1.15563001 0.51744796 -0.54167271 1.12815080
Ga 4.83970318 4.58493587 1.18294688 0.74948046 0.03063900 0.14138305
Ga 17.32912803 4.62428391 1.13168422 0.87302535 0.47022369 -0.25419143
Ga 3.38702811 1.49444062 6.80272799 1.07677260 0.36812954 -1.10246077
Ga 15.83061142 1.45502288 6.86143250 0.12548486 -1.22235644 0.23882218
Ga 3.41345455 4.61529123 6.94593662 -1.98356973 -0.44284873 0.65980399
Ga 15.90701575 4.54088104 6.90861143 0.19411743 -0.79982062 0.14848371
Ga 1.50655476 1.55481638 1.75018069 0.33073095 0.38268477 -0.19671116
Ga 13.92575728 1.46117497 1.81287386 -1.19624970 -0.02135075 0.19993193
Ga 1.59770708 4.66427852 1.74332748 0.38648322 0.89062647 0.51937344
Ga 13.96177289 4.62288561 1.79072723 0.04917956 0.19942463 0.01309628
Ga 0.16973669 1.59305084 7.50917541 -0.12764698 0.30126253 1.18102675
Ga 12.59743192 1.49972793 7.43910387 -1.28215657 1.09312610 -0.59086991
Ga 0.17548248 4.55308490 7.46732491 -0.67073992 1.47116052 0.18520870
Ga 12.55010343 4.51883512 7.52640637 -0.08437455 0.61709483 -0.69255483
Ga 9.46720968 1.42374473 3.91716792 0.19413360 0.59686008 0.00287006
Ga 21.93024284 1.63004835 3.90266088 -0.25891510 -0.11196770 -1.16857674
Ga 9.54474255 4.56995365 3.86995042 0.37337949 0.36601215 1.09533830
Ga 21.88790136 4.69154986 3.84365312 0.67843465 -0.90483817 -0.35673931
Ga 8.20986353 1.61962724 9.57667468 -1.51555560 -0.25102034 0.75483787
Ga 20.49438142 1.60912947 9.67002566 0.54516001 -1.29136817 0.09280835
Ga 8.09197578 4.62566534 9.62487523 0.06223434 -1.11082618 -0.43708094
Ga 20.64821206 4.68635474 9.67545223 0.93486142 -0.97236052 -0.05578059
Ga 7.77744853 -0.00089434 1.76467484 0.20999297 0.41108370 0.48389260
Ga 20.21890678 0.01135074 1.83485337 -1.28137385 -0.06774350 -1.07200332
Ga 7.74446601 3.09412440 1.75050083 0.29054061 0.75142906 -1.68967202
Ga 20.14373339 3.12761715 1.76405032 0.59600901 0.40905039 0.57418118
Ga 6.38522389 -0.08506140 7.39023840 0.02164808 0.09575731 -0.04109105
Ga 18.77215843 -0.01944560 7.48535952 0.16116803 -0.46719898 0.93170821
Ga 6.35102953 3.11000519 7.38397581 -1.01328813 0.17776822 -0.41394279
Ga 18.77262273 3.12345344 7.50916144 0.43813357 -0.20763390 0.85511772
Ga 3.21281605 -0.02659281 3.86533088 1.10678546 0.29859256 0.50903824
Ga 15.63582750 6.03852001 3.88368360 0.26606005 0.27966995 -0.76683501
Ga 3.32865938 3.14512549 3.96797934 -0.69955515 0.35513691 -0.67713972
Ga 15.73634948 2.98630316 3.92179829 0.72496966 0.69253817 -0.42081086
Ga 1.87616389 0.08803309 9.52538582 -0.82105025 -0.27063824 -0.74742148
Ga 14.29497695 6.14058604 9.51994139 0.03374232 -0.28675231 0.76952449
Ga 1.87262945 3.11728807 9.48357181 -0.33037475 -0.76419033 0.50578864
Ga 14.33663324 3.11690019 9.50151228 0.40977710 0.66892443 -1.60781154
O 1.78233157 6.14044869 0.67683895 -1.30632716 0.61603919 0.96163072
O 14.40863743 6.18005893 0.55381766 0.24657304 0.55940763 -0.60320597
O 1.95050141 3.19776422 0.59743221 1.04290748 0.25254417 0.84432356
O 14.36321079 3.03315951 0.65632609 -0.29905678 -0.81250445 0.98058749
O 0.53228209 -0.04740572 6.35085656 0.23249560 0.82089345 0.45153340
O 12.90615975 6.15320919 6.22222541 0.52483742 -0.27902181 0.11985430
O 0.52851507 3.09693745 6.28403791 1.72156269 0.55895058 1.27924899
O 12.91535478 3.12849633 6.20934739 -1.07938471 -1.29262432 0.53571549
O 9.08583182 0.00001262 5.03224287 -1.49498197 -1.96612467 -0.81763617
O 21.66102171 -0.05700291 5.11076065 0.42500213 -0.22531049 0.50115091
O 9.08399870 3.19553488 5.05404802 1.45188066 -0.05441656 0.93813307
O 21.65754364 3.08847876 5.11752557 -1.51699999 0.27657955 -0.86393334
O 7.67538617 6.21602133 10.77025464 -1.13200428 0.04968561 0.54219371
O 20.11152374 6.08794645 10.78447028 0.21098147 -1.21013130 -0.06811988
O 7.87399136 3.01693986 10.77961724 0.74237874 0.65923077 0.94477951
O 20.16118026 3.04224948 10.74050860 -0.37157434 0.52634292 -1.51302278
O 8.08028421 1.57183740 0.64399091 -1.20409427 0.58224311 0.87458992
O 20.51805632 1.50534162 0.55620024 -0.56882480 0.34710682 0.17599195
O 8.07327175 4.67232523 0.56032154 0.36295871 -0.45963640 -0.90264508
O 20.51917080 4.50891270 0.64111313 0.45334054 -0.86243660 0.01297335
O 6.76997422 1.58893283 6.35543347 0.12878794 0.19811640 0.23572398
O 19.12912491 1.54258440 6.24050487 -0.73024498 0.73336431 0.23008932
O 6.71785602 4.72659747 6.36591395 1.61870406 -0.11229879 -0.14935575
O 19.14756923 4.67238003 6.33510564 -0.62329069 1.23044816 -0.13878715
O 2.97105119 1.54821246 5.08614918 -0.89323372 -0.01811840 0.69790858
O 15.40621861 1.55172509 5.05323893 -0.86335701 -0.88425252 -0.84984153
O 2.96350322 4.67920237 5.03497146 0.43419134 1.23230061 -2.73227152
O 15.41895338 4.61490665 4.95905700 0.23154049 1.00320198 -0.46284497
O 1.60075255 1.51911205 10.81138456 -0.78673102 -1.74585279 0.31664172
O 14.05274558 1.47235506 10.69433630 0.01942559 -0.18177355 -0.26018975
O 1.63373066 4.58806969 10.73482723 1.93677999 0.31797590 0.66325075
O 14.07296551 4.64482636 10.74494447 0.04024547 -0.31256699 0.19127939
O 1.35115092 6.02906889 3.22566166 0.31206007 -0.40995228 -0.87707214
O 13.82973799 -0.00807011 3.35093642 0.02290089 1.08958236 -0.66673051
O 1.42702455 3.08571012 3.28695696 0.01999213 0.30601957 -0.65470985
O 13.72625277 3.03848082 3.13672814 -0.28861188 1.29637709 -0.49421052
O 0.07633975 -0.01403098 8.92396341 0.36957079 -0.39812653 0.41641633
O 12.52197071 0.05461651 8.88809471 -0.89655588 -0.50378513 -0.30491954
O -0.00226402 3.11657133 8.84330663 -0.34386023 0.42061305 0.26399996
O 12.32801414 3.05693612 8.95453267 0.50477468 0.81277846 0.37650647
O 9.66131690 6.11683474 2.45147751 0.66800128 -0.41698091 0.01460603
O 22.04863480 6.20012367 2.54722836 -1.47266701 0.90157054 -1.14572589
O 9.53865412 3.09888826 2.44916577 -0.05619822 0.47412829 -0.27169457
O 22.10632201 3.13538134 2.53638536 -0.67934527 1.27115480 -0.78152177
O 8.25130159 0.06781982 8.16638255 -1.49673179 -1.49606082 -0.01907791
O 20.68259841 6.10300667 8.19301265 -0.10986449 -1.15143434 0.09528813
O 8.14728038 3.05551179 8.14313748 -0.11668059 0.39010329 -0.98426464
O 20.69841232 3.08625634 8.14431664 -0.12346772 -1.04776942 0.13573774
O 7.59807730 1.53690369 3.24216782 0.80853539 0.42422893 -0.16112602
O 20.02708751 1.46569683 3.21882414 1.17880184 -0.91074725 0.93040109
O 7.56499610 4.63221715 3.15544985 1.07194827 0.73588992 0.14337511
O 19.97674121 4.56495390 3.17876735 -0.10512078 0.39615771 -0.61917106
O 18.57733652 1.46120816 8.88230183 1.19616708 -0.09944552 -0.39347359
O 6.31004811 4.68599804 8.87534022 -0.54606656 -0.02384730 -0.73373973
O 18.58778319 4.63535527 8.96240968 -1.44671638 0.16776712 -0.14844910
O 3.35685560 1.53302651 2.37704717 0.78674774 1.31019026 -0.01664411
O 15.81142299 1.54470120 2.45364879 2.22549629 0.58643800 0.17648457
O 3.43107142 4.66389226 2.38313694 0.12290052 -0.40590115 -0.69334755
O 15.95007833 4.62924267 2.46668968 0.69316131 -0.03726518 0.64386321
O 2.15636304 1.66299882 8.14476677 -0.08545517 1.44251726 0.79152042
O 14.50357705 1.46187348 8.11609780 0.17776639 -0.11557790 0.46671411
O 2.02241413 4.59952516 8.18309931 -0.37601204 0.48983909 -0.31606078
O 14.49835012 4.61115776 8.18708411 0.16466389 -1.46767111 0.99998056
O 11.99113040 1.58613227 1.42976468 0.12880119 0.00090554 -0.08431928
O 24.46212598 1.57822331 1.61339418 0.15927792 -0.78626081 -0.10446317
O 12.00366264 4.58061832 1.40065612 -0.42120298 -0.76252358 -0.95106448
O 24.54869667 4.63729239 1.55524128 0.84801483 -0.24830657 0.48178023
O 10.56550809 1.55107193 7.08543182 -0.31315087 -0.05051590 0.49562635
O 22.97565905 1.56369059 7.13018882 -0.14157085 -1.80677930 -1.08682967
O 10.56337858 4.56575659 7.19118321 -0.68403303 0.08029517 0.47314586
O 23.04005031 4.60550747 7.16487303 -0.83782821 0.37584145 -0.37265807
O -0.92363833 1.40842510 4.11107812 0.89733952 -0.05160966 -0.35476592
O 11.43753882 1.52710605 4.33362798 -0.02630104 -0.91696962 -0.61045656
O -0.96498375 4.61744526 4.16775252 0.10956046 0.60968196 -0.74317983
O 11.51887197 4.66313229 4.20603116 -1.02773457 0.50252755 -0.39877232
O -2.37688426 1.62017655 9.90581283 -0.75077075 -0.99193686 0.55534041
O 10.07864365 1.51585324 9.87418471 -0.20496211 0.99355408 -0.97642893
O -2.37789763 4.62246410 9.86555220 0.43189431 -2.25150091 1.16607452
O 10.16099296 4.63871511 9.87638336 -1.05947129 -0.07019276 0.18980297
O 5.86206465 6.07783323 1.44734588 -0.72140053 -0.61626272 0.22622409
O 18.30270034 -0.06421104 1.48934123 -0.09107583 -0.55783757 0.86630709
O 5.81098462 3.05361594 1.50460413 0.05422341 -0.53761407 1.24525999
O 18.25394744 3.09909654 1.47179050 -0.41592927 1.31073712 0.75453396
O 4.45730252 6.11212502 7.20235082 0.16796353 0.41768111 -0.32604932
O 16.83748073 0.06346697 7.12060810 0.03208718 -0.50766558 1.34217283
O 4.41484529 3.02228910 7.23613944 1.33304650 0.18317033 -0.62269013
O 16.87667257 3.06470648 7.12671251 0.78508382 -0.15799707 -0.44150183
O 5.21984595 6.15022809 4.16381848 -0.22038602 0.59061858 0.95680417
O 17.61742763 -0.08460639 4.23636695 1.70438076 -0.38591177 -1.72203857
O 5.24108127 3.13832167 4.19001667 1.26550871 1.57252430 -0.33071295
O 17.68745044 3.07351060 4.34886515 0.57273210 -1.21582795 0.66300987
O 3.78633661 6.23256474 9.99401761 -1.27848516 1.66734527 -1.36158845
O 16.24071562 0.09966449 9.94809771 0.49354830 -0.21047166 0.64989237
O 3.92948586 3.03443820 9.97764140 -0.29268234 0.65753190 -0.17300168
O 16.23093522 3.11945140 9.84863638 -0.88891279 -0.57066345 1.19239408
159
Lattice="24.888064 0.000000 0.000000 0.000000 6.161945 0.000000 -2.776308 0.000000 11.408506" Properties=species:S:1:pos:R:3:force:R:3 Energy=-622.585550 Virial="-53.695432 1.884762 -4.400274 1.884762 -43.255423 -3.919867 -4.400274 -3.919867 -41.124094" O_vac_type=O_O1 O_vac_tier=low O_coord=3 defect_vacancy pbc="T T T"
Ga 0.00755565 -0.01856362 4.56876838 0.11907348 -0.61453974 -0.25220277
Ga 12.49214462 6.16611884 4.57921754 -1.23392230 -0.36787339 0.31401085
Ga 0.02240233 3.11815274 4.51495855 -0.56078198 1.19012101 0.74221666
Ga 12.42683578 3.09134303 4.54754304 0.28049030 -0.04841441 -0.25501607
Ga -1.38648954 6.15655183 10.20353357 0.92448271 -0.52739983 0.07928016
Ga 11.07727219 6.13289495 10.25893759 -0.61368253 -0.11317855 -0.19804439
Ga -1.29138254 3.09007390 10.24207286 -0.35439265 -0.49507418 0.27368519
Ga 11.01339239 3.05393554 10.21679755 -1.14224914 -0.31168408 -0.06025856
Ga 11.07018933 -0.01641008 1.20045654 -0.26948738 0.27088842 1.24219723
Ga 23.42109432 0.01663202 1.18632283 1.13001270 1.28944407 1.34620142
Ga 10.95136166 3.02137228 1.18611734 1.39919497 -0.95900351 -0.40136335
Ga 23.48812312 3.07419729 1.17930828 0.67142799 0.57967811 -0.96919173
Ga 9.56583180 6.18666717 6.90514681 -1.36543808 -0.32869379 -0.63334236
Ga 22.13567579 0.03515466 6.84456004 -0.16052817 0.55708078 -0.83591553
Ga 9.64673551 3.12063635 6.87346135 -1.46477309 -0.96107391 -0.35316720
Ga 22.15397905 3.09328097 6.86448787 0.11087579 -0.18634117 -0.57428133
Ga 6.24463376 1.53959371 4.57201137 -0.45938201 -0.48834495 0.57877536
Ga 18.77948184 1.58751278 4.53652331 -0.06415144 -1.10196091 1.63355017
Ga 6.22575066 4.61767949 4.56204011 1.11802042 0.15476506 -0.49985205
Ga 18.71513227 4.59510728 4.51504730 -0.30017355 -0.02301963 1.54518835
Ga 4.82637727 1.47892862 10.19424007 -0.35567796 -2.07655841 1.67093730
Ga 17.29071979 1.53213765 10.26424187 1.26265337 -0.10768952 -0.78285687
Ga 4.71784139 4.61007398 10.26787078 0.91022558 0.70632567 -0.02061918
Ga 17.29171328 4.64406544 10.23398700 -0.71745346 0.91763681 1.03523612
Ga 4.82420609 1.56430512 1.21279077 0.37052167 -1.06364607 0.15457379
Ga 17.18441221 1.55946252 1.19154097 -1.53673223 -0.74486099 -0.24092791
Ga 4.89235589 4.62040906 1.15142440 0.29628011 0.80525945 0.40327523
Ga 17.21733253 4.53520283 1.11298114 -1.20109297 -1.39092112 0.29237369
Ga 3.42969930 1.53756724 6.87303853 -0.68492558 0.11426164 0.29848265
Ga 15.91553529 1.55440747 6.92156940 -2.07706001 1.24123763 -0.06123362
Ga 3.39020939 4.63092956 6.94944738 -0.20745546 0.53131552 -0.07977550
Ga 15.90658070 4.62348465 6.83124696 -0.47798121 -0.02009214 0.51879984
Ga 1.55190881 1.56822775 1.80270748 -1.09216938 -0.19429313 0.36482099
Ga 14.01595302 1.57722035 1.83467769 -0.23986895 1.45380392 -1.12563541
Ga 1.47998021 4.65641893 1.76905987 -0.89737355 0.40301620 0.73447353
Ga 13.92453909 4.56709600 1.82877038 -0.90963619 -0.18055760 -0.67874359
Ga 0.17334124 1.53961685 7.48672803 -0.63712817 -0.54138806 -0.70833521
Ga 12.54559279 1.48066795 7.48191908 1.32404989 0.35762187 -0.07505364
Ga 0.18455864 4.67137544 7.43801309 -0.95817088 -0.46994141 0.70012859
Ga 12.58562575 4.62895798 7.46512508 -1.09470394 1.08462601 -0.35000930
Ga 9.43960075 1.57286926 3.88237373 0.98106501 0.52729820 -0.27768137
Ga 21.96479425 1.59124552 3.93235902 -1.37561111 -0.96139588 -1.23394071
Ga 9.50786764 4.62184309 3.90800929 -0.52138813 -0.69295127 -0.26984456
Ga 21.99922344 4.56468574 3.92240738 0.84369248 -0.03309960 -1.12984187
Ga 8.13573852 1.48563565 9.57630293 0.53936338 -0.45285799 1.96876903
Ga 20.54256796 1.56800881 9.57264665 0.55527905 0.08137334 -0.72045579
Ga 8.17948847 4.64584550 9.63274160 -0.76014205 0.31832031 0.40878565
Ga 20.53525698 4.60979316 9.60417914 1.01742694 -1.19929098 -1.17184030
Ga 7.79751187 -0.03984820 1.83412426 1.13632804 1.18280754 -1.05231564
Ga 20.20502354 0.07539180 1.78342621 -0.32961284 0.45556943 -0.30560194
Ga 7.80731424 3.04328964 1.76544820 0.50889891 -0.31688623 -0.57049290
Ga 20.24032524 3.10465799 1.79966848 1.48218682 -0.66764390 0.88271134
Ga 6.40664459 0.00055904 7.49806697 -2.69473199 -0.29713868 0.42234463
Ga 18.79311645 -0.02414672 7.61381353 0.09091955 -0.77927782 -0.10484561
Ga 6.33767340 3.06711871 7.56936666 -0.19817524 0.23308447 -0.08058106
Ga 18.83178779 3.07202931 7.50333118 0.80631350 0.37135321 -0.97109664
Ga 3.31957512 0.00870437 3.89877573 -0.37330795 0.48775804 0.36084049
Ga 15.73675630 6.07586921 3.81236913 0.56844474 0.51334111 1.17533442
Ga 3.32677038 3.07113630 3.91215049 -0.28605494 -0.41668855 0.59708660
Ga 15.73349084 3.08966315 3.90600246 0.60943199 1.13853471 -0.14085293
Ga 1.90767348 0.02848268 9.59599610 0.21915412 -0.49248953 0.54544699
Ga 14.38010870 6.16759303 9.68220953 -1.40687587 -0.08986402 -1.00082899
Ga 1.87608319 3.17230450 9.58302232 0.44724509 0.11752809 0.60439037
Ga 14.44431604 3.07528663 9.62907833 -0.08902984 -1.47457054 -1.25720995
O 1.86944589 6.15815507 0.63079293 -0.80471687 -0.27263648 0.52998696
O 14.35176606 6.10717037 0.64542429 -0.65413012 -1.04276106 0.61946193
O 1.85944056 3.06305014 0.57498363 0.42859027 0.52014828 0.92648713
O 14.24502019 3.01761542 0.70851600 0.66849238 -0.27070846 0.19102233
O 0.47266265 -0.07808911 6.32481971 -0.58271238 1.15198594 -0.65146794
O 12.93031838 6.16177119 6.35992326 -1.34998694 0.11848091 -1.39409514
O 0.50598537 3.08313661 6.31746718 -0.06982065 -0.82407375 -2.26128247
O 12.97643041 3.18127153 6.34071452 1.69568243 -0.12806456 -0.00667145
O 9.23798697 -0.00186966 5.14208919 -1.27396302 -0.55793151 -0.45301066
O 21.64282626 0.05967911 5.09535247 0.28477660 -0.14394110 -0.57306989
O 9.15878028 3.10727608 5.02631456 -0.81630239 1.40504737 1.20425777
O 21.61024564 3.08934592 5.12217088 0.46401815 -0.25070783 -1.38276196
O 7.69260317 6.24315216 10.80583143 -0.10649657 0.14894686 -0.09062132
O 20.24856430 6.15249405 10.71957054 1.00022715 -0.93041098 -0.52637861
O 7.63559469 3.17048252 10.81250460 0.10721436 0.12691635 -0.20191874
O 20.28300052 3.05680744 10.80106916 0.45795367 1.41420607 0.07641425
O 8.15952888 1.51182650 0.66423974 0.95440676 1.24480721 0.48130106
O 20.56140996 1.54825499 0.60710601 -0.05702351 0.28323632 -1.05432044
O 8.11728437 4.62366864 0.59421354 -0.97180374 0.67984010 1.09016155
O 20.49809475 4.65707947 0.59877378 -0.23226187 -1.52904440 1.26350081
O 6.67671423 1.43270253 6.34029633 -0.50829747 -0.26495441 -0.09978080
O 19.21210945 1.51989762 6.29433185 0.41187284 0.34927289 -0.60977624
O 6.80597706 4.62902257 6.36656895 -0.60418570 -1.58600871 0.21609327
O 19.25049905 4.61703576 6.31340605 -3.04693873 -1.04862350 -0.07687895
O 3.02385525 1.58618426 5.08848101 0.01795863 1.09633690 -0.42444680
O 15.36014422 1.59341639 5.14325613 1.98356984 -0.12058002 0.24114174
O 2.91076976 4.55998173 5.11762927 0.33504355 -2.05206426 0.50962623
O 15.33277101 4.55328867 5.10463385 -0.41471619 0.40332214 -1.10343394
O 1.52634716 1.51255294 10.78377946 0.02166744 -0.44288403 0.11976127
O 14.02301646 1.56912230 10.73255778 -1.01305577 -0.53216181 0.23146708
O 1.57438057 4.64853944 10.83962518 0.19156312 0.03446442 -0.50502146
O 14.00163415 4.56286849 10.71596448 1.51554262 0.42246764 0.59490409
O 1.34137460 6.14057088 3.25706036 1.36958313 0.73607463 -0.93850097
O 13.83475883 -0.01588349 3.22335624 0.87449729 0.91744954 1.64472184
O 1.45400252 3.06806526 3.27772204 -0.62595461 -0.02657878 1.36125970
O 13.85675528 3.01592484 3.21787833 0.88357885 0.07158478 0.97834656
O -0.04895402 -0.02896825 8.90370117 1.19764344 0.93777531 1.17439344
O 12.40376844 -0.03260227 8.91340046 0.24932816 -1.02552187 -1.22782495
O -0.09243642 3.02954988 8.90488904 -0.19273100 1.22953976 1.38748248
O 12.42474018 3.05351025 8.88745949 0.15530912 0.15266551 0.75715068
O 9.69631354 6.16490928 2.40533240 0.37875519 -0.15459282 -0.83726819
O 22.09851591 6.19858141 2.51081874 -1.44580341 -0.80729398 -0.81059704
O 9.67784291 3.11428367 2.44339615 0.51109316 -0.26169573 0.08002266
O 22.11821351 3.07028857 2.46715501 0.92855927 0.35494380 0.32553666
O 8.33344977 -0.06253529 8.17414144 -0.52855045 1.65015475 0.80522749
O 20.74340807 6.12834904 8.21642130 0.03091259 0.48890543 0.25606772
O 8.32915728 3.07260691 8.10325012 1.26310506 -0.24532904 -0.39483025
O 20.65652967 3.14083673 8.20740838 -0.05718677 -0.00946555 -0.82730608
O 7.57998177 1.47353311 3.19940016 1.08326246 0.63333538 0.28391987
O 20.11501705 1.62230661 3.18180367 -0.27536873 0.36551094 -0.90824904
O 7.62136309 4.58046471 3.21857234 0.73126000 0.75966943 -0.03162853
O 20.02852098 4.56433919 3.21312152 -0.34591590 0.10385176 0.63875250
O 6.15647635 1.59895059 8.99086111 1.41860713 -0.00142594 -0.87698301
O 18.63745544 1.51910680 8.90027812 0.94532216 0.69388114 0.18145495
O 6.18902271 4.59909119 8.89946779 -0.37278756 -1.03774991 -0.30025214
O 18.64139634 4.65189972 8.93983533 0.61906997 -0.27236942 0.70995936
O 3.40520227 1.57506171 2.44994258 -1.74577432 -0.93563205 -0.60942697
O 15.93326674 1.50418710 2.54311445 -0.28232427 0.86910818 -0.86750723
O 3.43430008 4.64988114 2.46154508 0.65260127 -0.06634103 -0.18852835
O 15.86394071 4.61946709 2.51407709 -0.24577822 0.45251658 0.43820983
O 2.15638275 1.47263286 8.21774125 -0.29293437 -1.67262765 1.02220884
O 14.50999141 1.50205062 8.24767451 -0.83964910 0.35125916 0.44747792
O 2.08545413 4.59364941 8.21332547 -0.67670524 -0.50422981 1.28798719
O 14.54607057 4.64939416 8.19410366 0.75023184 0.95819207 -0.22726057
O 12.01859170 1.56404409 1.44531557 -0.55546751 -0.37159087 0.32580244
O 24.51078644 1.52487682 1.49151535 0.97551137 1.17173600 -0.21402155
O 12.10016112 4.61089968 1.48613697 -1.22213311 1.34125636 0.92153412
O 24.47385096 4.49531640 1.42656167 -0.62778309 -1.04233931 -0.52353561
O 10.66517701 1.54396664 7.15413426 -0.52559889 -0.32589413 -0.00600726
O 23.11017814 1.56330188 7.14487331 0.63669637 0.41803908 0.39456296
O 10.62163626 4.54734270 7.19258827 -0.60885100 1.32627295 -1.61324713
O 23.05166004 4.63747988 7.16547063 1.81910940 0.28785498 0.03551070
O -0.98909042 1.62640741 4.17217304 0.63143446 1.06260791 -0.67608443
O 11.45155411 1.53307331 4.25925883 -2.03898495 0.28000103 0.70567920
O -0.93095706 4.60705852 4.21318665 -0.76944462 -0.55708013 -1.66499831
O 11.46867970 4.67693568 4.13598518 -0.58615497 -0.57456218 0.67261505
O -2.33584311 1.47119077 9.85907397 1.71018428 -0.05573113 -0.95198269
O 9.96347300 1.62099915 9.95868428 0.04482610 0.63669781 -0.95318409
O -2.45123821 4.63090342 9.91903931 -1.17310770 -1.49270814 -0.09761927
O 10.08725225 4.57790208 9.92442631 0.49329330 -0.21556911 -0.52229056
O 5.82174297 6.23079251 1.44473668 1.47629766 0.19386971 -2.07779472
O 18.22496383 0.08421325 1.42362574 0.71705182 -0.00609809 0.16675416
O 5.84431909 3.13715605 1.48729041 0.18946475 0.16576209 0.97144748
O 18.21612905 3.11809032 1.47836897 -1.14070836 -0.39239212 -0.49647810
O 4.44915906 6.10917687 7.18275837 0.70605531 0.73044387 1.24140583
O 16.81909577 0.01334003 7.18406672 0.87688979 -0.74947879 1.80725779
O 4.45312631 3.02939642 7.11429577 1.47721263 -0.52778811 1.10827124
O 16.82372399 3.02947458 7.17689621 0.28015254 0.53702801 -0.05325187
O 5.19884852 6.17319469 4.26180167 0.52273131 -0.05405313 0.31048818
O 5.25289386 3.05436255 4.17518919 0.55047571 0.61049791 -0.50694796
O 17.71368955 3.07782885 4.19699647 1.35934024 -0.01062515 -0.83812011
O 3.82930747 6.15971183 9.95151655 0.81174514 -1.45708952 -0.86265294
O 16.31813427 -0.02460764 9.89105123 -0.62216587 -0.43326422 -1.17627730
O 3.90209253 3.07990782 9.90678255 -0.51316485 0.32883289 0.90961413
O 16.34939767 3.03569155 10.00129587 0.34593235 1.17453124 0.59822279
159
Lattice="24.860965 0.000000 0.000000 0.000000 6.155236 0.000000 -2.773285 0.000000 11.396084" Properties=species:S:1:pos:R:3:force:R:3 Energy=-623.665732 Virial="-55.808763 0.162362 -2.591860 0.162362 -44.247241 -3.106962 -2.591860 -3.106962 -43.716589" O_vac_type=O_O1 O_vac_tier=low O_coord=3 defect_vacancy pbc="T T T"
Ga -0.02200465 -0.06555925 4.53159516 0.66695571 0.18070885 1.17026746
Ga 12.41307879 6.21848871 4.44959862 -0.01933181 -0.74818988 1.53835550
Ga -0.05827667 3.15177428 4.56946749 -1.12626269 0.71174785 -0.38560612
Ga 12.44931682 2.90749033 4.45778982 0.75239221 -0.73476057 0.84876943
Ga -1.46002510 6.01601225 10.23873303 0.17806963 0.94446809 -0.71532423
Ga 10.98630477 6.15728154 10.12492746 -1.32134173 0.67389517 1.05245141
Ga -1.45958474 3.14538209 10.21597956 0.63710419 -0.67901901 -0.03304362
Ga 11.03907683 3.08689461 10.18115019 0.87523389 0.48753569 0.14001844
Ga 11.08162128 0.04647410 1.14494291 -0.62385883 -0.25586134 -0.14219252
Ga 23.37974491 0.02046999 1.19435473 -0.07630028 0.65038285 -0.19684817
Ga 10.86227936 3.17627163 1.19460123 -1.46672945 0.05627386 1.01345222
Ga 23.48004882 2.96921999 1.17875222 1.29890285 0.68137650 -1.19567875
Ga 9.60532112 6.15224151 7.08074148 0.39053841 -0.57882203 0.08924930
Ga 22.12590659 -0.02834368 6.82793355 -0.61099822 0.02897882 1.41408193
Ga 9.55119393 3.13899201 7.03401126 -1.19224311 -0.46441772 -0.16344367
Ga 22.05658905 3.03647738 6.90373443 -0.13431082 0.49263444 -0.37233290
Ga 6.25867802 1.67045073 4.49079711 0.80677346 0.35542151 1.29668193
Ga 18.66913934 1.45318950 4.48432864 0.11979492 -1.37836498 0.59741244
Ga 6.18211918 4.55940315 4.45402758 1.17894760 0.90028342 0.17163865
Ga 18.70543077 4.63593290 4.44220697 1.15714853 0.60835232 -0.11585290
Ga 5.00139495 1.56158710 10.17606247 0.80202573 0.74505877 0.07095986
Ga 17.41549525 1.53139012 10.33579832 -0.20185549 0.94768703 0.13167417
Ga 4.88611507 4.65526300 10.22950831 0.02768087 -0.08368588 -1.55277279
Ga 17.30787456 4.61566055 10.23244746 0.06593412 0.28582643 -1.16548741
Ga 4.74255934 1.63882471 1.26957852 0.38033031 -0.65145664 -0.28389124
Ga 17.18549559 1.53558920 1.15129614 0.74173782 -0.40883965 0.11074347
Ga 4.84136334 4.58264959 1.21243564 0.16450491 -0.21231119 0.78943034
Ga 17.21868700 4.70850986 1.14215271 -0.67339508 0.29497298 0.75616113
Ga 3.30996563 1.48003658 6.88284088 -0.71894326 1.02926401 -0.44020265
Ga 15.80854695 1.52070934 6.72236974 -0.68942688 -1.68440432 -1.34979098
Ga 3.37971342 4.60609055 6.78433781 -0.28443294 1.08435879 -0.98776658
Ga 15.83390795 4.65728290 6.72725705 -0.27519775 -0.78339652 -1.13354071
Ga 1.56368669 1.41577090 1.81804797 1.19292373 0.20056786 -0.20669430
Ga 14.04864139 1.43480709 1.62386122 -0.88615210 -0.66080434 0.27472226
Ga 1.57340110 4.59036417 1.80334047 0.02193903 -0.01853383 1.20646643
Ga 13.87012037 4.65659555 1.82102855 -0.29352040 0.13289108 -1.06667195
Ga 0.15162137 1.47129180 7.63977701 1.55482194 0.40253894 -0.90000577
Ga 12.48431787 1.35670321 7.43824206 -0.88638538 -1.05547252 -0.26154067
Ga 0.09271455 4.62574840 7.44611378 1.70431261 1.73906837 -0.71598467
Ga 12.66633625 4.54151047 7.35727181 -0.41123712 -0.21903806 1.25884679
Ga 9.44101321 1.52860689 3.89378290 0.09854305 0.15575434 -0.19307918
Ga 21.92848946 1.55917312 3.94622155 -0.29476470 0.47801234 -1.66218194
Ga 9.45314982 4.73132124 3.87507743 0.38532245 1.27719104 0.21574655
Ga 21.96222052 4.61768700 4.02231030 -1.19650514 -1.07318912 -0.38541301
Ga 8.15655272 1.56256338 9.58070173 -0.70423182 0.42962330 0.68460756
Ga 20.57735600 1.55348770 9.48748906 0.10734776 1.90786137 -0.41068828
Ga 8.01735678 4.58707132 9.55061830 -0.70446137 -1.09608966 -0.04671601
Ga 20.55184920 4.64819663 9.63783032 -0.41622879 -0.92268527 -0.37903039
Ga 7.64604591 0.01305077 1.88849154 0.31147466 0.63903390 0.13487922
Ga 20.23973456 -0.08184469 1.88686747 -0.33078802 -0.75190178 -0.50153108
Ga 7.82356002 3.11374726 1.74397362 0.21503801 -0.29006261 1.75964689
Ga 20.21352043 3.21483194 1.79653961 0.12423126 0.46963964 1.23368884
Ga 6.19434778 -0.07923428 7.44323848 0.53811133 -0.41918151 -0.23550759
Ga 18.79536093 0.02737680 7.47221354 0.04712037 -0.99664804 -0.53843305
Ga 6.27844172 3.10554526 7.44041352 0.41748784 1.11492058 0.32898752
Ga 18.79334557 3.07872324 7.46961663 -0.50670400 0.35191189 -0.07080702
Ga 3.24844283 0.10942514 3.86036681 1.31532578 -1.43032916 1.28122084
Ga 15.71038631 6.11995763 3.83488934 0.50775878 1.09911690 0.15553083
Ga 3.26092734 3.00946793 3.81146769 0.39706298 0.08428329 -0.43963696
Ga 15.76978570 3.06186963 3.88976222 0.17750190 0.35750244 -0.61600860
Ga 1.99371453 -0.05265017 9.64838057 -0.57232669 -1.23588505 0.47343294
Ga 14.38961859 6.09786908 9.58703554 0.32904649 0.10381116 0.18234066
Ga 1.88594250 3.10293927 9.67679656 0.54206388 0.06820891 0.18958709
Ga 14.36508278 3.12045972 9.60208426 0.39849416 0.80470804 0.30698289
O 1.90289347 6.15984388 0.55249035 0.22568815 0.06095438 -0.84518298
O 14.34583832 6.07396006 0.74165921 0.69551817 -0.37563496 -0.08390051
O 2.01202608 2.99078023 0.50815925 1.35921802 -1.00154682 0.56815169
O 14.31261699 3.06728914 0.48676158 -0.84827028 -0.20202209 -0.51041331
O 0.46318632 -0.00200955 6.21869985 1.45749072 -0.79126522 0.15705047
O 13.07503742 6.22111931 6.32203480 1.68729610 1.33680917 -0.55713586
O 0.48795576 2.98679629 6.27295348 -1.22153411 1.04438778 0.69677878
O 12.95058802 3.07678104 6.45684442 -0.36397719 1.30459073 -0.66336246
O 9.11500910 -0.03328599 5.09525999 -0.05054903 -0.46920955 1.41318888
O 21.77289871 -0.12457702 5.18305191 0.64786468 0.60161655 0.08105829
O 9.08384688 3.06667048 5.18293337 0.62340916 -0.82528510 1.33192622
O 21.48607625 3.07897311 5.02479619 0.58142171 1.54710747 0.98822154
O 7.65109335 6.17476961 10.82945480 0.07765439 1.23629403 -1.40158910
O 20.21714326 6.00949585 10.83659412 0.56812584 -0.14058838 1.87637592
O 7.75011471 3.00329019 10.77733485 0.82243018 0.36177450 0.47063813
O 20.21426424 3.00092804 10.78961771 -0.96916290 -1.13624824 -0.77488632
O 8.22931711 1.47611284 0.69593430 0.32759334 0.18086432 -0.68931907
O 20.58738543 1.54156119 0.51809115 -0.65745514 0.55912184 0.40394369
O 8.08008305 4.58824297 0.63141424 0.06132425 0.94048409 0.40532678
O 20.59202077 4.60892376 0.65430978 0.32022154 0.16281103 -0.33758525
O 6.61253760 1.65146401 6.26400431 0.24212895 -1.17722913 -0.40040134
O 19.09489532 1.45515066 6.29208486 0.25094945 0.12942698 0.38101618
O 6.69640383 4.57637870 6.20229819 0.29429126 -0.55487265 -1.07476969
O 19.12013015 4.68548509 6.29853009 -0.99598092 -0.30088490 -0.26131124
O 2.97333455 1.45221416 5.07730660 0.31063051 -0.52244863 0.70134116
O 15.35088806 1.60210302 5.08390243 0.23775769 -0.78685789 0.10890319
O 2.98454608 4.50479804 5.11188167 1.35931836 -0.82760281 -0.80930200
O 15.42719307 4.63185921 5.08265546 0.32659333 -0.10034868 0.45598029
O 1.55528898 1.46197989 10.76295818 -0.42024607 0.34085152 0.07164576
O 14.11683441 1.50130216 10.69744911 -0.43381193 -1.58524778 -0.01732135
O 1.52411191 4.62921481 10.84841080 -0.61368215 0.31043109 0.19625942
O 13.96132631 4.76122054 10.82804753 0.25443886 0.08768118 -0.13985778
O 1.31582984 6.06788235 3.13154096 -0.07789266 1.00200364 -0.37919335
O 13.86067631 0.02140980 3.18440255 0.05690950 0.07442720 0.02608813
O 1.50640908 3.02468905 3.28895613 -0.49957390 -0.66493267 0.12943382
O 13.86530280 3.20577762 3.35493891 -0.69498219 0.71824991 0.01402702
O 0.08016060 -0.08837320 8.93905660 0.16642339 0.19493717 -0.89348653
O 12.45055738 0.11549274 8.91891062 -0.45463537 -0.71570590 1.81352335
O -0.04792800 2.99439724 8.84658335 0.55497418 -1.05348559 1.71209529
O 12.33734224 3.11366013 8.98172227 1.01555904 -0.24902290 -1.65292722
O 9.68093239 6.19499891 2.44993045 0.13508616 -0.55754323 -0.31771425
O 22.05501096 6.15152804 2.50010786 2.03390364 0.33864058 -0.99412086
O 9.66486037 3.11770582 2.50773160 -0.45522486 0.94250742 0.04708484
O 22.08883788 3.05477069 2.61657796 -1.37712826 -0.55819233 -0.53006146
O 8.22117394 -0.02970441 8.14360083 -0.23687573 0.05414143 0.24064598
O 20.69912447 6.12174526 8.19867563 1.65794769 -0.74693531 -1.15263825
O 8.31508219 3.12389388 8.26927043 -0.37261661 -0.86885796 -0.20091788
O 20.67471294 3.13495117 8.13656206 -0.77849186 -1.65198155 -0.60504461
O 7.58759848 1.54784549 3.21824691 0.29156093 -0.10463708 0.59253312
O 20.05023016 1.64973024 3.27618096 -0.85544524 1.01879520 0.22833687
O 7.70153259 4.56361124 3.14862828 -0.51204828 -0.33468072 -0.83582986
O 20.05488356 4.64466770 3.24602983 -0.22733308 -0.40412228 -0.32507842
O 6.17561882 1.50250440 8.86801513 -0.73628235 -2.07076757 0.65791016
O 18.60039424 1.46372506 8.94239560 -0.50754730 1.62109087 -0.16983614
O 6.17590818 4.61012448 8.90115017 -0.44356676 -0.43981639 0.42936096
O 18.60688474 4.54508909 8.84517022 -1.41262787 0.26678133 -0.52984757
O 3.48494730 1.53313120 2.50987343 0.57336869 -1.66604644 -0.77844425
O 15.75773221 1.53344316 2.45496786 1.16916428 0.15632567 0.38804043
O 3.45467892 4.69459241 2.52116050 -0.57166710 -1.67661727 0.52043907
O 15.81348791 4.58055976 2.53978656 -0.38733663 -0.17986917 -0.95360208
O 2.10634579 1.54912739 8.23336109 -0.76772623 -0.76339285 0.80611802
O 14.58539291 1.58153581 8.20830282 -1.16323798 0.02167852 -0.81546742
O 2.14094555 4.57859121 8.14417173 -1.69468813 -0.47911225 0.09699815
O 14.58143832 4.48997441 8.11455598 0.05253355 -1.29619686 -0.72420566
O 11.90524347 1.50438194 1.42513069 0.05033315 0.53848632 0.96991334
O 24.42021610 1.51060216 1.50229929 0.10579580 0.27249420 1.17887579
O 12.00741223 4.57273834 1.48736198 -0.51308582 0.40476214 -0.29961849
O 24.44149235 4.69194531 1.55122509 -0.01356247 -0.26623090 -0.41167529
O 10.61187133 1.55931846 7.16509015 -0.46858028 0.17179561 0.50289987
O 23.03463437 1.46530266 7.27130078 0.15452425 1.18894846 -0.23997647
O 10.61183708 4.52342641 7.19868592 0.56241292 0.59229672 -0.56376489
O 23.18309436 4.64932128 7.15561486 0.60628295 0.80959242 0.54766254
O 11.40383210 1.58480858 4.27070592 0.12905826 0.33022381 -1.12697028
O -0.89988355 4.60440090 4.09856540 -1.51088026 -1.09302407 -0.06325572
O 11.49034763 4.62880127 4.31047438 -0.62616476 -0.05930808 0.29007373
O -2.51931476 1.56423185 9.82015806 -1.13110689 1.35433154 0.48865636
O 9.97441766 1.58352435 9.91764861 -1.85513594 -0.06233318 0.48138993
O -2.32172388 4.52714012 10.01782151 -0.21934965 0.47510893 1.02253392
O 10.04559262 4.56719591 9.97187673 0.80338776 -0.20365016 -0.32033300
O 5.91156304 6.18409557 1.54552624 0.28143114 0.31908749 -1.02928014
O 18.32284783 -0.13979678 1.55752762 0.32955033 -0.18859919 1.42301031
O 5.79571509 3.11119742 1.41352999 -1.14283357 1.44313728 -0.25297627
O 18.22696967 3.07058519 1.40805302 0.03287621 -0.36252158 0.33433051
O 4.45589331 6.11340304 7.08479489 0.03345913 0.52787468 -1.12204091
O 16.75200460 -0.00144415 7.05403495 0.39929062 -0.66979040 0.93701142
O 4.34410885 3.15632780 7.15956954 1.76314009 0.08654375 -0.42639636
O 16.86541523 3.13525685 7.16574376 -1.39245024 -0.05999644 0.40295915
O 5.23868924 6.14526589 4.23986072 -0.55148327 -0.31583598 -0.99248924
O 17.60607461 -0.02722589 4.18625656 -0.29606691 -0.19599344 0.60941396
O 5.19648724 3.12920641 4.21077922 1.12955293 -0.27703001 0.03009014
O 17.59984489 3.02859070 4.20620310 0.70218703 0.55786274 0.42621087
O 3.85603961 6.14436438 9.94023208 -0.19328619 0.09593324 -0.83474693
O 16.17377386 0.02632362 9.85668714 0.67781789 0.58263708 -0.35451771
O 3.86136049 3.15245585 9.83791804 -1.24538390 0.63028744 -0.84137352
O 16.18331029 3.10991660 9.83412058 -0.25099726 -0.10518893 -0.36563351
159
Lattice="25.072451 0.000000 0.000000 0.000000 6.207597 0.000000 -2.796877 0.000000 11.493027" Properties=species:S:1:pos:R:3:force:R:3 Energy=-622.883981 Virial="-56.252952 -2.011742 -1.365313 -2.011742 -42.766400 -3.411836 -1.365313 -3.411836 -44.106444" O_vac_type=O_O2 O_vac_tier=low O_coord=3 defect_vacancy pbc="T T T"
Ga -0.06399690 -0.01884975 4.55764551 0.06388308 0.24446524 0.29356429
Ga 12.47253502 6.18297763 4.54729005 -0.63772239 -0.03720756 0.32183796
Ga 0.01844310 3.11591365 4.54453656 -0.00112202 1.10173081 -0.11824395
Ga 12.59140946 3.13104806 4.50393999 0.59157910 -1.08290396 -0.23095017
Ga -1.40922552 6.18856652 10.35720387 -0.27337642 1.62477473 -0.18978027
Ga 11.27022770 6.21615753 10.29031202 -0.13798454 1.19999236 0.51262547
Ga -1.42011782 3.16481138 10.30135459 0.35282622 -0.90217898 0.83620810
Ga 11.11084580 3.17828330 10.33074862 -1.23126843 -0.77633991 -0.87988753
Ga 11.12968110 -0.04396629 1.17574689 -0.23504257 0.00096440 0.01622784
Ga 23.58227179 -0.03348977 1.12720550 1.35304783 -0.39028667 -0.48392517
Ga 11.14162476 3.12543299 1.14766549 0.61436183 0.52668138 0.67391635
Ga 23.71571563 3.15234088 1.14876399 -0.59776397 -0.33679703 -1.22868374
Ga 9.75716058 6.28045150 6.94782692 -1.89388476 -0.90556850 -0.53183268
Ga 22.26790253 -0.02874824 6.96684930 0.48265205 -0.30276036 -1.64217123
Ga 9.65162023 3.02030883 6.92113267 -0.62076236 -0.38950133 -0.63914424
Ga 22.31344291 3.22230889 7.00519995 -0.01044555 -0.92631855 0.38419295
Ga 6.32453365 1.55257380 4.51167634 -2.20783587 -0.22166913 -1.15893621
Ga 18.88015117 1.51966729 4.54848736 -0.45844442 -1.03447573 0.24933739
Ga 6.31121728 4.68921318 4.54568754 0.20932662 -1.37195267 -0.38493964
Ga 18.84345255 4.57894321 4.47303314 -0.83509382 0.13726634 0.19822754
Ga 4.84923015 1.53524824 10.26962851 -0.38544974 -0.27276853 -0.04168260
Ga 17.48747747 1.47181007 10.28889613 1.33452960 1.55711437 -0.37378290
Ga 4.85555045 4.67943670 10.35845142 -0.00102402 0.17585365 0.63684395
Ga 17.44675486 4.67544292 10.35033668 1.36440891 -0.73779140 0.92746474
Ga 4.85903232 1.58937184 1.13031269 0.14252431 1.19786116 -0.33015518
Ga 17.41041345 1.51190872 1.22291591 -0.76316594 -0.12351229 -0.31747871
Ga 4.84726962 4.63733097 1.19031755 -1.04302048 -0.85965037 0.26307423
Ga 17.38696039 4.59565186 1.14589124 0.42016267 -1.00205763 -0.02262622
Ga 3.36403501 1.56969440 6.90328703 -1.31412696 0.21151218 0.51837262
Ga 16.01280979 1.59498113 6.90051918 -0.83601708 1.11228788 -0.36640844
Ga 3.45315629 4.60600553 7.01476558 -0.46839050 0.66084537 -0.10205356
Ga 16.06515062 4.60407431 6.89484549 -0.92171960 1.45307929 0.60661070
Ga 1.57385845 1.58528667 1.88423259 0.85242527 -0.00437598 0.07620061
Ga 14.04820251 1.50452248 1.75619983 -0.59722494 -0.40401541 -0.18192367
Ga 1.58812632 4.74251104 1.76607744 -0.37249089 0.43028589 0.19160584
Ga 14.12608660 4.70573144 1.82386797 0.49162557 0.32528859 -0.42533785
Ga 0.08286429 1.45814199 7.59309389 0.89878540 0.93275403 -0.95032014
Ga 12.67131489 1.55700445 7.58652374 -0.23088586 -0.79649072 1.25471360
Ga 0.08753506 4.63897662 7.54553587 0.88529568 1.07986387 -0.21729255
Ga 12.66302344 4.66163279 7.53118586 0.01888615 -0.55103913 1.08918647
Ga 9.47076484 1.57410364 3.97501395 1.76219767 0.06856837 0.91552354
Ga 22.09923632 1.59294762 3.97458779 -0.04180167 -0.00119722 0.51454198
Ga 9.64765677 4.62815748 3.87473000 -0.29382195 0.78403749 2.02756999
Ga 22.11483813 4.75072981 4.03450694 -0.60390633 -0.70436525 0.49835941
Ga 8.14379228 1.56859266 9.75188342 0.62988091 2.39783581 -0.38977680
Ga 20.72975177 1.59800007 9.72440839 0.92335587 1.31546754 -0.15127845
Ga 8.10047043 4.75861913 9.66421210 -0.48606778 -1.77277770 -0.03176416
Ga 20.69904318 4.69554850 9.69874863 1.25570739 0.59001196 -0.78149924
Ga 7.81083196 0.05177973 1.79517078 -0.95213659 -0.45337164 -0.85833437
Ga 20.29115174 -0.05624190 1.85849048 -0.34209656 -0.24610252 -1.22636732
Ga 7.84656063 3.10483950 1.83806604 -0.48174114 0.72502504 -1.16546234
Ga 20.34950779 3.13127681 1.79975434 -1.43868577 1.25023070 -1.03807484
Ga 6.39331301 0.03809279 7.57644426 0.62430834 0.65812053 0.27453398
Ga 18.89891422 -0.01123057 7.55129840 1.10524545 -0.57909003 -0.64432687
Ga 6.42476594 3.13264661 7.45349872 0.62399521 -0.44041920 0.76644669
Ga 18.85704881 3.15976188 7.56771813 0.17917881 -0.52760567 -0.72696540
Ga 3.37461086 0.02729936 3.92727370 -1.32941856 0.29842328 -1.61784675
Ga 15.83623235 6.19002402 3.94149078 -0.53071317 -0.07715352 0.26279888
Ga 3.23567692 3.08707985 3.95758063 0.35619492 -0.62563074 -0.05532724
Ga 15.87325321 3.03365317 3.86644708 -0.15533309 1.39262426 -0.04591384
Ga 1.86547160 -0.05005884 9.67860946 -0.18852345 0.52962199 -0.53310179
Ga 14.43230660 6.17488319 9.63971203 0.42471112 -1.11553150 -0.70448918
Ga 1.85544357 3.13058271 9.68827815 -0.25739084 -0.69536597 -0.06206975
Ga 14.46289446 3.10389617 9.70547994 0.53502243 0.38949041 0.00225719
O 1.93161964 6.17780448 0.57621380 0.80469164 0.85268584 1.64417458
O 14.39760900 6.16581399 0.53734227 -0.54631253 -0.33274305 0.72453354
O 1.91925726 3.11569962 0.54280030 -1.61213103 -0.02416318 -0.43377437
O 14.36935719 3.08426712 0.61172572 1.04184504 -0.63705823 0.79478038
O 0.49801054 0.00523787 6.37043878 0.26627227 1.84455058 0.19601461
O 12.99748178 6.18635603 6.32554567 -0.01977382 -0.78533145 -0.64822080
O 0.50263165 3.12360962 6.35647123 0.27533273 1.42693730 1.34603898
O 13.11714639 3.16180282 6.31446675 0.86485077 -0.08637651 0.39797454
O 9.30658909 -0.00701263 5.10264085 0.46481590 0.53028663 -0.53886981
O 21.83406310 0.00868134 5.10400844 -1.04416908 0.16485197 1.15335475
O 9.25573398 3.08441909 5.15933613 0.39083496 0.41239773 1.24535474
O 21.78505840 3.09320187 5.15176891 0.09270735 -0.41893873 -0.31889540
O 7.91646003 6.21429933 10.87741117 0.13821530 -0.61982329 0.91149576
O 20.41661315 6.20043897 10.88117948 -0.77514414 -1.30569468 -1.13083792
O 7.85091041 3.09580835 10.86889175 -0.31340835 1.92225097 -0.02860010
O 20.43661749 3.19606704 10.81342493 0.34462794 -0.16282637 0.60429586
O 8.18927293 1.57561321 0.69024430 0.00648186 0.94604499 0.07780175
O 20.69454570 1.61757595 0.61349034 0.93218343 -0.20170786 -1.91115103
O 8.14824424 4.71634420 0.58924866 -0.42134649 0.55985245 -0.74640831
O 20.69192353 4.62368464 0.63890478 -0.40251841 0.90121705 0.66441206
O 6.75173367 1.52965525 6.45561554 0.64436869 -0.04145499 -1.34353140
O 19.29759294 1.55515762 6.36084212 -0.78028915 0.46102620 1.16300010
O 6.84515615 4.63530709 6.38415373 -0.72388163 -1.03871057 1.07719588
O 19.27298590 4.71964026 6.32347998 0.38371812 0.09339652 0.44126425
O 2.98254308 1.46474961 5.07609895 -0.21386708 -1.04712250 0.43698343
O 15.53302967 1.53523303 5.14787924 -0.68781916 -0.61060200 0.55746894
O 2.97721720 4.60908755 5.02305644 -1.46404456 1.06864570 0.24963052
O 1.68312972 1.52153159 10.87509530 -0.25856154 -0.12522506 -0.41755096
O 14.13381944 1.62468896 10.88317570 -0.47248461 -1.22342135 -0.56869002
O 1.54393164 4.59945816 10.94326635 1.73467269 -1.90050876 0.04486060
O 14.09909712 4.65756474 10.84380337 -0.22246517 -0.60168599 0.20750610
O 1.39986979 6.17887728 3.30986752 0.02365270 1.43058939 -0.73437970
O 13.94506022 0.01496647 3.23483904 0.49131313 0.36566312 -0.08252057
O 1.31152558 3.20821554 3.32755717 -0.25709931 1.67295960 1.51562396
O 13.99823118 3.07787332 3.31738506 0.51030349 1.17061074 -0.10750911
O -0.03554429 -0.02274173 8.98963036 -0.45417434 0.67019351 -0.57488067
O 12.50191895 0.02420568 9.03625071 0.79885794 0.72466564 0.35432022
O -0.07372843 3.09223152 9.06996715 0.75546477 1.63766421 0.92384705
O 12.50295598 3.12305924 8.94875738 -0.41466748 -1.04537309 1.07288980
O 9.69108434 6.28050555 2.54603700 0.77442380 0.66746419 -0.44689065
O 22.32726504 6.11748267 2.62406381 -0.40218918 -0.35767481 -0.04115031
O 9.80051588 3.11065179 2.46986731 0.88904382 -1.79374501 0.19277056
O 22.27007355 3.02981498 2.46587594 -0.18714895 -1.13084156 0.61324505
O 8.29462688 -0.06039150 8.18675569 0.33385169 0.31400840 -0.48002813
O 20.93043950 6.16065532 8.18536213 -0.02809859 -1.17051273 1.58633210
O 8.32610317 3.09263932 8.19588134 -0.35280625 -0.57304193 -0.49894955
O 20.91086197 3.18246777 8.19558772 -0.01465943 -0.19624639 0.11751521
O 7.71993786 1.53785028 3.13102280 0.87206226 -0.86216509 -0.91910033
O 20.19547725 1.54938446 3.23660818 -0.69550571 -1.25099608 0.12700599
O 7.65203461 4.62174049 3.29618726 1.17261090 -1.91811095 -0.00717258
O 20.20124755 4.72330988 3.25090599 0.48363719 -0.99149335 -0.83870516
O 6.22941782 1.62424197 9.10788094 0.48850601 0.23566493 0.31579184
O 18.73062109 1.62622117 9.09134900 -0.23631766 -0.08462740 0.67467231
O 6.28922706 4.76789524 8.99965030 1.54882016 -0.47139462 -0.12093150
O 18.78630958 4.66167000 8.98328091 -0.77474141 0.05581545 -0.60349142
O 3.49586292 1.55002339 2.51840469 0.22937196 -0.11283296 1.13635916
O 16.02459149 1.59127094 2.51324371 -0.39235844 0.19650330 -0.12603517
O 3.46854012 4.69432481 2.52125693 -0.64509068 0.81156010 -0.54016554
O 15.97798036 4.70514618 2.54891684 -0.38212388 0.59007134 -0.47471632
O 2.04771962 1.56181217 8.28862476 -0.22056245 -0.89788071 0.48465724
O 14.62479764 1.59735157 8.27948385 0.19825823 0.68622631 0.18054292
O 2.10607825 4.65598497 8.30872090 -0.62001620 0.14106912 0.24480282
O 14.61726104 4.68276171 8.24129187 0.55147295 -1.60576245 -1.04615102
O 12.14377440 1.52164598 1.47311566 -0.90598832 -1.18687950 -0.70569251
O 24.62685242 1.55385611 1.45116286 -0.74613520 0.49394586 -0.04687786
O 12.14886008 4.71701283 1.44219001 -0.40136942 -1.84509532 0.80556881
O 24.54500195 4.60390840 1.42223297 -0.14273638 -0.48545544 2.10276563
O 10.73664390 1.57873386 7.21418654 -0.07360252 1.22313194 -0.47251989
O 23.21913096 1.57944713 7.30437023 -1.13841023 0.00355821 -0.65714050
O 10.70900127 4.64639356 7.16990145 0.34124148 -1.25271106 -0.38681390
O 23.27019336 4.65302909 7.25051920 0.33733748 -0.73057336 -1.10057197
O -0.96997367 1.63029421 4.25156516 0.80230542 -0.35482809 0.02662211
O 11.58117825 1.54976768 4.33648899 1.34461603 -0.57588830 -1.22052329
O -1.02076972 4.67078014 4.17585997 0.52188391 0.84198723 1.18146925
O 11.52957339 4.63610115 4.35895856 -0.48307378 0.10841773 -0.92499762
O -2.34305167 1.42876170 9.92657832 0.03623786 0.60945730 0.23922482
O 10.15249727 1.62818062 10.02703364 -1.25245112 0.22666118 -0.26483991
O -2.41050955 4.57045241 10.02394567 0.65541070 -0.13956790 2.03689753
O 10.12582971 4.70750045 9.95218985 0.85038944 0.66819001 0.94614767
O 5.82688141 6.21486702 1.54698713 -0.02015111 0.04254585 0.34022637
O 18.38314242 0.00834703 1.54643025 0.00389950 1.42861308 -0.75494146
O 5.85087860 3.15622170 1.45708470 0.38581292 0.51720479 -0.06627827
O 18.37813518 3.10992414 1.46126045 1.41807119 -0.46205969 -0.24820862
O 4.38716131 6.18601851 7.22274028 0.36383449 -0.68523750 -0.28759633
O 17.01135997 0.06095542 7.22878026 0.03901241 -0.05553597 -1.20555389
O 4.43890048 3.04880299 7.24317773 0.24777207 1.26818192 0.14405852
O 17.02317403 3.05071235 7.28964009 -1.15882853 0.52838004 0.13607948
O 5.28686182 6.12759486 4.24012289 0.08364256 0.04816394 0.01867813
O 17.80536800 -0.01237032 4.38845588 -0.76731183 -1.40581936 -0.46224904
O 5.34060480 3.12525647 4.24779861 -1.38926596 0.12117635 0.55820984
O 17.82215870 3.07023881 4.29973894 1.12044861 -0.95392503 -0.85046306
O 3.78930788 6.22411321 9.98547949 1.21283340 1.73902790 -0.23028058
O 16.41621175 0.13931665 10.11701412 0.14993914 1.58784935 1.31636820
O 3.92430909 3.03988679 10.06058937 0.54724776 -1.17360701 0.10674368
O 16.49118137 3.01234043 10.06683609 0.22567667 -0.78189483 -1.28480850
159
Lattice="25.186624 0.000000 0.000000 0.000000 6.235865 0.000000 -2.809613 0.000000 11.545363" Properties=species:S:1:pos:R:3:force:R:3 Energy=-623.952632 Virial="-51.966523 3.613973 -2.056097 3.613973 -43.951249 -5.303071 -2.056097 -5.303071 -44.240124" O_vac_type=O_O2 O_vac_tier=low O_coord=3 defect_vacancy pbc="T T T"
Ga -0.05580336 -0.02303116 4.63227042 -0.50350474 -0.73494583 0.35632104
Ga 12.62532916 6.19500709 4.49308543 -0.03712567 -0.60049580 -1.75071897
Ga -0.06480701 3.09754467 4.48716939 -0.82703988 0.05771115 -0.20240398
Ga 12.65357349 3.11098892 4.54114343 -0.06050713 0.23966574 1.19884234
Ga -1.41081332 6.28840364 10.37434807 -0.62137181 0.09520983 0.55890318
Ga 11.22496002 6.23561553 10.43623801 0.28509136 -0.01336956 -0.98967819
Ga -1.36140817 3.14099139 10.41012371 0.16632208 0.34475125 0.55873526
Ga 11.20074362 3.12195504 10.27497228 -0.45268448 0.59568647 -1.40306452
Ga 11.19628938 0.04501561 1.11076897 -0.06170704 0.56321923 0.07273335
Ga 23.78664167 0.00011539 1.19088524 -0.48584876 0.39477749 1.87675573
Ga 11.11533569 3.16459165 1.20787520 0.94835643 0.41592009 0.17184026
Ga 23.81653439 3.15658780 1.13813254 -1.12333043 -0.85996544 -1.69268602
Ga 9.71911664 6.29287357 7.01694739 0.39137284 0.27774480 0.12996779
Ga 22.38640708 -0.08471439 6.97599440 1.06695580 0.25021561 -0.73624245
Ga 9.79122228 3.10201610 6.89897096 0.62473925 0.04673299 -0.50159670
Ga 22.45577964 3.11026578 7.02658462 0.63147085 -0.59386388 0.34187401
Ga 6.32263914 1.63561413 4.54130165 -0.06506139 0.29377625 1.19526297
Ga 18.88758758 1.57048298 4.59725775 -1.05767401 0.38742856 -0.26943655
Ga 6.32317870 4.61427019 4.60537428 0.09553204 -0.18841493 -1.44534201
Ga 18.91029346 4.65493326 4.57920123 -0.55763378 0.23639352 0.65783485
Ga 4.92398017 1.56736361 10.38183519 -0.39784410 -0.75869712 -0.34820166
Ga 17.49789086 1.56194053 10.40637453 0.59647540 -1.08862620 -0.06557829
Ga 4.84416143 4.57340492 10.42007549 -0.63156329 -0.73574445 -0.17668702
Ga 17.57397134 4.70774297 10.40017081 0.86516889 0.44610819 0.34783265
Ga 4.87821285 1.58121669 1.09713383 -0.52516617 0.45323977 -0.48522138
Ga 17.42242250 1.56114995 1.21253111 -1.35253318 0.73868568 0.86216211
Ga 4.79744764 4.59755873 1.21171379 -0.52009342 -0.08774016 -0.46002068
Ga 17.40560799 4.68586195 1.25936214 -1.08573176 -0.92635509 -0.10782481
Ga 3.41862040 1.49429450 6.90989815 0.46297606 -0.20762105 -0.23683950
Ga 16.07284823 1.62041701 7.02164147 -0.60547884 0.05081874 1.15531407
Ga 3.44475785 4.65153188 7.01511151 0.32633401 -0.77578011 -0.25024092
Ga 16.02023516 4.73199163 6.87243988 -0.94931885 0.24808337 -0.23841908
Ga 1.60644048 1.50750329 1.84175843 -0.90311534 0.60603650 0.59447962
Ga 14.03795741 1.58604031 1.84179122 -0.23679846 -1.10045653 -0.49230923
Ga 1.53587625 4.79551039 1.81519431 -1.67698776 0.88636825 -0.70000577
Ga 14.16625603 4.79178290 1.80402901 -0.04966936 -0.64348106 1.17929434
Ga 0.10292112 1.49215581 7.61346985 0.39205354 1.40649339 0.11003664
Ga 12.73734249 1.52066810 7.47248623 0.76731714 -0.71448664 -0.08197487
Ga 0.15246711 4.66755186 7.52463760 -0.88582730 -1.66606701 -0.91282233
Ga 12.76033789 4.71037073 7.63124250 0.71888921 -0.49013995 0.23392517
Ga 9.69358697 1.56710038 3.93039909 -0.89659071 -0.58801060 0.51438138
Ga 22.20171638 1.61901605 4.02799774 0.30501419 -0.53476359 -0.67710182
Ga 9.65677803 4.75197088 3.98792881 -0.77607862 0.26335308 -0.12493629
Ga 22.23312150 4.69964200 3.93993633 -0.59741904 0.76892949 0.47907154
Ga 8.12313119 1.58161254 9.67358134 0.08705691 -0.21518708 -0.14352983
Ga 20.78383529 1.56265865 9.68709129 -0.52085984 -0.27866591 0.80403116
Ga 8.23074186 4.63327012 9.70238287 -0.66520717 -1.37421811 -1.62208077
Ga 20.84743049 4.64486258 9.75579054 -0.28282213 0.26312626 0.28567374
Ga 7.82305599 0.04690304 1.89810346 0.69477414 -0.18448778 -1.07625493
Ga 20.48245229 0.00659697 1.79839838 1.05076295 -2.00031534 0.12856937
Ga 7.91600372 3.15123432 1.83124164 0.95714252 1.03277064 -0.14228643
Ga 20.42685864 3.14065052 1.77659394 0.21691053 1.06710403 0.14779426
Ga 6.49819600 0.01877097 7.57697957 -0.10771528 0.89855792 0.17881199
Ga 19.10857493 0.00841611 7.56818525 -0.24506665 -0.42801607 -0.35180003
Ga 6.56153523 3.11654140 7.52602367 0.28984590 0.90403332 -0.29582224
Ga 19.06180126 3.16264767 7.61500883 -0.25517716 -0.61191508 -0.18452991
Ga 3.34141555 0.12281971 3.92408759 -0.16783581 1.70700739 2.09088837
Ga 15.95042165 6.24576536 4.07461705 -0.42022858 0.28335743 -0.62938760
Ga 3.34479695 3.05473116 3.91317172 0.17844079 0.83975744 -0.11007776
Ga 16.03934485 3.10701684 3.89381941 -0.55844901 0.87124393 -0.93480110
Ga 1.88380020 -0.01848943 9.77008596 -0.05070062 -1.21734371 -0.61485490
Ga 14.54116445 6.26458193 9.76907996 0.99399082 -1.01498086 -0.78662034
Ga 1.98818671 3.03584933 9.70172712 0.84508015 0.30790643 1.25557911
Ga 14.59271066 3.15916384 9.76143563 -0.02385093 0.39688371 0.31977836
O 1.86682869 6.29614558 0.61736830 -1.72181748 -0.80048969 0.16303433
O 14.49141202 6.23148232 0.59953131 -0.35879618 0.34336763 0.00275034
O 1.84612631 3.20152863 0.60849374 1.15931071 -0.85484133 -0.80166250
O 14.40418912 3.20382779 0.54945451 0.12125253 0.88411892 -0.18018681
O 0.54252881 0.03719061 6.41617607 0.02577745 -0.91040880 -1.16633117
O 13.09797084 6.17671490 6.35635965 0.19177751 0.04430587 -0.03464684
O 0.59600397 3.04246962 6.45179608 -1.49657865 0.37349607 0.00309021
O 13.11745623 3.13022320 6.48362331 1.08154509 -0.27051802 -0.06885418
O 9.31223366 -0.04301844 5.11853591 -0.45046858 -0.21480133 0.65192130
O 21.87055891 0.06344945 5.13837269 -0.80620037 -0.64588702 -0.72548191
O 9.15865911 3.06642327 5.18864006 0.02892062 0.23185156 -1.30110557
O 21.86915891 3.11122772 5.18844097 -0.22642394 -0.25981221 -0.12717045
O 7.90383472 6.27548564 10.82645614 0.16706764 0.89924437 -1.56564546
O 20.59629522 6.29591634 10.87063331 0.11808060 -0.06973621 0.22898707
O 7.99175849 3.01978740 10.94461633 -0.35259390 -0.33811647 -0.90438598
O 20.45258403 3.05546421 10.99650016 -0.45571762 0.24274426 1.78131777
O 8.18524404 1.55234548 0.62208930 -1.00578423 -0.29918484 -0.50304818
O 20.79969462 1.57196969 0.60739085 0.02478592 -0.24135966 0.74636428
O 8.24369659 4.67224508 0.55782619 -0.31647479 -0.88398907 0.29767847
O 20.78329602 4.67842135 0.60680050 1.14850988 1.59510334 1.03978053
O 6.78743961 1.69208773 6.34342998 0.60044901 0.93552635 0.18390456
O 19.49757752 1.49732968 6.35101910 1.16280885 0.35407139 0.44128731
O 6.75245446 4.70041937 6.43150721 -0.20146227 -0.19552006 0.69103449
O 19.36119993 4.68800609 6.34074022 -1.96634336 -0.54953935 0.78597438
O 3.02880522 1.51794305 5.24784023 -0.84125526 0.17057404 0.21240607
O 15.64016029 1.53755222 5.14235867 -0.51048988 -0.65160600 -1.70910003
O 15.60051816 4.59032138 5.12897028 2.73793954 -1.51707181 0.61976057
O 1.51953134 1.58542055 10.95022403 -0.26066766 1.04847803 -0.29591323
O 14.16881849 1.54072450 10.88133097 0.26568207 -0.97785057 -1.28857710
O 1.62519453 4.74996992 10.90528439 -0.26842268 1.01758724 -0.62557168
O 14.15317593 4.69817301 10.97244096 -0.78273192 -0.33904965 0.50409214
O 1.31713447 6.24246040 3.23294204 0.36692772 1.32035279 0.34770712
O 14.08223377 -0.06259488 3.30967556 0.49078264 -0.80880306 -0.49047404
O 1.45055186 3.01828646 3.36664916 -0.46340003 0.42145421 0.97106360
O 13.99477489 3.11290867 3.28144189 1.12491405 0.76050235 0.56697273
O -0.06740349 -0.04812020 8.99317751 1.44149772 0.81093758 0.49618939
O 12.66617928 0.05714740 9.07827582 -0.80428781 -0.27703671 -0.38291128
O -0.02376597 3.07199112 9.04166580 1.30083865 0.54112984 -1.16560496
O 12.59443807 3.07474965 9.04378809 0.97388957 -0.72422918 0.29527959
O 9.69258399 6.29893490 2.37859160 0.54409596 -1.13367744 -0.43435062
O 22.36809793 6.23701411 2.54626801 0.09979698 -0.44591202 1.35483821
O 9.77872909 3.07693620 2.54665769 0.15298555 0.87850625 0.68353819
O 22.37081323 3.14341896 2.51581345 0.25381860 -1.36139446 -0.27440998
O 8.29599375 0.02448563 8.23201315 -0.57829103 0.73949586 0.66434450
O 20.95069512 6.27093625 8.36281880 1.22141067 1.00288433 1.01352343
O 8.40319061 3.16648876 8.27916577 -0.00859584 -1.05052502 0.21500058
O 21.03572986 3.16215754 8.36938391 0.13452303 0.08117682 0.64727337
O 7.69643468 1.55070342 3.21670135 -0.82678467 1.75403761 -0.21875480
O 20.23939218 1.53413080 3.21703734 -1.26180298 -0.20869856 -0.60785900
O 7.74141399 4.64274185 3.31320838 0.08281647 1.22587555 -0.87657759
O 20.24031807 4.73548053 3.23368790 -0.35521341 -0.67078773 1.01611195
O 6.28757612 1.69239763 9.07663033 -0.77725270 -0.42680333 1.75628206
O 18.85981777 1.67210389 9.00956561 0.38969482 0.10799736 -0.02365031
O 6.34615995 4.67305918 9.02778468 0.02993492 -0.39424259 0.10162627
O 18.84452107 4.64239982 9.10515632 -0.80482323 -0.79303780 0.94693862
O 3.38447403 1.57303423 2.56851277 0.67430014 0.84259406 -1.72655920
O 16.04817156 1.61753170 2.57182462 1.30047851 -0.45883649 -1.11763315
O 3.48182876 4.76698769 2.56932587 0.99803718 -0.66834585 0.83106049
O 16.09451736 4.64194171 2.45510125 -0.22307431 0.31798037 -1.14653864
O 2.00777000 1.54565071 8.34538054 -0.08076119 0.06057963 -0.99213411
O 14.66067246 1.58853150 8.30943183 1.10209410 -0.05061817 -0.32993482
O 2.11181460 4.64533201 8.34048157 1.51499396 1.22299568 0.54570774
O 14.66055768 4.64027373 8.27155779 0.10293583 1.08993817 -1.31217466
O 12.23006931 1.64722625 1.46319922 -0.35896073 -0.73218132 -0.98213891
O 24.77735205 1.59140086 1.53000096 -0.54128210 -0.69601381 0.89533616
O 12.12598399 4.70737589 1.55310823 0.44988569 -0.07765877 -0.46620304
O 24.87367024 4.67757031 1.57669981 -1.13817249 1.06053910 1.01409204
O 10.72347062 1.49701890 7.29766104 0.87755246 0.33512397 0.53902407
O 23.36050869 1.53520319 7.28654625 -0.28882569 0.66801564 -2.23326665
O 10.75258828 4.65143250 7.30717579 1.66688066 0.17513109 1.11328020
O 23.38715492 4.56112726 7.25757381 0.48043177 -0.86065173 0.67608712
O -1.02950965 1.47692746 4.31792334 -0.79375131 -0.03985643 0.69608576
O 11.58840315 1.39812791 4.31207521 1.10507255 -0.27066559 0.67926426
O -0.99045430 4.73065783 4.28896922 1.15529222 -0.53932753 0.87835332
O 11.53599798 4.70861990 4.43086607 1.25802021 -0.33906271 -0.63218234
O -2.37370262 1.53824199 10.07460468 -0.19826519 1.25961376 0.77898201
O 10.17240178 1.54323799 10.12390375 0.42341873 -0.61055262 -0.54003223
O -2.41255203 4.71103783 10.07712011 0.33887657 -0.66813641 -0.10852165
O 10.23410509 4.68419610 10.02614084 0.18048896 -0.74517123 -0.15350438
O 6.01129910 6.28183808 1.49110825 -0.27706185 0.39438439 0.91495931
O 18.38900821 -0.00227009 1.49038262 0.40261350 0.51754220 -0.57192966
O 5.90682161 3.18823886 1.51128331 -0.66088963 0.07378033 0.88438665
O 18.48206760 3.18866873 1.41596868 -0.81536843 0.94316217 0.75289352
O 4.55869392 6.22472619 7.28890847 0.94235798 0.66972045 0.46659019
O 17.06741887 -0.04577687 7.19475047 -0.59237317 0.52187464 0.50505075
O 4.54158527 3.16265830 7.19126416 -0.69556082 0.15871302 -0.82966009
O 17.00631281 3.05752745 7.16059878 -0.07309690 -0.18537378 1.68468794
O 5.35860516 6.27182946 4.39019432 2.50437175 0.58631178 -0.63958485
O 17.87274508 -0.04262670 4.29481404 -0.97538224 0.21483744 0.24754392
O 5.28118804 3.18372702 4.29131856 0.75192717 -0.53487278 0.45926585
O 17.92030195 3.12270677 4.33045559 -0.62841353 -0.95967702 -0.98869976
O 3.92942030 6.15460988 10.07211433 -0.76251181 -0.03427562 1.44842690
O 16.45045750 0.05875159 10.01502594 -0.32912159 -1.02126055 -0.40953301
O 3.87302321 3.19065299 10.03412138 -1.01671081 0.46786955 -1.08085877
O 16.47300039 3.14261242 10.12738400 -0.03605571 0.43699831 0.02691621
159
Lattice="24.814732 0.000000 0.000000 0.000000 6.143789 0.000000 -2.768128 0.000000 11.374891" Properties=species:S:1:pos:R:3:force:R:3 Energy=-623.571924 Virial="-58.553753 -0.460892 -3.206223 -0.460892 -48.236352 -3.546773 -3.206223 -3.546773 -43.825729" O_vac_type=O_O1 O_vac_tier=low O_coord=3 defect_vacancy pbc="T T T"
Ga -0.01627534 -0.02172388 4.49975160 -0.72355340 0.41045195 -0.68134026
Ga 12.29199573 6.07335868 4.61033308 -0.17453210 -0.26760530 0.97797046
Ga 0.06784043 3.01551036 4.56850261 1.12946340 -0.75661217 -1.01229353
Ga 12.37297853 3.13985429 4.50459642 -0.41304151 -0.84344913 0.64012690
Ga -1.38238086 6.16283976 10.08818878 0.32156078 0.61898000 0.95018644
Ga 10.96570835 6.20466342 10.23703645 -1.38089784 -0.55007401 0.71568035
Ga -1.35797074 3.18115281 10.18490744 -0.96600109 0.46821146 1.13402877
Ga 11.10148621 2.89567130 10.18638213 1.64851975 0.09481339 -0.47762727
Ga 11.03301811 0.01469539 1.24699396 -0.04352244 -0.10633579 0.39195646
Ga 23.40042066 0.01964521 1.13434788 0.60680113 0.14315193 -0.04686106
Ga 11.02876195 3.04956380 1.18833439 1.22305730 1.24374234 -1.28040462
Ga 23.41619344 3.06243486 1.14162895 0.79194334 -0.78393516 1.10100073
Ga 9.60873784 6.07840470 6.90492511 0.44829001 0.55240233 1.20912395
Ga 21.94733679 -0.04355614 6.81759051 -0.59880839 0.12740596 -0.42692190
Ga 9.51051745 3.04377679 6.86651890 0.44374826 0.58396418 1.38576623
Ga 22.09639021 3.02394838 6.81375222 0.14233911 0.24941972 -0.63641408
Ga 6.31363058 1.57561809 4.48371388 -0.07912196 1.55885490 -0.48479841
Ga 18.70790414 1.51761296 4.59345753 0.82711901 -1.35750781 -0.79215945
Ga 6.20593071 4.59221174 4.60225052 -1.10030148 0.46768397 -0.25688677
Ga 18.69012090 4.63659135 4.47344539 -0.02911202 -0.03444729 0.26526253
Ga 4.82571654 1.44197350 10.31403111 1.12425598 -0.13010353 0.47736497
Ga 17.20472798 1.52845941 10.17313324 1.12419125 -0.07951166 -0.84464114
Ga 4.73303164 4.69980666 10.20404432 -0.23586932 0.53178534 1.10673706
Ga 17.17242907 4.52771765 10.21631454 0.21098624 -0.02421692 0.49411118
Ga 4.79496154 1.60783127 1.19528328 -0.07492755 0.76665292 0.84452509
Ga 17.28203170 1.63448686 1.21961548 -0.22198662 0.68763424 -0.43571898
Ga 4.86971825 4.61962810 1.17423439 0.97818444 -0.67832244 1.55364213
Ga 17.17703915 4.68103266 1.15340254 1.07164333 0.60829804 0.23691387
Ga 3.51076395 1.44969904 6.90145343 -0.37669989 -1.14250758 0.79193875
Ga 15.88122966 1.62761742 6.73011640 -0.04124077 -0.61704601 -0.68815270
Ga 3.46423683 4.63415599 6.87827743 -0.69494061 -0.81769865 -0.06374620
Ga 15.93700040 4.63828943 6.84292403 0.74103549 1.01646352 0.76249989
Ga 1.48482662 1.55882963 1.71949435 -0.69641693 -0.33573557 0.37825801
Ga 14.05290451 1.51264438 1.75204208 0.21848842 -1.89137684 0.81787982
Ga 1.60745998 4.56753571 1.78780444 1.15011459 0.56599479 0.56599166
Ga 14.01138174 4.65760713 1.87044575 1.14285513 0.50816952 0.02486391
Ga 0.15885378 1.68186577 7.42278069 0.71772369 0.77620433 -0.80889151
Ga 12.60171940 1.46929857 7.45127011 -0.74764311 0.65208401 -0.77558464
Ga 0.21518381 4.52548941 7.42984397 0.55759598 1.30566548 1.05938284
Ga 12.53727430 4.55563146 7.45833341 -0.26652627 -1.70199172 0.15178784
Ga 9.51495354 1.60914338 3.91726021 -0.25696245 1.01554585 0.20890235
Ga 21.95418351 1.62805126 3.97064331 -0.59147135 -0.39286485 0.03701117
Ga 9.47532806 4.63864482 3.79265529 0.09374269 -0.28295122 -1.53575366
Ga 21.85362222 4.61677617 3.87830989 -1.19272375 0.10977862 -0.61865056
Ga 8.16801606 1.49387250 9.48544274 0.71590062 -1.59980876 0.41193046
Ga 20.50689197 1.51998721 9.52434578 0.30568951 -1.56968986 -0.48542304
Ga 8.04274610 4.61991046 9.67034769 0.79807812 0.47803989 -0.36995409
Ga 20.40669445 4.70891537 9.69780151 0.00416447 -0.52257260 -0.53298190
Ga 7.75628932 0.04541520 1.81843691 -0.39433594 1.88180189 -0.16714341
Ga 20.08888827 0.13279196 1.79455680 1.27962373 -0.06158632 0.50442297
Ga 7.73162735 3.14092757 1.71716758 1.47247916 -1.15287621 -0.53619272
Ga 20.20632299 2.96207793 1.84669029 -0.06715599 0.70601763 -1.08198243
Ga 6.41785299 0.04032105 7.42847331 -0.80784355 0.68113224 1.71654220
Ga 18.77098025 0.03472601 7.39650710 -0.16632058 -1.30406414 0.07922743
Ga 6.27487006 3.15634765 7.47686337 -0.39207534 -0.11371325 -0.70807718
Ga 18.75777009 3.04819760 7.49192787 -0.13888921 -0.25119709 0.24347301
Ga 3.32808171 0.05634188 3.91207156 -0.44512844 -0.14313204 -0.33775463
Ga 15.63812384 6.16805740 3.90113709 1.12073837 1.18538819 -0.02741196
Ga 3.25535650 2.95713107 3.90978109 0.74848606 -0.25580493 -0.42079652
Ga 15.74200605 3.03539991 3.94219306 -1.27152020 0.74690352 0.46189376
Ga 1.88930657 -0.07014503 9.57416864 -0.87095974 -1.07347685 -0.45382368
Ga 14.32743920 6.16392270 9.51452150 -1.71603254 0.29579304 0.42666407
Ga 1.79210023 3.01061474 9.63519885 1.39529981 -1.02113622 0.41816707
Ga 14.35767366 2.99306410 9.56865965 -0.43649725 -0.53081509 -0.71849593
O 1.95545202 6.16473009 0.63864852 0.31213164 -0.72507696 -1.12017523
O 14.18442960 6.13340930 0.58783935 -0.33445107 -0.15366672 -1.24820285
O 1.92015084 3.12871517 0.63542606 0.00600924 0.91397976 -0.94281400
O 14.27863471 2.98891039 0.66988900 -0.24722793 0.45910039 0.43108185
O 0.40575279 -0.00673982 6.35491350 0.72210411 -0.89808247 0.69074782
O 12.88143494 6.09585474 6.24417597 -0.28829413 -1.18661726 -0.01673005
O 0.51162898 3.10820217 6.40371714 -1.66364727 -0.22947274 1.14802865
O 9.13018437 0.07220775 4.95513185 -0.13224815 0.95837977 0.39706776
O 21.54050949 0.08485273 5.07155656 -1.37853590 -0.34655113 -0.53361856
O 9.22250563 3.04311447 5.04962286 -0.82322773 -0.38218185 0.76370943
O 21.59946319 3.05141007 4.95837052 -0.79448453 -0.38485974 -0.98907663
O 7.72514274 6.18653597 10.75923329 -1.52251518 1.21812008 0.12839956
O 20.24380776 6.05742716 10.80522902 0.28300309 0.35371425 0.43390894
O 7.77623443 3.02769167 10.74725309 0.55908843 -0.13086938 0.94875855
O 20.16758278 2.96384727 10.70220068 -0.15840891 -0.42885945 0.78550582
O 8.08945999 1.55416975 0.66174752 0.76064875 -0.28323163 0.49762168
O 20.43403732 1.49064237 0.55285903 -0.52216331 -0.01917329 -0.91464999
O 8.10761503 4.52702633 0.54960208 0.06240693 -0.87234269 0.07143119
O 20.43151636 4.65046475 0.62686448 0.24540849 0.31579318 -0.24037323
O 6.66116729 1.52386245 6.33039002 -0.44531068 -0.13899597 0.11745950
O 19.06386963 1.54693300 6.38033150 -0.01365785 -0.73341995 0.41515077
O 6.72828567 4.61376071 6.36021786 -0.10701583 -0.79217681 0.65225147
O 18.96392006 4.62938348 6.35937749 1.13678484 1.36602406 -0.29212836
O 3.02838910 1.47512382 5.07422708 1.69275118 0.34065678 1.75369904
O 15.36433945 1.48441372 5.20907259 -0.63537823 0.78278997 -1.12829818
O 2.98856677 4.54483704 5.06566566 0.12295099 1.47740753 -1.35724955
O 15.34889350 4.49128727 4.97809133 1.59684825 0.36119236 0.51045539
O 1.53033025 1.57264465 10.79065082 -1.59822501 -1.35960968 -1.32066341
O 13.92777378 1.46325415 10.86786331 0.36259434 -0.57684135 -0.66082954
O 1.65793341 4.55174177 10.65741850 0.44481569 -0.42408487 -0.60112094
O 14.02675125 4.65165791 10.79668326 -1.40684936 0.79042253 -1.51236014
O 1.34800667 6.11377662 3.17632276 -0.32236055 -0.17116742 -0.42474569
O 13.70048738 -0.03881643 3.18829750 -1.23652625 0.18689712 0.26562649
O 1.26722235 3.21637603 3.22609359 0.62517137 0.97042285 -0.37287306
O 13.74855698 3.04739736 3.22797795 -0.50266326 2.28797158 -0.21390002
O -0.01041313 0.12348097 8.94403351 -0.55945966 -2.07743008 0.69919007
O 12.45581889 -0.02203337 8.86366481 0.36769955 0.78325894 -0.55664057
O -0.07303188 3.00610111 8.87841826 0.93146813 -1.18901467 0.46727806
O 12.44392227 3.12623979 8.87634327 -0.62834747 -1.11789563 -1.16016696
O 9.66728609 6.13429309 2.44558129 0.14790569 -0.71234972 0.93452709
O 22.07509667 6.16016864 2.47114398 -0.99091258 -0.27916893 0.27309523
O 9.68439855 3.09832053 2.49172234 -0.00196384 0.52569809 -0.57058984
O 22.18413779 3.13295509 2.43765807 -0.90284047 -0.01580924 -1.77586952
O 8.37962758 -0.00750877 8.11125833 -0.41158164 0.67272838 -0.06311390
O 20.68765796 6.15170068 8.14059615 -0.36974729 0.68810845 0.38715455
O 8.18137561 3.12788352 8.07884764 0.80411797 -0.24149946 -0.05088380
O 20.70949537 3.00936570 8.10526667 0.85917969 -0.76138198 0.42689554
O 7.53260461 1.64687472 3.20803015 -2.97163079 0.23878388 0.80775762
O 19.99770022 1.58767220 3.21884805 -0.17023942 -0.39428647 0.42876229
O 7.65273358 4.60501725 3.20181058 -1.08555566 1.10922288 0.28019564
O 19.92971713 4.57261040 3.22208300 -0.57097461 0.12404788 -1.43546350
O 6.18858266 1.53567630 8.97707698 0.41077308 1.36146732 0.30499045
O 18.69094477 1.49306600 8.98289989 1.59462052 1.23262801 -0.54585065
O 6.23427205 4.57267468 8.94086326 -0.01482210 -0.09739458 1.35036817
O 18.61295012 4.65794448 8.86163548 1.29942603 1.86778050 -0.32790062
O 3.46479863 1.44939686 2.42664528 0.21239123 1.35224301 -0.34190427
O 15.92070627 1.51357131 2.41500647 1.17659449 -0.94204465 0.33671004
O 3.46141504 4.55998635 2.46180301 -0.07435472 0.51100197 0.09120928
O 15.83520805 4.61726130 2.41925146 -0.46865714 -1.10291139 -1.14467358
O 2.07474996 1.48703573 8.14980805 0.06369518 -0.24605000 -1.30643431
O 14.34029498 1.51385985 8.11583937 -0.74267284 -0.13519900 -0.85051847
O 2.04478077 4.67209818 8.19663716 0.35375146 -0.63434687 -0.81969355
O 14.37300562 4.58231638 8.07298397 0.40817955 -0.70233339 0.57703512
O 12.00161862 1.51958536 1.39580664 -0.69417904 0.46716367 -0.47072316
O 24.39195103 1.62244697 1.40420101 0.91629310 -0.64616097 -1.14669080
O 12.06444982 4.58519114 1.43671391 0.09341918 0.02779306 -0.26080556
O 24.34878019 4.64763347 1.49352735 0.59085611 -0.49957198 0.88806494
O 10.66919962 1.50788997 7.20869139 1.01265890 0.83831016 -0.23421250
O 23.02690971 1.55840028 7.19569341 -0.32278134 0.89145068 0.66523841
O 10.49641441 4.58702423 7.18897348 0.06912844 -0.65427003 0.44654914
O 23.11668610 4.60437736 7.22224348 1.22841823 -1.38922376 0.14204950
O -0.85063825 1.63621296 4.19268312 0.94335553 0.58737311 -0.15376565
O 11.38275885 1.51586264 4.17135088 -0.01217487 -0.33752558 0.15440495
O -1.06734967 4.60995911 4.28004343 0.68866456 -0.11379932 -0.69782182
O 11.46316313 4.58875592 4.15972132 1.16272462 -0.96999932 1.54018071
O -2.32122005 1.53404523 9.84912996 -0.50850510 1.26031648 0.33845941
O 10.07732047 1.60188934 9.96064861 0.02403832 0.20068053 0.24892090
O -2.32109122 4.65245091 9.82897068 0.65666940 0.93376180 -0.13480612
O 9.98439561 4.51739609 9.97879390 0.18750206 -0.73207469 1.10180425
O 5.82245905 6.22321082 1.42545724 0.17196078 -1.82247439 0.34903063
O 18.24728884 -0.01887270 1.50650770 -0.42507704 -0.10312399 1.84925216
O 5.90281752 3.18497633 1.31409186 0.30930079 -0.47211326 0.92482210
O 18.15627938 3.16785643 1.43215150 0.17586051 -0.44680947 -1.10040248
O 4.49693283 6.13405376 7.23656522 -0.04394542 -0.24990599 -0.87382105
O 16.82571506 0.00862274 7.14636866 -1.15326721 0.52131351 -1.25211579
O 4.50597039 3.09452475 7.17210115 0.28806762 -0.00277944 -0.06826265
O 16.78507300 2.98465604 7.12293879 -0.39260389 -0.51820859 0.35654815
O 5.22705131 6.16852273 4.28922091 -0.68995533 -0.69853942 -0.38987334
O 17.62686133 0.03923710 4.22327538 0.38069138 -0.97203726 -0.08575936
O 5.26811665 3.19576613 4.29401545 -1.64673898 0.77669116 -0.06632270
O 17.61426597 3.03685080 4.38443478 -0.40873690 1.79640207 0.09575454
O 3.79582810 6.19015326 9.89208854 -0.38567955 -0.58919180 -1.05078372
O 16.25309069 0.01607500 10.06789192 -0.96340250 -0.02612829 -0.04141987
O 3.95350662 2.96395552 9.94095048 -0.28279207 1.22641400 0.44607141
O 16.14840607 2.87447798 9.86745228 -1.37639839 0.70855503 1.10552523
159
Lattice="24.971303 0.000000 0.000000 0.000000 6.182554 0.000000 -2.785594 0.000000 11.446662" Properties=species:S:1:pos:R:3:force:R:3 Energy=-625.169058 Virial="-54.079961 0.548082 -0.141942 0.548082 -47.983789 -4.246557 -0.141942 -4.246557 -39.063068" O_vac_type=O_O1 O_vac_tier=low O_coord=3 defect_vacancy pbc="T T T"
Ga -0.09957503 0.07105993 4.65567731 0.74347395 0.23793278 1.26801928
Ga 12.49133407 6.07315117 4.40339768 1.47427727 0.01742835 -0.53228361
Ga -0.00613117 3.18803602 4.46403294 0.86306977 -0.38472918 0.18881723
Ga 12.44208945 3.21917588 4.54077765 -0.16970885 0.40636914 0.59688847
Ga -1.49451275 6.14905261 10.24712001 -1.27558831 -1.63994471 0.65818905
Ga 11.14987278 6.20928126 10.19056854 0.70908543 0.08084748 0.18663328
Ga -1.39638371 3.02528137 10.18981425 0.07439023 0.32558345 -0.57870553
Ga 10.95997741 3.19678624 10.24881620 0.06850360 0.96370120 -1.10747407
Ga 11.00732515 0.15960878 1.20789084 0.62249213 0.41366166 0.63188748
Ga 23.49621239 0.04805394 1.20496618 -0.01630538 -1.23076734 -0.14425443
Ga 11.10846961 3.11821251 1.11063497 0.90919758 -0.11346369 -0.51563091
Ga 23.49598131 3.08118330 1.22715982 -0.19726302 0.38726581 -0.07983008
Ga 9.72986198 6.15140135 6.92127300 1.54642423 -0.57338589 -0.64627265
Ga 22.21623777 0.02409115 6.79467609 0.00436808 -0.42228943 -0.55245544
Ga 9.63537281 3.07619107 6.95912213 -0.44456425 1.67707016 -0.14152490
Ga 22.17579867 3.18351589 6.85754150 -0.51840657 -0.70332875 -0.75830057
Ga 6.22568840 1.55632680 4.61649609 0.09753305 -0.47277642 -0.29042631
Ga 18.69052332 1.39862723 4.52180061 0.86454255 1.87286632 -0.93648409
Ga 6.38638340 4.71760691 4.55178234 -0.53889226 -1.59739962 -0.61428249
Ga 18.79761006 4.69429334 4.55292469 -0.41551890 0.06489278 -0.48125132
Ga 4.88535033 1.49661556 10.26594865 0.80806188 0.29625882 1.57987039
Ga 17.35210776 1.50846019 10.32696964 -0.52322977 2.02000182 -1.03213557
Ga 4.79254882 4.68264003 10.26545017 -0.36717144 0.15979200 0.03481062
Ga 17.28945445 4.69472916 10.22361591 0.81243396 -0.21792290 -0.33448113
Ga 4.88073087 1.37193486 1.14129634 -0.19839993 -0.44072002 0.60811817
Ga 17.20001426 1.52153009 0.98841525 0.58402633 -0.08302618 -0.20291996
Ga 4.72638065 4.63508665 1.30925443 0.74319809 -0.86899811 -0.10332709
Ga 17.40962127 4.68363901 1.21891524 -0.12635516 0.33827454 1.63800515
Ga 3.52413318 1.58447046 6.98591726 -0.44896602 -0.83853975 0.40733124
Ga 15.99336869 1.55188574 6.91326756 -0.42031250 0.45003189 0.41961369
Ga 3.45635833 4.67218061 6.92205929 -1.11775976 0.24403948 -1.33395480
Ga 15.85919780 4.63349485 6.91013830 -0.35180336 -0.09403350 -0.74949418
Ga 1.56522238 1.39647769 1.79093538 -0.92931145 0.54423281 0.05947296
Ga 14.00963029 1.49048030 1.99276542 0.25118632 0.27260871 -0.56507648
Ga 1.59844265 4.53244512 1.77136021 1.65334399 0.68022590 -1.55105927
Ga 13.88102940 4.57604899 1.85784015 -1.32580419 1.57029698 0.45929289
Ga -0.00424534 1.50775926 7.59985257 0.45716791 -0.24049665 0.01408920
Ga 12.72900838 1.53972079 7.54758693 -2.68272556 0.67268972 0.10560893
Ga 0.21990561 4.63080598 7.58371405 -0.92375032 0.29435721 0.16449787
Ga 12.75617457 4.61629910 7.40384622 -1.79677506 0.71254072 1.36081396
Ga 9.56736656 1.66483237 3.85517024 -0.12848202 0.06323132 -0.50087293
Ga 22.03738220 1.48213686 3.92489487 1.15764291 -0.22869414 0.79444960
Ga 9.55490139 4.58816691 3.98747288 -1.92433668 1.41742833 -0.96773569
Ga 22.10100829 4.58903601 3.87143593 -1.19476768 -1.02179070 1.32571059
Ga 8.19748047 1.66629064 9.77243000 -0.01774042 0.54348888 0.29062633
Ga 20.61898347 1.60882744 9.68377772 0.55617594 -0.59259214 1.86015500
Ga 8.26829079 4.61446801 9.70062619 -1.02786731 -1.03332353 -1.48393105
Ga 20.68255750 4.68358003 9.66327148 -0.28681283 -0.19471958 1.35869674
Ga 7.73206070 -0.06392650 1.76557427 -0.35223986 -0.36202853 -0.12456786
Ga 20.29446326 0.09983488 1.77212016 0.75972069 -0.61458214 0.25297066
Ga 7.79597891 3.12214055 1.93040313 -0.22471619 -0.36478321 -0.51607173
Ga 20.25475347 3.09618468 1.64470708 1.71406619 0.54697671 -0.51368321
Ga 6.47820151 -0.00230946 7.50582142 -1.12996378 0.00305231 0.22613245
Ga 18.79704180 -0.02553391 7.58994606 0.86454996 -0.34099650 -0.63072227
Ga 6.41196888 3.18637899 7.55773150 0.03546338 1.26257518 -1.00891197
Ga 18.87727631 3.08015774 7.43821143 1.21486693 -0.05814345 -1.97475100
Ga 3.36658332 0.11797195 3.90584760 -0.26464085 -0.38039843 0.21041205
Ga 15.65999723 6.19839440 3.93510528 1.78554776 1.05894599 0.29140853
Ga 3.19362793 2.99675955 3.98302299 -0.99244579 0.37323308 1.32601206
Ga 15.78737949 3.05217074 3.96958090 -0.27332228 -0.49688634 -0.31538145
Ga 1.97256081 0.10515253 9.64873303 -0.58468849 0.07984613 -0.73362169
Ga 14.45547787 6.16685320 9.72583221 0.13123546 -0.28992867 0.79562706
Ga 1.89861942 3.02441774 9.66816205 0.87578871 0.43882818 0.36501467
Ga 14.51666911 3.12081107 9.61481428 -1.18883144 0.09071179 -0.38004569
O 1.81914688 6.19182800 0.61382726 0.05077943 -0.36850327 0.68158563
O 14.23474001 6.09068341 0.70510816 -0.53548981 -2.00155243 0.70056093
O 1.87394706 3.10290604 0.50098874 -0.51472137 -0.62544020 -0.76585800
O 14.45588941 3.10745561 0.59781586 1.49111387 -0.53730617 0.32221917
O 0.47421834 0.10410025 6.35262985 -0.28985123 -1.43982621 1.62353740
O 13.01270441 6.14168097 6.49054879 0.14730066 1.18787507 -0.78460770
O 0.49643170 3.24361978 6.43902064 2.55485653 0.61620434 0.27991175
O 12.93281299 2.98075525 6.36242118 -1.25659885 0.19458744 0.01265356
O 9.11671719 -0.04190190 4.99213249 1.20841863 -0.90813990 -1.06679662
O 21.76220520 0.12692042 4.95839190 -0.36295897 -0.37724020 -0.23042999
O 9.20538802 3.23615511 5.23976613 0.23621013 0.04711251 -0.79230810
O 21.74947436 3.17321317 5.01133500 -0.53430478 0.55600999 0.04999978
O 7.81700713 6.20301765 10.82751224 0.21587860 -0.70194462 0.34044878
O 20.35209243 6.32020809 10.92714658 -0.09124692 -0.35286965 -0.07965716
O 7.69195011 2.98605598 10.78940731 -0.22308378 -0.89691991 -0.75114704
O 20.23994817 3.07508877 10.94189196 -0.74694971 0.18920654 0.81425644
O 8.00479671 1.55776083 0.54582959 0.46411545 1.37605592 1.78387422
O 20.74094739 1.50497628 0.60936125 1.13186918 0.70534241 -0.44512404
O 8.16392360 4.68846709 0.57286907 0.16530145 0.81422067 0.80597167
O 20.69318603 4.53766966 0.61354691 -0.68121941 -0.16854056 -1.00893787
O 6.75363441 1.52651551 6.35927717 0.55936993 1.08582075 1.35738171
O 19.15476102 1.62909164 6.28593299 0.09955403 -0.33176415 -0.37711733
O 6.66737287 4.65535668 6.34432818 -0.07472276 0.01435664 0.86193150
O 19.24554606 4.66646933 6.35199536 -0.24092592 -1.13367647 -0.79763614
O 2.84172367 1.48511379 5.16875587 -0.22330230 0.20044862 -0.43116111
O 15.40632629 1.56974964 5.09582147 0.03526671 -1.46895205 0.17683965
O 3.02925679 4.60737230 5.05397887 -0.35907871 0.24682845 -0.00417075
O 15.52189575 4.53967910 5.15608029 0.83835696 -0.10225811 2.10661210
O 1.56698339 1.46085007 10.83912254 -0.71327770 -0.82601049 0.07564607
O 14.15679292 1.54316085 10.74264988 1.95992106 -1.39462898 0.73742131
O 1.67324191 4.55139054 10.74222611 -1.95516694 -0.77820098 -0.72958443
O 14.06065629 4.75255393 10.80813027 -2.03198222 -0.37090256 0.86689075
O 1.31441153 6.10937145 3.27469998 -0.91519210 -0.12918735 0.77791426
O 13.93520229 -0.02699823 3.24695028 -0.43491210 -0.48663190 0.84482872
O 1.34268860 3.16182898 3.17806535 -0.35860612 0.88241171 -0.29742347
O 13.86120812 2.97706998 3.19932785 -0.73969590 -0.75913339 -0.05950462
O 0.05257973 0.04348988 8.94416229 0.10804296 0.57495859 0.68410768
O 12.41684288 -0.14584915 9.11465380 0.24041503 -0.41864932 -1.31549937
O -0.08444052 3.07255518 8.86346726 2.05976878 1.07577896 0.82651582
O 12.49881773 2.93926228 9.01509212 -0.34795943 -0.51208506 -0.05477340
O 9.73397141 6.03835932 2.51888516 -0.99436158 0.23913339 0.29084263
O 22.12085988 6.07978957 2.54023760 -0.27073039 0.45729664 0.14785822
O 9.81652103 3.11936883 2.47630570 -0.86549395 0.24105357 0.55263415
O 22.22117148 3.05129843 2.52527989 -0.28753395 0.50776683 1.14626338
O 8.32013647 -0.08884229 8.23981011 -0.73541569 1.24110455 -1.00592410
O 20.65823601 6.23229576 8.28593650 0.20346099 -0.36205080 0.74205544
O 8.34757502 3.08837912 8.16996828 0.49147321 0.31513760 0.61744689
O 20.64748792 3.21275040 8.25169512 -0.05733057 0.95054056 -1.08994137
O 7.54871199 1.49867474 3.23281584 0.87202016 0.31347188 0.28920395
O 20.05219013 1.62471058 3.28443598 -0.22064093 0.19768107 -1.64073112
O 7.60962255 4.65938504 3.14348032 0.92166555 -0.55642601 0.66589136
O 20.15460854 4.69325510 3.17254928 -0.56257965 0.57536383 0.59415946
O 6.16275415 1.52638817 8.86121651 0.20178297 0.68304813 0.03890375
O 18.56703338 1.60076308 8.84382418 0.99209057 -0.12393071 -1.07529875
O 6.44408713 4.69498983 8.93037482 1.02048079 0.03467238 -0.36753282
O 18.77051346 4.64949812 9.03390586 0.13709955 1.41000985 -0.38696519
O 3.48664301 1.63946327 2.50541062 1.09526545 -1.68935017 -0.35894438
O 16.01415130 1.57086715 2.55418537 -0.08437699 -0.79916908 -0.79094723
O 3.33571203 4.54551806 2.49118568 0.04952157 -0.44476835 -0.40474485
O 15.97433379 4.70084853 2.38930408 -0.61947388 1.90979619 -0.45651196
O 2.11942912 1.66159782 8.32987002 -0.22686115 0.75949151 -0.15726257
O 14.52998823 1.48636730 8.13373013 0.37854609 1.40964138 0.93389746
O 2.19177681 4.70420282 8.28957399 -0.13917273 -1.11167412 -0.84606071
O 14.69828165 4.55157040 8.14976053 -0.60784473 1.09849172 -1.31253745
O 12.12498522 1.45070030 1.40514712 0.07811855 -1.57324321 -1.02870052
O 24.55733388 1.48227775 1.64382488 0.23265146 0.36665587 1.10165996
O 12.14211194 4.67423668 1.53636019 0.46954911 1.15556738 0.17383710
O 24.47413093 4.72880342 1.55789377 0.83817095 -0.62772777 -0.44723744
O 10.72168102 1.45497497 7.23122134 1.06817569 1.11356903 0.51484883
O 23.14247266 1.51780410 7.11888420 0.31446876 0.76505345 -1.45911533
O 10.77950140 4.52179995 7.31580179 0.59254821 -0.06663187 -1.16727683
O 23.20302697 4.55264740 7.20562474 0.08564454 -0.36107786 -0.93036605
O -1.02221488 1.57685450 4.23541775 1.26607780 0.00812691 1.30126885
O 11.57818390 1.59496816 4.36317764 -0.27004840 -0.68076488 0.27154765
O -1.13635636 4.71206557 4.17966516 -0.45629216 -0.20328044 -0.01380476
O 11.50140265 4.63437983 4.27467602 -0.74412557 -0.06948702 -0.95773560
O -2.28036281 1.61197911 9.94563534 -1.30217274 -0.20459655 0.07299207
O 10.12461317 1.56041059 9.95496022 1.00676267 -1.23336090 -0.05862524
O -2.44820596 4.59567036 10.10375915 -0.36473176 -0.29082363 0.26022362
O 10.08400246 4.48711245 9.98769305 -1.28888366 0.51105431 1.22367090
O 5.73405615 6.19362386 1.40452579 -0.50748267 -0.26952784 1.05422723
O 18.37525445 -0.15086025 1.38792843 -0.99344950 1.76308186 -0.80182331
O 5.88203689 3.03768866 1.51230443 -0.66270672 0.60128470 0.02414459
O 18.38189085 3.11267221 1.42711140 0.89449960 0.04167868 0.38935060
O 4.49740405 6.15525640 7.08556221 0.89302920 -1.33635838 0.38466389
O 16.95988036 -0.02432035 7.17673748 -0.01910605 -0.36278027 0.33412918
O 4.51224807 3.16402706 7.21635252 -0.66737242 -0.29205215 0.05952544
O 16.92679721 3.11974832 7.29153863 0.28461578 -1.74529759 -0.39771640
O 5.28305136 6.27395842 4.22761556 0.03286914 1.82525141 0.88000481
O 17.69102201 -0.01548563 4.31705656 1.14937430 -0.63855372 -0.90690961
O 5.21072949 3.15563860 4.24388291 -1.20360178 -1.20640134 -0.70819103
O 3.67580524 6.12544814 9.87338467 -0.01385407 -0.24515407 -0.40896436
O 16.44254628 0.08885970 10.13174713 -0.20944411 -0.16243031 -0.33921019
O 3.74337346 3.01878356 10.12537192 0.93160031 -0.35423465 0.78467227
O 16.31763763 3.18541451 10.00488171 -0.06413410 -0.84132386 0.85252952
159
Lattice="24.980211 0.000000 0.000000 0.000000 6.184760 0.000000 -2.786588 0.000000 11.450745" Properties=species:S:1:pos:R:3:force:R:3 Energy=-623.514912 Virial="-54.777372 0.229706 -1.588992 0.229706 -44.953657 -4.686293 -1.588992 -4.686293 -41.449924" O_vac_type=O_O3 O_vac_tier=low O_coord=4 defect_vacancy pbc="T T T"
Ga 0.01230089 0.02058592 4.53700847 -0.93929529 1.19907415 -0.68920303
Ga 12.58468896 6.14562735 4.52257235 1.12512148 0.12848259 -0.21027372
Ga -0.01827107 3.10009302 4.68918125 -0.00598565 -0.13901509 -0.31131845
Ga 12.38084060 3.01698926 4.54085624 0.66602242 -0.72222397 -0.52689552
Ga -1.42880762 6.18215361 10.31641266 -0.17770785 0.18105677 1.09645146
Ga 11.06327476 6.18701588 10.27557436 0.48293103 0.20539963 -0.94009681
Ga -1.43892067 3.07573804 10.26631845 -0.16038731 -1.30019762 0.24632793
Ga 11.05906844 3.14848404 10.23134029 0.07262306 -0.17505065 0.12157443
Ga 11.06735151 -0.05549227 1.13815051 -0.73514701 1.08130805 -0.06270009
Ga 23.54571070 -0.12289191 1.22194675 1.05984143 -0.37828722 -1.13817242
Ga 11.00248008 3.11613502 1.19466691 0.40445802 -0.40532642 -0.01125826
Ga 23.61386068 3.06666180 1.21864679 1.72890589 1.19120445 0.83951563
Ga 9.61775627 6.10133000 6.93603354 0.41122547 0.13420838 -0.07181018
Ga 22.08920676 0.05704860 6.87369702 -1.64377422 -0.30245837 -0.87741941
Ga 9.77085114 3.10636731 6.90446095 0.69012743 0.87620733 1.09569576
Ga 22.17073311 3.08873711 6.78924339 0.00138651 1.30416580 -0.17815800
Ga 6.22076672 1.61512536 4.58548276 -1.05881745 0.04486406 0.33651743
Ga 18.73934555 1.55203088 4.61053871 0.16472457 0.12233327 0.45310677
Ga 6.26939415 4.61055976 4.53661371 -1.19483639 -0.54854772 0.79650642
Ga 18.89961967 4.65354896 4.56048800 0.01982848 0.57139985 0.17827102
Ga 4.85675017 1.54927202 10.23210364 -0.59636123 0.07208998 -0.89619911
Ga 17.31314158 1.46015863 10.31811818 -1.76031693 -0.05495016 1.12617548
Ga 4.83338729 4.64754255 10.30945228 0.48807490 0.10965769 0.25580894
Ga 17.34260765 4.69075072 10.28461335 0.10878297 -0.35442996 -0.19249205
Ga 4.85951704 1.49246927 1.20484018 1.76576683 -0.04767995 -0.89112982
Ga 17.29512024 1.62632616 1.08724411 -1.02181983 -0.59319515 -0.89429780
Ga 4.91004542 4.58080170 1.19640055 -1.09525106 0.73639531 -0.53362214
Ga 17.41505699 4.60612700 1.19199684 -0.42049627 -0.55876782 -1.57777094
Ga 3.42209700 1.55090540 6.77380480 -0.44831711 -0.75650676 -1.16957977
Ga 15.99688921 1.56816523 6.92997238 -0.17844456 1.38396763 1.52552916
Ga 3.48074698 4.61310026 6.88944652 0.48927275 -0.17036575 0.82173927
Ga 16.03382962 4.61908350 6.83823516 0.80186768 1.04761971 0.51486050
Ga 1.59904832 1.59306022 1.80007503 0.44249399 -0.98545561 0.65721705
Ga 14.08778462 1.34639843 1.81949381 -0.57003577 -0.20227738 0.16974747
Ga 1.53251193 4.61312987 1.77900537 -0.58586075 0.52216918 0.35019772
Ga 14.05860955 4.69106204 1.78527248 0.08123855 -0.60670607 -1.14726080
Ga 0.16122305 1.57329130 7.43652947 0.86098874 0.34303123 0.71254226
Ga 12.66872134 1.56554313 7.47602918 -0.02987671 0.26745316 -1.07127500
Ga 0.22471276 4.65961439 7.42848595 -0.24963506 -0.64786562 0.30329091
Ga 12.58582493 4.61713489 7.64419200 0.46271090 0.50982810 0.08851024
Ga 9.55748647 1.60616405 3.79936314 -0.22805619 0.01747976 -0.39877061
Ga 22.02003546 1.62515756 3.97386937 -0.54153972 1.60768602 1.47094999
Ga 9.53984225 4.57120962 3.86968316 -0.79703252 1.19585154 -0.86647887
Ga 22.06216441 4.68541770 3.89000041 0.63970801 -1.20309765 -0.08488330
Ga 8.06158249 1.54157450 9.64286939 -1.85042878 -0.06290920 -0.76082240
Ga 20.57894375 1.51728113 9.66397177 -0.36689731 -0.53487655 -0.04867195
Ga 8.11215509 4.68299582 9.59787165 -1.12755529 0.27086432 -0.25726972
Ga 20.54759580 4.68927939 9.63773023 0.05259397 1.15260432 0.50326929
Ga 7.64026610 -0.02805696 1.69771913 0.44499571 -0.60183945 -0.01828574
Ga 20.40531534 -0.00857181 1.79907344 -0.30061892 0.39532002 -0.03982892
Ga 7.83393488 3.15263304 1.78125111 -1.42654736 -0.96557360 0.43493079
Ga 20.23756359 3.15886691 1.76416752 -0.41886768 -0.37789100 0.65235825
Ga 6.39767656 0.08215555 7.52969350 -0.36952600 -0.27447124 0.28748947
Ga 18.82552652 0.08704927 7.55438600 0.72668139 -0.24127764 -0.75079340
Ga 6.45048099 3.09138339 7.54717860 0.00150125 -0.63566672 0.99316853
Ga 18.87903406 3.04430713 7.52967626 -1.00878865 0.88683574 -1.13825464
Ga 3.31913931 -0.08407370 3.93893425 0.88351413 -0.41091194 1.59042303
Ga 15.72799362 6.23251956 3.96827709 0.50121245 0.64052745 0.08115390
Ga 3.26987321 3.09376846 3.90677768 -0.46672744 -0.08034413 0.18582424
Ga 15.75600208 3.13146741 3.88408672 0.40865919 -0.74356812 -0.12023046
Ga 2.01476911 0.01572733 9.68803152 -0.09216019 1.17235342 -0.22554727
Ga 14.32804741 6.20516512 9.70207948 -1.49038304 -0.68349263 -0.97460259
Ga 2.04507099 3.14281445 9.66670386 -0.10726467 0.07240524 -1.37063871
Ga 14.42824255 3.08229465 9.69890664 0.21023632 0.79685126 -1.65500991
O 1.94356640 6.23386943 0.56702802 -0.40607268 -0.62868929 1.03349083
O 14.31005374 6.13913546 0.59795254 0.27838448 -0.29459105 -0.42941720
O 1.87123027 3.09958768 0.55448708 0.77482561 -0.14919901 -0.82766535
O 14.42183319 3.08484508 0.71791318 -0.31593372 0.88008669 0.55308997
O 0.50503608 0.03297354 6.25197743 0.01602167 0.09974949 -0.45592338
O 13.06373973 6.15847994 6.32110110 0.63662820 -0.52024885 -0.32048192
O 0.43117266 3.15421896 6.37172282 0.64385623 -0.82423208 0.17502867
O 12.91290634 3.09145961 6.44356421 -0.33456547 0.76856126 -0.70948702
O 9.19819929 0.00963486 5.09561247 0.44566502 -0.41400018 0.10214831
O 21.68449477 -0.07887212 5.10621004 -0.13208997 -1.17345853 -1.55986075
O 9.27829564 3.07226970 5.22097975 1.12067491 -0.21694335 -0.95557701
O 21.77520104 3.06303345 5.09380331 0.53811735 0.46071272 0.94058920
O 7.82518269 6.24600181 10.96541116 -0.44499798 -0.52235992 -0.97607371
O 20.28698009 6.12351024 10.77672986 0.18496311 0.68529725 -1.77550813
O 7.77313249 3.10036600 10.80817437 -1.28249599 0.00872978 0.26239059
O 20.25118873 3.00600767 10.82062418 -1.03946417 -0.24504937 0.31605341
O 7.97562051 1.59887264 0.61458756 -0.12491876 0.11582323 1.45605968
O 20.62973981 1.50839355 0.62263992 0.59777302 -0.86861751 0.21378899
O 8.14217650 4.70641353 0.72953493 -0.98554227 0.77269220 0.67936461
O 20.61455332 4.68769366 0.61631804 0.32106002 0.07619066 0.77526840
O 6.64211960 1.54344684 6.34330743 0.57157379 0.85437734 0.83404188
O 19.22367750 1.49488044 6.28368462 0.65537289 -0.23717205 -0.07315174
O 6.70926485 4.71744869 6.33667171 -0.18850936 0.94447390 0.79913719
O 19.25870941 4.57912566 6.36880885 0.64502211 -0.04783597 0.05284848
O 2.92297522 1.48135170 5.10453781 0.42198330 0.00513065 0.12733404
O 15.42308135 1.58433127 5.02723814 -1.67814886 -0.24715273 -0.61280543
O 2.97010493 4.58120176 5.06519316 -0.29267391 -0.56224802 0.57213134
O 15.46086212 4.70647628 5.15016314 0.50685672 -1.27395304 0.91765826
O 1.59542394 1.47591717 10.90841233 1.39007256 -0.47587825 -0.65303619
O 14.13859407 1.47193994 10.82943664 0.72397197 0.23739620 -1.30654813
O 1.64731780 4.59836334 10.68548983 0.28703427 0.04110241 1.17080606
O 14.02928293 4.68791799 10.84587960 1.28391810 -0.66274940 0.07894543
O 1.35688736 6.09227774 3.16041722 -0.35771963 0.13049268 -0.82536634
O 13.88424371 -0.07662268 3.16698069 -0.28630791 0.85192645 0.98657258
O 1.42800122 3.10886355 3.29980046 0.41841104 0.02992012 0.10102255
O 13.84482679 3.13397730 3.20105692 0.46933061 -0.91516490 -0.74114752
O -0.14184430 -0.00454004 8.94943942 -1.03714692 0.91308186 -0.15611048
O 12.49675041 0.03229448 8.96260958 0.15337746 -0.79192704 -0.24737686
O 0.02772506 3.18888168 8.94667156 -0.13252848 0.19612882 1.01925466
O 12.44624688 3.10539882 9.00003879 0.95246721 0.12832564 0.31088660
O 22.27179150 6.10039827 2.50936330 -0.33025507 -1.29354793 0.50466383
O 9.74702508 3.10570935 2.42560249 -0.76440760 1.37051430 -1.02083367
O 22.20833544 3.13268946 2.45105259 0.75499086 -1.06400279 0.94165303
O 8.22612917 0.03635621 8.20494019 -0.09944694 -0.37007143 0.28474413
O 20.79918943 6.24743264 8.20343366 -1.15029348 -0.34843686 0.13853730
O 8.29072088 3.03882138 8.18330869 -0.14452391 -1.43310528 -0.88113806
O 20.75111570 3.03823214 8.27025560 -0.49334521 -0.11397282 0.17317034
O 7.69237902 1.56405597 3.22555939 1.38794579 0.71072129 -2.08145735
O 20.12062114 1.48239910 3.21626395 0.08196773 0.80699354 0.13260996
O 7.54274636 4.61104414 3.32876659 1.63268149 -1.12333625 1.61474957
O 20.10644142 4.53189333 3.27964157 -0.10051721 0.78929809 -0.60357626
O 6.22272588 1.50041329 8.93935175 1.12913142 -0.79023247 -0.05116473
O 18.81565827 1.60706182 8.94098708 0.20005730 -2.14859773 -0.36602772
O 6.23700906 4.59460538 8.92551724 -0.23506492 1.28818066 -0.76744692
O 18.76250704 4.68659567 8.90352146 -0.90451071 0.41084994 -0.41501608
O 3.43506087 1.59513620 2.40844792 0.65078251 -0.42011684 -0.19788458
O 16.00641359 1.58310422 2.50298983 -0.84215739 -0.59458838 0.13171123
O 3.51820083 4.58024765 2.38809814 0.69787474 1.12764181 0.38524026
O 15.97011023 4.70558022 2.41401071 -0.06505355 0.27546283 -0.86180145
O 2.10142932 1.52109843 8.24536545 -0.45619818 0.72201383 -0.67400978
O 14.47143904 1.53335910 8.15467634 1.12783933 -0.43057678 -1.06944556
O 2.07429846 4.62713865 8.18573470 -0.06219262 0.51021770 0.10347777
O 14.61564565 4.53950155 8.17781983 0.13350562 0.51079191 -0.08911504
O 11.94914546 1.52144044 1.37290995 -0.03805811 -0.76689712 -0.37734761
O 24.67921504 1.60237694 1.56400122 0.16021229 0.02922181 0.25697884
O 11.99756225 4.62510708 1.59176741 -0.45375380 0.14541550 -0.72996582
O 24.59674154 4.68365499 1.53489044 -0.01906198 -0.14869192 -1.19364304
O 10.83256868 1.49215169 7.20543255 -0.22783383 -0.96985338 0.36227643
O 23.16744038 1.54435329 7.11298472 -0.28305075 0.98185012 -0.89259291
O 10.72463513 4.72142354 7.12814785 -0.35601832 0.06603668 0.18131955
O 23.11984730 4.69419775 7.22746094 0.54906868 1.42615647 -0.57876350
O -0.87022158 1.49508534 4.26733818 -0.67945910 0.38302520 0.71149399
O 11.60699524 1.55927956 4.33586688 0.95453612 0.45353361 0.94457250
O -0.97940761 4.64840052 4.29671326 0.50294887 0.65569358 -1.33899988
O 11.57185854 4.55336744 4.24190951 0.95481410 0.19083510 0.88013277
O -2.49156501 1.55637496 9.92827903 1.02874492 -0.75619074 0.00036071
O 10.10472790 1.64208925 9.90170252 -0.43175407 -0.65854763 1.13549301
O -2.42033835 4.60778317 10.03951821 -0.73193592 0.33080528 0.53696594
O 10.14961747 4.64663455 9.88329247 0.21141463 0.96705999 1.21951903
O 5.80401227 6.15847170 1.49648263 0.43755462 -1.19394683 0.78884959
O 18.29734053 0.07448902 1.43016923 -0.27629264 1.32916550 -0.48763995
O 5.80085575 3.02249213 1.38256523 0.73163580 0.05274123 1.54628523
O 18.28455988 3.26962801 1.34925533 -1.26053524 0.02335207 0.59077302
O 4.46839941 6.18490666 7.20872070 0.11416504 0.52971178 1.39276411
O 16.86013518 -0.02564567 7.11930123 -0.16032067 -0.31018628 -0.33175185
O 4.50718228 3.11554459 7.18968553 -0.04266577 -1.17685436 0.22166698
O 16.91256043 3.11231036 7.20805866 0.25220870 -0.63813808 0.14812536
O 5.16885738 6.20071601 4.29564423 -0.64277651 -2.15910425 1.69860482
O 17.79148572 0.06728520 4.30267318 0.04804547 0.34684843 0.83837851
O 5.21015475 3.15177320 4.24068391 -0.66066864 0.71326889 -0.28481621
O 17.63415136 3.08419595 4.14641444 0.13420304 -0.55573558 1.28355607
O 3.92044377 6.07616667 9.95285587 -1.32492422 -0.48135680 -1.31877679
O 16.28438193 -0.06078793 9.95197474 0.48156147 1.28876294 1.52044031
O 3.78021692 3.12442422 9.99162661 0.83708805 0.63845454 -1.44150650
O 16.41995229 3.08827175 10.02178551 0.31111686 -0.73273315 0.74510093
159
Lattice="25.002482 0.000000 0.000000 0.000000 6.190274 0.000000 -2.789072 0.000000 11.460954" Properties=species:S:1:pos:R:3:force:R:3 Energy=-625.093597 Virial="-56.793077 0.676287 -3.337293 0.676287 -44.310782 -1.843940 -3.337293 -1.843940 -47.844900" O_vac_type=O_O3 O_vac_tier=low O_coord=4 defect_vacancy pbc="T T T"
Ga -0.07098765 0.01158182 4.52540724 -0.57767222 -0.68267267 1.32367879
Ga 12.35972879 6.29105688 4.67751608 -0.01630188 1.23358015 0.01950770
Ga 0.07005827 3.07605171 4.62309567 -0.58372795 0.16063594 1.15394561
Ga 12.52507747 3.09169049 4.62657781 0.45396926 0.62699788 1.07531365
Ga -1.33100623 6.16991175 10.34808515 -0.09622714 1.02258878 0.23922828
Ga 11.05747918 6.24123670 10.36394019 1.12376761 -0.40845808 -0.58815300
Ga -1.41548074 2.99496032 10.36539994 -0.19978911 -0.32533002 -0.65668660
Ga 11.19143803 3.07239543 10.39746572 0.20896810 -0.34505741 0.20548255
Ga 11.04225483 -0.03649324 1.25007837 1.15491497 -0.58854162 -0.58476371
Ga 23.52288508 -0.10191154 1.22491367 -0.96056958 0.86210186 0.51916686
Ga 11.07244827 3.09012486 1.22590887 -1.27341163 -0.07907821 -0.62970744
Ga 23.74151246 3.12083832 1.13585611 0.73421055 0.27924842 1.73044056
Ga 9.71189820 6.26540748 6.91754188 -0.55630508 -0.61811661 0.26598985
Ga 22.17167946 0.01637313 6.94982951 0.59422579 0.38483930 -0.52837977
Ga 9.70463403 3.10328624 6.90358755 0.06985092 -0.12153609 -0.32599909
Ga 22.18020872 3.12154576 6.96768851 -0.26476773 0.25931729 -0.13588005
Ga 6.29511794 1.59060676 4.62424086 -0.74701929 -0.40256904 0.24709607
Ga 18.77042636 1.48701185 4.69052188 -0.31514255 -0.02111101 0.98202066
Ga 6.11895917 4.47581352 4.53529973 -0.71630494 0.05902920 -1.71322982
Ga 18.70983382 4.64105061 4.53141002 0.64457976 -1.19219049 0.73404713
Ga 4.88334084 1.56203066 10.27092847 -0.74147037 -0.58931104 1.38973453
Ga 17.35026493 1.52110995 10.30218688 0.75838653 0.52855186 0.48133090
Ga 4.75813345 4.59214514 10.25751898 0.80965289 0.20910965 2.27703670
Ga 17.45794227 4.64936588 10.21862665 -0.23677587 0.31993071 -0.71235908
Ga 4.80424418 1.50448474 1.19193460 -0.04266586 -0.47246881 -1.82527381
Ga 17.34611864 1.67115266 1.13353521 0.48932506 0.31420120 -1.40666696
Ga 4.78745908 4.62090685 1.26945275 0.25294994 -0.59259168 -0.72958779
Ga 17.30477623 4.61061702 1.18144147 -0.81496897 -0.25107773 -0.43898988
Ga 3.49641426 1.69686033 6.87632870 -1.61153016 0.04087808 -1.76712104
Ga 15.87798020 1.64034000 6.96961040 0.33786000 0.28045134 -0.24883458
Ga 3.45653974 4.62829552 6.87997283 -0.66892923 0.67840827 0.00070719
Ga 15.93339034 4.55689522 6.92186528 0.89401761 -1.03465572 -0.91240802
Ga 1.53545685 1.57542357 1.79371434 -0.26479158 -0.18428906 -0.10876344
Ga 13.98423838 1.52194653 1.79686569 0.73395037 -0.47481854 -0.61290960
Ga 1.59881798 4.53338959 1.83602712 -0.31507344 -0.18600442 0.09060566
Ga 14.05723336 4.54897496 1.79491852 0.57429730 -0.21240831 -0.43585882
Ga 0.13625478 1.61665066 7.58248993 0.04903112 -0.86866815 0.37316059
Ga 12.62645254 1.53510074 7.45805787 0.70186877 0.66918231 -0.25845424
Ga 0.12914532 4.65003295 7.61430808 0.66713212 0.59834099 0.25873402
Ga 12.68414997 4.57159138 7.43595858 -0.73037393 1.89016810 -0.41320803
Ga 9.68271381 1.47995710 4.01431320 0.25671124 1.52618512 0.85101158
Ga 21.98007486 1.47273424 3.98824289 -0.21304636 0.25215869 -0.72907138
Ga 9.71156938 4.62516660 3.82267117 -0.00003769 -1.04470732 -0.51791689
Ga 22.03924879 4.61822621 3.87066526 0.23694154 -0.12476054 0.73203846
Ga 8.11714796 1.67326680 9.64818832 1.17352505 -0.54239320 0.20452054
Ga 20.68859620 1.56296556 9.58033788 0.30942821 -0.47870475 0.08632930
Ga 8.05970978 4.79580643 9.64061432 -0.05191455 0.46515928 -0.13063233
Ga 20.73388793 4.67953665 9.59588798 -0.85729423 1.04787997 0.74889769
Ga 7.82804875 -0.02627617 1.68253474 -0.25162060 0.28917283 -0.22342078
Ga 20.31544426 0.10420799 1.84238802 -0.35701828 -1.33517180 1.30758192
Ga 7.73446999 3.11857555 1.89912684 0.33614627 0.14236516 -1.16622708
Ga 20.45632598 3.12262437 1.84721463 -0.24208269 0.62433287 0.75716871
Ga 6.47072851 -0.13893067 7.68930955 -0.25031453 1.67997219 0.51151058
Ga 18.95232730 0.09068910 7.65191564 0.82489582 0.23373932 -0.23929102
Ga 6.40417756 3.12786109 7.40901500 0.07186133 1.79145939 0.50520725
Ga 18.84097696 3.00816113 7.47897146 -0.15426856 0.82473638 -0.08078646
Ga 3.31439344 0.02243670 3.92745569 0.25048515 1.50902156 -1.07504569
Ga 15.83276683 6.10920822 4.01781105 -1.63408605 0.78427185 0.35073788
Ga 3.42875651 2.97780876 3.81242513 -0.46728326 0.27581381 -0.22004790
Ga 15.91063182 3.05059822 3.95162688 -0.03348093 -1.79603503 0.06636173
Ga 2.00043158 -0.07909631 9.74637874 0.41753644 -0.46624366 0.79592465
Ga 14.46326676 6.17664717 9.69133067 -0.12992140 -0.51797130 -0.51270499
Ga 1.95190059 3.19695276 9.68843087 0.13736348 -0.50369310 -0.58377565
Ga 14.40781524 2.98895396 9.67269207 -0.62393353 -0.06471963 -0.06797710
O 1.79088983 6.27630613 0.54309439 -1.31698658 0.29056339 0.30950731
O 14.34446798 6.10230800 0.67217495 0.26322973 0.05529548 0.85100570
O 1.96797102 3.02824749 0.67062405 1.78469687 -0.67568175 0.60951546
O 14.43495152 3.08940576 0.53145662 0.14973205 0.85688709 0.50338015
O 0.35196110 0.00631392 6.36238024 0.12633351 -0.78743407 -0.16883114
O 12.84321851 6.22119304 6.33367274 -0.43073423 -0.04004356 -0.90160776
O 0.43804917 3.03868741 6.32920347 -1.34134248 -0.16685982 0.19049717
O 12.89620142 3.19985887 6.36985153 0.55177921 0.23250794 -1.30465928
O 9.17637080 0.02633009 5.08515639 -0.35661192 0.72564195 1.56028209
O 21.66607430 -0.06436923 5.06944290 -2.79973535 -0.12946849 0.24180271
O 9.17096780 3.03963084 4.95528471 -0.31828284 -1.04200702 0.57175325
O 21.77883653 3.15033668 5.16598768 0.94538369 -1.07536417 1.18435925
O 7.67581394 6.28702926 10.77916909 -0.07131436 -0.84746642 -2.96469077
O 20.39627872 6.08721214 10.84111133 1.20551791 -0.19002507 -0.73565278
O 7.79538819 2.98165897 10.80018619 0.03075458 -0.58555133 -0.31445821
O 20.33404309 3.01406566 10.74335201 -0.24056671 0.37255878 0.28033986
O 8.24627162 1.44788563 0.53401741 1.95251597 -0.34494989 0.90635670
O 20.61386080 1.48546308 0.61930627 -0.17672757 -0.15449093 -0.07471031
O 8.16392918 4.54587331 0.55331969 0.11687134 0.07030766 0.70186422
O 20.61050093 4.53637871 0.68365346 -0.52048354 -0.56188377 -1.29061578
O 6.73483658 1.59569374 6.25245198 -0.24326921 1.48150257 -1.59718527
O 19.18548297 1.63714510 6.40742897 0.26520260 0.31254122 0.70870330
O 6.76233419 4.61925850 6.22939763 -0.85153443 0.14819848 0.28414446
O 19.20673414 4.58164731 6.37994130 1.99885631 0.39167557 -1.35692196
O 3.01965720 1.52902587 5.14453232 1.01648455 -0.75589096 -0.00809179
O 15.45937544 1.59674993 5.30199149 -0.33929160 -0.19788029 -0.07836977
O 3.06812029 4.68312024 5.03481620 -0.73518145 0.48630069 -0.63044113
O 15.49624775 4.67289301 5.01707082 -0.31424982 -1.16044621 -0.10211433
O 1.51206684 1.63579545 10.83259830 -0.22411469 -0.07741280 0.47148220
O 14.09096254 1.45191575 10.81677329 1.59515944 1.11438479 -0.65456365
O 1.68947828 4.60997385 10.75104561 -0.26924951 -1.01138525 0.11954792
O 14.10751226 4.63984759 10.82104786 2.26624856 -0.90999652 -0.60117549
O 1.32434124 6.22050165 3.26652223 -0.16290916 -0.01704436 0.28265557
O 13.85137939 -0.05356587 3.12358691 0.18668657 0.16088621 -0.64497442
O 1.35332859 3.10033860 3.26880260 -0.81166167 -0.44058082 0.78326305
O 13.74170022 3.15337754 3.35599205 0.02679840 1.75650078 0.07301387
O 0.01183217 0.11662331 9.00561383 -0.89840170 -0.72431309 0.05227644
O 12.54622456 0.02972051 9.02426925 0.10726948 0.75320354 0.15375908
O 0.08498190 3.10939885 8.95824657 -2.07030958 1.54906189 -0.01393399
O 12.47607040 3.16414679 8.96524139 -0.93304838 -1.20405863 0.31302503
O 9.73914670 6.19706071 2.41764116 -1.69918093 0.98115766 1.33998250
O 22.18438028 6.21173480 2.52124472 1.03593794 -0.62041990 -0.32626460
O 9.60107196 3.03286311 2.58617464 1.02776281 1.50281514 -2.27129084
O 22.23597830 3.19609322 2.51125934 -1.63564866 0.38131828 -0.92573205
O 8.33676125 0.08130676 8.12073706 1.43197224 -1.18322271 1.03700730
O 20.72604059 6.17586444 8.24704119 1.63660060 -0.09087162 0.94051336
O 8.18984807 3.17332639 8.21172208 -0.47371231 -0.51882972 0.32092825
O 20.91255615 3.06253410 8.21541934 -0.63714425 0.49258902 0.37339357
O 7.79401425 1.58598287 3.14709815 -0.82969296 -1.12214904 0.81944463
O 20.11640670 1.45760189 3.21968163 -1.79186656 -0.08287775 0.60531490
O 7.73398129 4.62156378 3.18256178 1.05201833 0.40584637 0.96055127
O 20.15750412 4.65827879 3.31873927 0.08597284 -0.02264876 -0.81779013
O 6.17161612 1.49464396 8.91638676 0.42806452 0.23818187 -1.88515162
O 18.71307169 1.65718381 8.93505453 -0.63912972 0.50366549 -1.33442004
O 6.40177198 4.61769508 8.88903956 0.51306429 1.10276601 0.33745705
O 18.63679034 4.74721477 9.05133541 -0.14339065 -0.77416544 0.01861648
O 3.43526629 1.62206212 2.56437187 0.43562679 -1.21985283 1.11396704
O 3.41891947 4.73499206 2.55056923 -0.04272449 -0.23285937 0.20405727
O 15.96984192 4.50240448 2.40714300 -0.72564103 0.42034624 1.29021198
O 2.04551852 1.57029274 8.17860866 -0.43132857 -0.00511476 0.02161043
O 14.54009986 1.56507766 8.18451629 0.68952011 -0.23739772 -0.38326129
O 2.20016723 4.66732702 8.20790130 -0.25840940 0.16650058 -0.72372005
O 14.58118745 4.67083131 8.09052053 1.16783380 0.91106978 0.46098216
O 12.11834021 1.40215020 1.43961136 0.00827869 0.64857876 0.06227179
O 24.54173295 1.69723930 1.52911546 -1.21701806 -0.99753395 -1.00123841
O 12.01010498 4.67535220 1.47932898 -0.65052510 -0.54229784 -1.23384930
O 24.58143442 4.54333495 1.40132277 1.94675393 0.33073813 0.23813905
O 10.63287797 1.56079294 7.21258583 0.76881642 -0.10982938 0.52218193
O 23.27018907 1.60782456 7.24576743 0.14495020 -0.31752355 -0.48688288
O 10.57750894 4.56171253 7.15242977 1.67004427 0.63943161 0.39250998
O 23.22271633 4.56473671 7.17997754 -0.01360069 -0.31306518 0.29379163
O -1.06183174 1.65040243 4.33307352 0.76941703 -1.55157210 0.49836468
O 11.53361533 1.53394315 4.32133018 0.76931768 0.35437677 0.40486481
O -0.96132449 4.65963116 4.18007799 0.25292220 0.51843507 0.64650425
O 11.51406513 4.59247084 4.20932678 0.18041839 -0.77100891 0.30044671
O -2.32691670 1.43848061 10.11526675 1.14409430 0.28019548 -0.23539079
O 10.14671258 1.50880041 9.94833078 -0.99782362 0.16530413 0.17991798
O -2.35838183 4.61824280 10.03666175 1.41825721 0.74076473 1.16356700
O 10.12717015 4.59880915 9.97039763 -0.23781163 0.52055908 1.26903861
O 5.82259194 6.24344498 1.53691152 -0.72013192 -0.90642527 -0.56252192
O 18.32143151 -0.07527174 1.40422629 0.18078572 -0.43793934 -0.34652209
O 5.89049808 3.09352518 1.48284706 -0.41054397 -1.34443455 -0.47731188
O 18.40981780 3.09040715 1.39783469 1.11127251 0.47737549 0.39331313
O 4.31091351 6.04933520 7.10125388 -0.18439776 0.45885009 -0.51105311
O 16.98705540 0.08640372 7.05070135 -0.10836761 0.19788576 0.72241248
O 4.45706045 3.11215170 7.22782728 -1.53069104 -1.06213275 -0.12758826
O 17.00752078 3.18404985 7.17216029 -0.60823448 0.42593182 0.58703058
O 5.22247937 6.31841625 4.17442932 -0.02540450 -0.46121176 -0.04964267
O 17.78226314 0.06458335 4.22143721 -0.50925622 0.52448555 -1.25189467
O 5.24316572 3.05808494 4.18593651 0.31060594 -0.48167861 -0.24220077
O 17.90389333 3.15142401 4.33652255 -0.10088590 -0.35642345 -1.52294952
O 3.85261591 6.29316097 9.96778645 -0.00317370 -0.22148565 -0.15969482
O 16.37473304 0.02457842 10.01252551 -0.21443794 -0.06485492 0.38551478
O 3.83121105 3.07089350 10.09630604 -1.20844245 0.30620888 1.17755511
O 16.43011386 3.16560190 9.93192076 0.43706133 -0.64180851 0.38098651
159
Lattice="24.800858 0.000000 0.000000 0.000000 6.140354 0.000000 -2.766580 0.000000 11.368531" Properties=species:S:1:pos:R:3:force:R:3 Energy=-624.644534 Virial="-54.702005 -2.501270 0.363762 -2.501270 -49.305745 -3.233628 0.363762 -3.233628 -41.220224" O_vac_type=O_O1 O_vac_tier=low O_coord=3 defect_vacancy pbc="T T T"
Ga -0.00738214 -0.03488760 4.53840638 -0.07380970 -1.03735161 0.67468451
Ga 12.42459451 6.20814545 4.45780544 -0.21549452 0.16296201 -0.42522329
Ga 0.00597725 3.05897783 4.49115137 1.10479678 0.77740463 -0.87936841
Ga 12.40852079 3.07700400 4.58042482 -0.70363584 0.49115222 -0.03760979
Ga -1.37184086 6.05904468 10.14123397 -0.60334674 -1.74039121 -1.10009725
Ga 11.06997357 6.16591873 10.26474671 -0.93562951 -0.00498466 1.35028097
Ga -1.34369326 3.05650985 10.21782646 0.71270628 1.90323022 0.12274367
Ga 11.00479005 3.10634150 10.14830535 -1.06299480 -0.79430403 -1.64582007
Ga 10.96902793 0.01221677 1.15112162 -0.13595225 1.09748750 -0.06144647
Ga 23.34267233 0.03733093 1.14529202 0.32610831 0.72445915 -0.54568848
Ga 11.05314383 3.04037902 1.20370462 -0.78292725 0.47914911 -0.23397377
Ga 23.38768983 3.06580813 1.26129045 -0.46207244 -2.13308635 -0.12293101
Ga 9.65528232 6.21522663 6.85514660 0.72162280 0.84534932 0.17756945
Ga 22.03277888 0.06446524 6.87184693 0.49589240 -1.16385203 -1.00133910
Ga 9.64974228 3.13471557 6.82754914 -0.14156874 -1.44415772 -0.22077926
Ga 21.90666754 3.02426562 6.86250101 0.41839156 -0.05908580 0.28665685
Ga 6.20585591 1.50078448 4.56816406 -0.90400649 -1.05653402 1.19845068
Ga 18.64431082 1.46936272 4.63853427 -0.17711878 -0.92221367 0.78673390
Ga 6.15167130 4.60185965 4.51796376 0.36005858 -0.08611679 -0.63188148
Ga 18.58187238 4.60200056 4.46206305 -0.51574252 0.08651147 -0.53757592
Ga 4.80619706 1.46765833 10.18368619 -1.08829789 0.21170092 0.47567810
Ga 17.15767722 1.54372231 10.17415655 -0.83453630 -1.35344781 0.76805752
Ga 4.83920939 4.57515700 10.24070034 -0.85525319 0.64162636 -1.13997074
Ga 17.23741767 4.63924085 10.28728803 -0.27145612 -0.47499355 0.89738473
Ga 4.80572732 1.59468711 1.13932143 -0.38615030 -0.71745258 0.03215007
Ga 17.23450772 1.53673687 1.16272007 0.31262214 -0.67119216 0.32986470
Ga 4.77221990 4.58658852 1.17050611 -0.59920316 0.79675560 -0.93123544
Ga 17.14713241 4.56216992 1.19415941 0.93229661 1.05480816 -0.73877710
Ga 3.50466466 1.56251630 6.80886139 0.00385429 0.10533931 -0.20677298
Ga 15.86469320 1.49300458 6.84699803 -1.14435370 -0.16597878 0.73575522
Ga 3.41759822 4.60244764 6.88141240 -1.03294948 -0.29169638 0.36906167
Ga 15.82900496 4.59200795 6.78440197 -0.43710126 0.21531429 0.75430596
Ga 1.57836200 1.54065561 1.78760474 0.93692590 -0.57330982 0.72585709
Ga 14.01459459 1.58988149 1.84253118 0.10870927 -0.91075898 -1.27362846
Ga 1.59439516 4.66433352 1.82540412 0.18082359 0.52550312 -0.43936022
Ga 13.88668827 4.65276750 1.81779024 1.27814135 0.46346742 0.80561959
Ga 0.10293663 1.51852643 7.50641546 0.78174872 0.89847084 0.13710104
Ga 12.50992938 1.45142362 7.40146941 -0.99248884 0.14926038 -0.94743331
Ga 0.17387252 4.64491916 7.48853482 -0.43939852 0.58469139 -0.74112780
Ga 12.52431536 4.59555318 7.45434808 -0.75575733 0.67712204 -0.56872542
Ga 9.43078054 1.44115840 3.95395853 0.52891272 -0.45945746 0.77576596
Ga 21.92687748 1.68238138 3.94372964 0.62377403 0.13101717 -0.03827436
Ga 9.43807405 4.62761736 3.92476915 0.99334495 0.15463130 0.86882758
Ga 21.97667481 4.58862683 3.93110941 -0.20555463 1.22873204 1.17162414
Ga 8.09175323 1.47541275 9.59010413 0.17525539 -0.60162968 -0.01331702
Ga 20.53614242 1.58543389 9.63890154 -0.65764652 0.05487122 -0.74397666
Ga 8.11400870 4.53425491 9.66143889 -0.07820882 -0.44812028 0.87179979
Ga 20.48080943 4.63806677 9.58782537 0.24352830 0.89282739 -0.53988753
Ga 7.67139204 0.07434928 1.73841845 -0.11629962 -0.28222131 -0.01231337
Ga 20.10688456 0.07133743 1.80926743 0.68450217 -0.73501280 -0.22414385
Ga 7.70259315 3.10543864 1.80504158 -1.30789240 -0.31514204 0.76663932
Ga 20.07747214 3.10115248 1.75750992 0.00159917 -0.59543514 -0.32883323
Ga 6.28881876 0.00381202 7.36859882 -0.66937842 -1.35844887 -0.70125649
Ga 18.76986618 -0.01169770 7.46222440 0.20639858 -0.70071955 -0.09162531
Ga 6.34984360 3.11150544 7.39633371 -1.61021842 1.11675491 0.57660749
Ga 18.69595341 3.03775578 7.47043543 0.06299254 0.37717149 -0.28826041
Ga 3.28679214 0.00157212 3.88085164 0.91803361 0.90744095 -0.12406214
Ga 15.71493265 6.15094862 3.89630991 0.26794148 -0.57107663 -0.39552822
Ga 3.30451469 3.02861453 3.97540450 -0.12044722 0.33478359 -0.11341838
Ga 15.70007325 3.07925717 3.87288941 0.63455945 -0.23986748 -0.26722035
Ga 1.91252315 -0.07578635 9.59085871 -0.00028427 0.18660023 -0.45782984
Ga 14.43069632 6.15014389 9.59829782 0.60984206 -1.28485930 0.55107019
Ga 1.94798909 3.08331069 9.60668403 0.25401036 0.32895548 0.44631122
Ga 14.22495299 3.07827675 9.59050710 1.47802186 1.38675780 0.22720436
O 1.89190518 6.16070622 0.60135086 0.83172469 0.53675686 -0.01065073
O 14.36283456 6.16135279 0.68883913 0.39517439 1.17542196 -0.69211538
O 1.83021551 3.09967500 0.67180231 -1.39843880 -0.26391993 0.43354618
O 14.33014041 3.06947895 0.61043477 -1.24098107 -0.68915669 -1.01859123
O 0.48300612 0.04276165 6.32815820 -1.10239121 -0.35622270 0.13014879
O 12.92464697 6.18872992 6.23159421 -0.47311018 1.48998941 -0.19685507
O 12.79717902 3.07298344 6.32247082 -1.34524851 0.28333426 1.39088395
O 9.15332178 0.03965019 5.03699853 -0.36086836 0.97128439 1.22771405
O 21.60291198 -0.04005505 5.13818252 -0.90226725 0.81044974 -0.86850354
O 9.10670282 3.11378077 5.06903739 1.34630114 0.38748124 0.63747673
O 21.55934569 3.09552979 5.03317769 -0.12504573 -0.64062019 -0.03030096
O 7.80118103 6.11344907 10.78843254 1.11868317 1.27474380 1.03981544
O 20.21944507 6.12272915 10.71617226 0.23000758 0.69509686 -0.38235284
O 7.74419283 3.03986291 10.76294239 -0.65399063 1.04824612 -0.69536088
O 20.12677652 3.03922737 10.71592101 0.40970172 -0.85988915 -0.96653104
O 8.09701558 1.56617850 0.62821998 -0.59549201 -0.34457781 -1.03539790
O 20.48057360 1.55340432 0.66167600 0.18495336 0.71089064 -0.47397045
O 8.07756261 4.56286395 0.61021083 0.71624275 0.32769695 0.73102641
O 20.41737666 4.58537667 0.65525016 -0.19055747 -1.24711182 0.38415526
O 6.73172747 1.60136427 6.28235276 -0.07471826 -1.09307023 0.68323093
O 19.08936620 1.56309341 6.38169327 0.31916020 0.70762629 0.24055408
O 6.64447969 4.69960058 6.34696239 0.39267487 -0.02562529 1.39851844
O 19.16141303 4.62155774 6.28552073 -0.32699242 -0.03785264 0.22873842
O 2.96515879 1.52980891 5.02975055 0.13406686 -1.14379948 -0.57867046
O 15.35350730 1.53720448 5.07480876 -0.37275034 -1.01676033 0.36372305
O 3.01351240 4.61623522 5.13372858 -0.77408648 -0.79117823 -1.52950920
O 15.37259701 4.56888985 5.08168580 -1.83202772 0.72304765 -1.02342743
O 1.53628529 1.43709350 10.80648100 1.27044299 1.04828517 0.44557784
O 13.93478032 1.46474442 10.75240265 0.90936151 0.84013831 -0.41351797
O 1.50526095 4.64327314 10.72385191 0.19374232 -0.59336066 -0.12923582
O 13.97192786 4.59910856 10.74771102 -0.37636675 0.05176583 -0.03481761
O 1.38534645 6.18838545 3.26871330 0.25012201 -1.13216079 -0.61547985
O 13.80666425 -0.04369627 3.19598149 1.57392937 -1.48208232 0.00310737
O 1.36940154 3.12497626 3.14678358 0.15397260 -0.79523334 -1.40135218
O 13.83620463 3.05187823 3.15099460 0.06206666 0.51898907 0.00257426
O -0.00666015 -0.02538958 8.87638675 -0.21754320 0.56534949 -0.42303170
O 12.39023473 -0.00825959 8.93526155 -2.14039024 -0.14002574 -0.61522731
O 0.03399883 3.04916672 8.87374412 -0.89024966 0.91346969 0.02854627
O 12.42946933 3.12400004 8.86984470 -0.03421935 0.08667597 -0.31670198
O 9.61373753 6.05219345 2.48942841 -0.62689672 0.41288078 0.00799562
O 22.01402083 6.12216724 2.40361459 1.49165192 0.30178081 -1.49779087
O 9.62814228 3.10793274 2.47349651 1.02163388 2.25289750 -0.06772300
O 22.00351383 3.02329625 2.50204228 -0.70360099 -0.09031460 1.21892646
O 8.22643830 0.00564955 8.15590425 -0.16496659 -0.65134374 0.72179499
O 20.67226009 6.10718708 8.20651187 -0.05013657 0.21900105 -0.59813347
O 8.34472151 3.08332814 8.15810134 -0.20571578 -0.58226207 0.20500946
O 20.62285438 3.03701848 8.21822808 0.79066915 0.58451334 0.08148410
O 7.57349201 1.52016877 3.14804852 0.77026433 -0.28637831 -0.70363640
O 20.03803840 1.49021963 3.21169248 -0.00410024 -0.10683168 0.52821756
O 7.60889889 4.63151675 3.23356526 0.42354516 -0.77487032 -0.12270239
O 19.99103398 4.59297417 3.25551576 -0.98110361 -0.22867660 1.30939753
O 6.19580355 1.54260454 8.80249320 -0.45168066 0.19331964 0.18410459
O 18.55670624 1.52028516 8.89629666 -1.42385200 -0.34199784 0.49844060
O 6.19254128 4.64654928 8.87377089 0.67575860 0.63898019 0.87567511
O 18.58293155 4.64400981 8.93945478 -0.39356864 -0.90423250 -0.77491947
O 3.41050727 1.53136265 2.41677129 1.14335299 0.91697679 1.77425696
O 15.86048742 1.52735309 2.58618947 1.17073652 0.78766290 -0.44793641
O 3.43435568 4.56447924 2.55689053 1.04078563 -0.78549402 1.45747361
O 15.92562382 4.61770056 2.46089726 0.28013604 0.39213276 0.37478110
O 2.04232489 1.46626461 8.18761435 0.20310673 -0.37117633 0.31354477
O 14.42021178 1.59924660 8.15596876 -2.36966846 0.43242707 -1.62952379
O 1.99348376 4.65238868 8.08097197 0.50761709 -0.25681617 1.56712889
O 14.45151907 4.63542158 8.19708301 -0.94467425 -0.71820241 -0.76509179
O 12.00139789 1.55792367 1.48814770 1.16207437 -1.43249220 -1.09082775
O 24.42163838 1.49877977 1.51184295 -1.50799748 0.00091486 -0.15838748
O 11.99845962 4.58417459 1.47018484 0.45326278 -0.19400980 0.14076854
O 24.39954079 4.65331168 1.44499110 0.45584589 0.19773714 0.93222591
O 10.62943566 1.53317042 7.11642644 -0.23029246 0.25565243 -0.16142012
O 22.97756606 1.44304782 7.12137930 1.23539417 0.32881613 0.22393961
O 10.59965985 4.68163159 7.15450193 -0.45280578 0.26891439 0.97122194
O 23.05173732 4.51758363 7.13975665 0.08743125 0.05574726 0.09002616
O -0.93026709 1.49617924 4.29729965 1.43589032 -0.65516163 0.75502576
O 11.41084824 1.54132793 4.23133866 1.71473728 -1.00350677 1.07118464
O -0.99829059 4.47476950 4.28407634 0.39478222 0.11448901 -0.03685280
O 11.41598251 4.61690532 4.20515322 -1.03336785 0.49977871 -1.12702732
O -2.33864785 1.55185142 9.97210465 -0.03291984 -0.80878500 -1.36550540
O 10.01533279 1.47463873 9.88826455 -1.16548500 1.23391396 -0.61175831
O -2.29064610 4.60497903 9.96627672 0.42352478 1.15194208 0.67530588
O 10.09384486 4.60810388 9.83056629 0.65764923 -0.22266592 -0.33973275
O 5.84643259 6.16601247 1.46250340 0.55059478 0.95544760 0.64092172
O 18.09347247 0.02652697 1.43918356 0.27138120 -0.56406675 -0.91014746
O 5.79196647 3.08503170 1.38672915 1.13714401 0.42196778 -0.45604210
O 18.18920773 3.04587876 1.40564451 1.01435102 0.13703122 0.05171343
O 4.36364800 6.19128397 7.14735758 -0.22822194 -0.34210931 -0.53732199
O 16.82588772 -0.03172338 7.09685269 0.36227455 0.84458795 0.50783527
O 4.37208629 3.05667944 7.11157199 0.08794279 0.54899260 -1.07901724
O 16.83036300 3.06435579 7.21222016 0.01175599 -0.88488482 2.38235740
O 5.20827489 6.14990078 4.26487969 1.23209017 0.51524701 0.35545038
O 17.58309973 -0.01703202 4.23259543 0.27403744 0.16037988 0.43025451
O 5.21428357 3.07167623 4.26394091 1.11886045 -0.96572707 1.15452295
O 17.57376527 3.07288793 4.22382487 -0.59978909 -0.49947114 1.66065427
O 3.81789797 6.15612735 9.89198824 0.09604262 -0.12526817 -1.28158587
O 16.26554862 0.03978575 9.86194088 -1.12480419 -0.89572035 -2.04469386
O 3.79355187 3.07788236 9.92176458 0.23079795 -0.12256707 0.68297444
O 16.31183207 3.11741769 9.90222750 -0.33630700 0.67739688 -0.06766491
159
Lattice="24.715849 0.000000 0.000000 0.000000 6.119307 0.000000 -2.757098 0.000000 11.329563" Properties=species:S:1:pos:R:3:force:R:3 Energy=-624.693080 Virial="-55.100829 -1.798982 -0.094093 -1.798982 -46.175926 -5.407443 -0.094093 -5.407443 -44.112820" O_vac_type=O_O1 O_vac_tier=low O_coord=3 defect_vacancy pbc="T T T"
Ga -0.01028701 -0.15319858 4.47961751 -0.13761811 -0.83455516 0.96938394
Ga 12.37414896 6.19155071 4.51685773 -0.32499512 -0.10585458 -0.00474758
Ga 0.03333401 3.14109829 4.51111883 -0.62162429 -1.60640684 0.46644343
Ga 12.38895776 3.00806918 4.41931714 -2.70546340 0.13637400 -0.64419526
Ga -1.34665920 6.19354745 10.18966393 0.57866827 0.76423284 0.37907291
Ga 11.00783219 6.12867863 10.14408546 0.69055344 1.03447680 -0.34633632
Ga -1.40255727 3.10885222 10.26690734 0.12478673 0.18595134 -0.28552905
Ga 11.05416440 3.09921289 10.23555552 -1.01043047 -0.30674059 -0.13701766
Ga 11.02651259 -0.03219978 1.22730554 -0.33424037 0.17600163 0.14937282
Ga 23.34045575 -0.07046835 1.08026358 -0.30791045 0.93636069 -0.85598143
Ga 10.93614559 3.10139821 1.13051697 0.07908336 0.15530258 -0.35442464
Ga 23.33303643 3.05291980 1.12581053 -0.42213006 -0.52579951 0.34547136
Ga 9.59333900 6.12961690 6.90900589 -1.40534476 -0.69801439 -0.08553264
Ga 22.02254291 -0.00635293 6.82494063 -0.74417810 -1.47479138 0.19356845
Ga 9.64579588 3.09404971 6.86910673 0.14317126 0.64182985 -0.20112717
Ga 21.97417155 3.22300259 6.92341162 -0.02771968 0.76293416 -0.02005270
Ga 6.20639289 1.61116429 4.53289657 -1.90919253 -1.24348953 0.29084869
Ga 18.55616734 1.55924160 4.51284588 0.19391606 -0.95519391 0.54900981
Ga 6.17629642 4.61847632 4.50094491 0.72471670 -1.53892642 0.65086765
Ga 18.50293203 4.52717013 4.60112639 0.05722036 0.51208451 1.63065229
Ga 4.79754582 1.54775279 10.24271191 -0.88822408 -0.09391801 0.36412311
Ga 17.25091612 1.55006441 10.14502031 0.05272335 0.11938816 0.70505613
Ga 4.83157299 4.59729710 10.15927405 1.43173428 -1.09283382 -0.36515209
Ga 17.16012479 4.59172550 10.20596225 0.39067737 0.16455263 -0.43009250
Ga 4.77055715 1.53603681 1.19564978 0.39964090 0.33307635 -0.09481644
Ga 17.11336608 1.52884174 1.22792136 -0.01788877 0.92919711 -0.04444477
Ga 4.74146397 4.59490049 1.14139409 0.00903542 0.54620111 -0.00492503
Ga 17.06289715 4.58455572 1.11041213 -1.26845029 -0.03044219 0.60017671
Ga 3.43835745 1.48924814 6.78951821 0.00434642 0.28911280 -0.26983267
Ga 15.76698949 1.51971247 6.87708513 0.13358099 -0.34197349 -0.10774406
Ga 3.39566397 4.54544873 6.88252138 -0.48754369 0.66608376 1.10435176
Ga 15.70640945 4.54213070 6.74912020 -0.43979170 -0.04860597 -0.18408533
Ga 1.61129878 1.50317624 1.83366780 -0.62472458 -2.37929827 0.27932153
Ga 13.90886010 1.49638763 1.67293797 0.14973654 -0.64002562 0.58137380
Ga 1.46791145 4.51325274 1.83196829 1.32889182 1.43863035 0.10880440
Ga 13.82725475 4.52209240 1.74183728 0.26172496 0.53692362 -0.07552326
Ga 0.06174000 1.48924549 7.41543602 0.70714485 0.85539737 1.13565430
Ga 12.53704099 1.44589403 7.43246548 -0.16210186 1.77163019 -0.37141073
Ga 0.14225706 4.53357981 7.40681273 -1.19814502 0.15124697 -0.80959049
Ga 12.48287966 4.62324766 7.45858294 -0.87684443 -0.18134983 -1.30551041
Ga 9.40553904 1.44941754 3.95691954 0.77523724 0.48246239 0.11912474
Ga 21.74078863 1.53271374 3.88446593 0.20742242 -0.16392257 1.25075570
Ga 9.34193895 4.62216581 3.88761129 -0.63426952 -0.49926821 -1.36848283
Ga 21.76374318 4.60983211 3.83063705 1.02024350 1.67028725 -1.60002124
Ga 8.11121479 1.54962430 9.56073179 0.29361290 2.25148419 -0.19624203
Ga 20.41059338 1.50076595 9.46978711 -1.34761239 -0.20083804 -0.34567972
Ga 8.09150507 4.61896883 9.59968064 0.04809397 0.31534996 1.37840449
Ga 20.53090121 4.55743020 9.56581036 -0.88130274 -1.64333869 1.15428899
Ga 7.63895697 0.06242546 1.79436103 0.18120955 -0.53403811 0.83659752
Ga 20.05109458 -0.09255713 1.72508194 -0.32775014 -0.04374611 1.16419624
Ga 7.74624445 2.99476623 1.77529939 0.82716274 0.76473320 1.46066352
Ga 20.16816735 3.09675779 1.77212284 0.88623677 0.60914763 1.31340972
Ga 6.37770882 -0.03321640 7.42286796 0.24195111 -0.25556454 0.39022174
Ga 18.75713195 -0.05067593 7.46882302 -0.13768582 -0.25701656 -0.20180872
Ga 6.33453633 3.08434210 7.43348627 -0.65235243 0.91418724 -0.10501883
Ga 18.59489480 3.08585112 7.38288257 0.73884919 0.35829709 -0.20972383
Ga 3.32199698 0.02570475 3.92817212 -1.76068446 -0.22302737 1.73752424
Ga 15.72185833 6.18327231 3.89814881 -0.13081527 0.93683830 0.20810715
Ga 3.22226321 2.94364843 3.89590211 -0.68403936 0.65406115 0.11255186
Ga 15.56608592 3.05015335 3.94180249 -0.13301122 -0.65001252 1.03331947
Ga 1.82494235 -0.01932009 9.45373729 0.27956963 0.13706051 -1.59520515
Ga 14.22310147 6.08178849 9.59128955 -0.55648146 1.36325048 0.63721783
Ga 1.90346090 2.99687850 9.39695958 1.77273382 -0.57432282 0.26583425
Ga 14.28765942 3.06763061 9.54586932 -1.59588822 -0.09404052 0.40697563
O 1.88878061 6.15787108 0.56847854 0.26922708 -0.20747799 0.16290603
O 14.21363870 6.11746220 0.62530916 -0.76187126 -0.38755968 0.60837116
O 1.93425097 3.04083309 0.65957102 0.37729028 0.73329098 -1.17438430
O 14.22716747 3.02335683 0.62874801 -0.06029278 -0.25247445 -0.07753452
O 0.49213424 -0.01739181 6.31507999 -0.09815047 1.07193385 -0.21251770
O 12.78508398 6.11180627 6.23635665 -0.61988647 -1.39963758 0.30300801
O 0.47446208 3.13877219 6.21464767 -0.27243836 -0.31677955 0.71196105
O 12.80432282 3.01506115 6.31961242 -0.20877660 -0.13128737 0.65470770
O 9.21800552 0.02003174 5.12538309 1.62530041 1.07196924 0.05854752
O 21.48677883 -0.00296678 5.03361054 -0.55023193 0.43834545 0.56753989
O 9.12638775 3.00826648 5.06906689 0.83052074 0.84882481 -0.44396444
O 21.49592307 3.03481740 5.11244319 0.71886793 -0.77878186 0.25279989
O 7.70895531 6.05468167 10.69584946 0.36138102 0.95631909 0.12917341
O 20.13157965 6.05539341 10.74211956 0.26637864 0.89064034 -0.29184270
O 7.73976181 3.11247872 10.69005168 -1.34470897 -0.53280714 -0.88855029
O 20.02064148 2.95676187 10.81043883 -0.35801984 -0.12788676 -0.26994443
O 8.04390025 1.53978849 0.56524968 0.00279759 -1.07657839 0.27766329
O 20.43599543 1.48689917 0.62412303 -0.16655783 -0.12363707 0.46293070
O 8.02344662 4.63227934 0.57918263 1.08491088 -0.38695046 0.02531027
O 20.36307504 4.61783829 0.64672041 -0.36449120 0.01904168 -0.29438583
O 6.76218038 1.49381902 6.26365269 -0.24500067 -0.19519270 0.69307607
O 19.04471008 1.53390453 6.28657254 -0.17332213 0.63975314 -0.52010983
O 6.70917254 4.58679725 6.33900943 -0.52419022 -1.02956522 0.80576864
O 19.08306380 4.65827650 6.31927981 -0.08873389 -0.38761979 0.41158399
O 2.91930389 1.57256350 5.02120646 1.66934419 1.10219053 1.04217632
O 15.20008470 1.48754603 5.12246470 -0.91104479 -0.57787892 0.60670616
O 2.99734446 4.56982394 5.10573836 -0.28925248 0.74162105 -0.43831839
O 15.37517386 4.52446978 5.00005722 -1.05905176 0.13337236 -0.20001164
O 1.55389854 1.53211365 10.63325066 -0.62110875 -1.27951199 -0.70069702
O 13.86149764 1.50842759 10.62091235 -1.69935448 -0.77252844 0.26277737
O 1.54265492 4.54631022 10.79517363 -0.10814878 0.00489520 -1.73209425
O 13.88822557 4.59434765 10.72828907 -0.91654067 -1.11265538 -1.00132930
O 1.48491899 6.06464000 3.18679190 1.28232316 -0.40491629 -0.28937662
O 13.68938476 -0.06806266 3.23707164 -1.37613209 0.74462183 0.35305450
O 1.34186170 3.08264925 3.21310687 -0.92325441 0.65296892 0.05309283
O 13.73725386 3.06728730 3.23313409 -1.28087293 -0.56288282 0.54744399
O -0.01606246 -0.05884389 9.06525376 2.10484280 -1.05861943 0.48189651
O 12.34869194 0.01175310 8.87707725 0.35471409 -0.00839579 -0.31870047
O 0.00440316 3.15409071 8.85236238 0.59011471 0.52259164 1.14302647
O 12.38931824 2.96899686 8.85029161 0.26978602 -0.69107375 0.76174529
O 9.53713741 6.13172222 2.45699512 1.06669173 0.04888221 -0.03680591
O 21.95880971 6.01235607 2.47568458 0.72218865 0.09135886 -0.53882338
O 9.68611817 3.11703901 2.49152552 -1.81707697 1.52794474 -1.38112134
O 21.95082006 2.97623597 2.36415120 1.48433755 -0.23389020 0.11670698
O 8.32442293 -0.10948783 8.11594482 0.74821770 0.19738102 -0.05824950
O 20.55362161 6.15824588 8.17027173 1.04809836 -0.69721410 1.86534369
O 8.25357933 3.08515537 8.13272663 1.37213178 -1.27668279 -0.17274588
O 20.63533280 3.04089193 8.13592032 0.16429359 0.79798251 -1.53454396
O 7.66898245 1.54060364 3.13277050 -0.06520822 -0.90976409 -0.58866128
O 19.91373269 1.53629659 3.21162945 -0.66861829 1.24353962 -0.17237854
O 7.50999878 4.49619539 3.12521583 0.99277045 1.55796027 -0.36682727
O 19.88917196 4.55931052 3.22233138 0.60807842 -0.36006181 0.45285134
O 6.24544905 1.56929607 8.85596478 1.05690858 0.83225614 0.03210274
O 18.52432031 1.53348180 8.82161203 0.06764140 0.58430193 0.77391892
O 6.18722015 4.68698960 8.90580750 -0.05189337 -0.20617909 -0.43304150
O 18.50839688 4.67220513 8.83125473 1.38163749 -0.04778647 0.35987870
O 3.38487368 1.53809824 2.45426139 0.31153603 -0.77313228 -0.40480558
O 15.75349100 1.50271103 2.50616760 -0.65760859 -1.78851332 -0.13843998
O 3.36594561 4.50327034 2.47677566 -0.44326933 -0.20291445 -0.90409828
O 15.77144426 4.58872965 2.39229781 0.69170119 -0.03299833 0.12707665
O 1.98422935 1.58916695 8.17422009 1.26565399 1.19261924 0.42065598
O 14.39945196 1.45157569 8.12479353 -0.19586398 -0.38996535 -1.72026691
O 2.05119126 4.57017864 8.15900773 0.31480278 -1.03440920 -0.29901137
O 14.45258890 4.54522888 8.10216902 -1.87580569 -0.35294329 -0.96094527
O 11.91802006 1.45168966 1.45988545 0.65341792 0.78115526 -0.00754832
O 11.93537048 4.62381755 1.47023546 0.09601445 -0.08034529 -0.95648313
O 24.27034967 4.62167111 1.56123847 -1.06502613 1.29361836 1.85906140
O 10.61566020 1.48383828 7.11309826 1.28351149 -0.63316648 -0.19826520
O 22.93399457 1.51218526 7.07530981 0.37141029 -0.06920134 0.26260197
O 10.60029342 4.58263189 7.22617293 -0.73149523 -0.08529376 0.26985864
O 22.86003140 4.58163533 7.12816372 0.08861516 -0.72864577 -0.50291153
O -0.95466721 1.52659761 4.16771955 0.93361434 -1.43225097 -0.15182295
O 11.37383581 1.53636803 4.17156314 1.08340402 -1.51154219 -0.25977817
O -1.03399688 4.57395782 4.18390482 1.57790967 0.12553960 -0.02462364
O 11.40743893 4.60101822 4.29823944 -0.47766847 1.90396899 -1.05595728
O -2.27095858 1.47996587 9.83647406 -0.33475534 0.60762274 1.64908996
O 10.05912527 1.69457157 9.90080667 -1.06467778 -0.90583199 -0.81765471
O -2.32055291 4.54728057 9.92162780 -0.52498038 -0.66046066 -0.27098725
O 9.95410387 4.66826663 9.87889408 -0.30188209 -0.54583539 -1.72410228
O 5.71717973 6.14123604 1.38972360 0.89828063 -0.29504457 -1.53283004
O 18.07739728 0.00535892 1.46452855 -0.88287268 -0.32464731 -1.66356395
O 5.75274205 3.11866133 1.57137140 -0.04972830 0.35353436 -1.29880109
O 18.06039581 3.03160047 1.52408957 -1.33909006 -0.74614785 0.00128183
O 4.41581223 6.09410099 7.11410370 0.17662576 0.75752370 0.69851672
O 16.77130390 -0.02041139 7.14657765 0.71495308 -0.12848719 -0.12966606
O 4.40321286 3.00386586 7.11405682 0.00593757 0.62370346 0.75133081
O 16.82966079 3.06268470 7.20383664 -0.47768943 -0.32413003 0.18004394
O 5.32028758 6.09881912 4.28194709 0.22481252 -0.07467901 -0.53646572
O 17.59631817 -0.03917243 4.18378690 -0.05360801 -0.19524397 0.07429580
O 5.27767250 3.03915372 4.27656028 0.43829597 0.81530324 -0.67754441
O 17.50580816 3.08582702 4.25991989 0.08551160 0.17388251 -1.10334128
O 3.81918361 6.06742435 9.86513634 0.05531599 0.29848781 0.09534988
O 16.17427969 0.00932292 9.94817683 1.71370867 0.41506616 -0.90631571
O 3.76768813 3.02038494 9.94640402 1.35336677 -0.20604987 -0.55884097
O 16.20580146 2.94979219 9.92529087 1.26383584 -0.06664826 0.22230680
159
Lattice="24.737167 0.000000 0.000000 0.000000 6.124585 0.000000 -2.759476 0.000000 11.339336" Properties=species:S:1:pos:R:3:force:R:3 Energy=-623.709432 Virial="-56.841966 3.121534 -1.881896 3.121534 -45.540450 -4.406516 -1.881896 -4.406516 -42.138533" O_vac_type=O_O3 O_vac_tier=low O_coord=4 defect_vacancy pbc="T T T"
Ga 0.03612087 0.11798319 4.45364848 -0.83792392 0.14723370 1.17682671
Ga 12.32564417 6.03290330 4.46778269 -0.51687080 1.00415312 0.46177945
Ga -0.05211568 3.00973005 4.52033309 -0.36955417 0.04806223 -1.28885042
Ga 12.38169379 3.09676568 4.48439078 -1.28233923 0.49691692 -0.40470460
Ga -1.34926580 6.13895254 10.18355183 0.79198314 -0.57446787 -0.37521163
Ga 11.05312319 6.16317013 10.25880580 -0.16938106 1.87386297 0.03966658
Ga -1.40961846 3.06934591 10.21516878 0.00151729 -0.42467496 -1.22884596
Ga 10.91384661 3.01922975 10.23830840 0.36415879 0.23206158 0.09662046
Ga 10.93469020 0.00410070 1.15820035 0.62207971 -0.27088804 0.32918957
Ga 23.35516275 0.01746875 1.08590994 0.29222434 0.81361373 -0.33613446
Ga 11.02035048 3.04423876 1.17162338 0.43163072 -0.29590948 0.06506449
Ga 23.29825747 3.05088633 1.13497889 1.00834825 0.77276688 -0.89332105
Ga 9.65265507 6.20985871 6.86480781 -0.66368742 -0.02684213 -0.16162998
Ga 21.96068172 -0.06388836 6.89575842 0.12635540 -0.53555169 0.00024720
Ga 9.56254786 3.18019852 6.77362543 0.31019168 0.62726889 0.46318632
Ga 21.91314090 3.11471925 6.80589626 -0.47953162 0.82440553 -0.57384090
Ga 6.12126217 1.60994077 4.49384964 0.98583562 -0.11732926 0.50804707
Ga 18.64088215 1.55285380 4.54559634 0.57826677 0.13885308 -0.63529788
Ga 6.28335982 4.56059551 4.53571703 0.20557769 0.38386644 -0.20435831
Ga 18.57310819 4.53501667 4.51669475 0.47934777 -0.63790690 1.06960548
Ga 4.83546141 1.53465988 10.19244143 1.57719490 -0.21941880 -0.58410011
Ga 17.13395974 1.49317047 10.09284544 -0.31020937 1.36568389 0.52828188
Ga 4.81781287 4.60783468 10.18197395 -0.37973471 0.68038537 -0.70844783
Ga 17.25178006 4.67275747 10.17028576 0.33685967 1.01196232 0.41277785
Ga 4.68476044 1.52045093 1.16456040 -0.70238617 1.80072424 0.67053513
Ga 17.14052854 1.55971305 1.02856468 -0.82889281 0.28222268 -0.36523229
Ga 4.83513239 4.54761111 1.20087605 -0.72267894 1.14438113 0.38399631
Ga 17.17088902 4.60430945 1.26224761 -0.73837267 -0.67075694 1.66186083
Ga 3.41182070 1.42495568 6.81547073 -0.17054787 -0.24329187 0.19768922
Ga 15.78305002 1.48762151 6.80110006 -0.37238892 -0.34216599 1.26941528
Ga 3.40833557 4.61190463 6.86372537 0.37401204 1.20074982 -0.07301825
Ga 15.76365732 4.63357055 6.85128751 0.18569584 -0.69564879 0.54255834
Ga 1.47784435 1.51837699 1.75720454 0.77615073 -1.12298417 0.77899822
Ga 13.95664522 1.48506427 1.77825607 1.34528701 0.68074279 -0.80153648
Ga 1.53772600 4.62060690 1.73594250 0.61226901 0.24452282 -0.20557158
Ga 13.89857753 4.65482108 1.78943734 0.31633683 -0.61987436 -0.01012762
Ga 0.12079993 1.56517812 7.48316403 -0.11562495 -0.03362254 1.39674015
Ga 12.52745080 1.54159279 7.46975210 0.37629346 -0.01907717 0.02814060
Ga 0.04829844 4.60080771 7.47752449 -0.43917371 0.01639683 1.24600652
Ga 12.45819097 4.62229921 7.49210034 1.31994931 -0.43302732 -0.63766341
Ga 9.37454690 1.58966655 3.92613190 0.20141893 1.33710912 -1.08727338
Ga 21.81122380 1.41402868 3.90687592 1.07471347 -0.51426423 -0.41353951
Ga 9.45330382 4.53754188 3.86595312 -0.12788259 -0.43581825 -0.40707721
Ga 21.77769639 4.56121868 3.89802570 1.02728569 -0.35186022 -0.43030239
Ga 8.05106016 1.66386108 9.50481584 0.91784203 -0.88382214 0.46816521
Ga 20.47883204 1.48271235 9.60407406 0.08945833 -0.16483437 0.76737034
Ga 7.99927843 4.58631857 9.63323159 -0.15713879 0.72359626 -0.83200621
Ga 20.43844001 4.61826616 9.55511631 -0.24390503 0.11064374 0.92673146
Ga 7.72640369 0.12544612 1.82816276 0.38287018 0.89107904 -0.14415782
Ga 20.07079533 -0.02240690 1.75195823 0.18382800 -0.01548591 0.30299730
Ga 7.66740770 3.09154800 1.71177298 -1.29621140 0.10434502 -1.00367430
Ga 20.09413723 3.07136131 1.80450803 -0.14731016 -1.37343308 0.39476680
Ga 6.24223905 -0.06984598 7.50145983 -0.18681304 -0.91235384 1.03754414
Ga 18.69972926 -0.00648219 7.50657768 -0.11799044 -0.42730213 -0.43355527
Ga 6.36384309 3.16303819 7.46649712 -0.83265038 -0.61459579 1.37612112
Ga 18.76464332 3.10410755 7.52704023 0.07352285 1.39236092 0.78411262
Ga 3.28665452 -0.00089595 3.86984226 -0.00017626 -0.00685467 -0.66698723
Ga 15.69241479 6.15853716 3.91841258 -0.82402091 0.60599456 0.32163935
Ga 3.22174504 3.04040230 3.94874352 -0.05429016 0.94058692 -0.14433179
Ga 15.60748605 3.10978681 3.89290366 0.61791259 0.52985994 -0.09894842
Ga 1.90423996 -0.00951502 9.51482339 0.14439865 -0.36961803 0.69161805
Ga 14.27569649 6.04590174 9.53501682 -0.26322771 -0.61811631 -0.14792957
Ga 1.88759450 2.99182155 9.49904959 1.05847899 -0.44094428 0.65504478
Ga 14.35023948 3.08981942 9.57196472 0.75994372 1.06670268 0.23700004
O 1.77139301 6.08056687 0.54665932 0.31157072 -0.71971286 -0.77670664
O 14.23206933 6.04696873 0.62014076 -0.94950433 -0.37096373 1.34571513
O 1.82896512 2.97719026 0.65480345 -1.47274097 0.47563861 -0.42762320
O 14.18589583 2.96430421 0.69285006 0.24268020 0.04440676 0.19030745
O 0.44821914 0.01450488 6.23385905 0.56940371 -0.42642756 -0.10438521
O 12.92635371 6.18279199 6.33241038 0.08824928 0.18615981 1.36215240
O 0.47495879 3.05725963 6.28673888 -1.25412941 0.06902037 -1.47455488
O 12.76507951 3.04858812 6.28880298 0.19786993 0.63185726 -0.30218978
O 9.16694599 0.04414567 5.09564834 -0.47888976 -0.49891741 0.02117444
O 21.50169920 0.02623988 5.09310659 1.73664142 -0.10703438 0.66333819
O 9.08828222 3.07231624 5.05984441 1.71419278 0.50783591 -0.73623241
O 21.48794181 3.00513041 5.17857856 -0.63379617 -1.70154815 -0.48115566
O 7.87587449 6.17383743 10.66691368 0.85761493 0.33411489 0.27137593
O 20.06457310 6.03591740 10.66208499 -0.14588928 -1.56683231 0.58129297
O 7.66569561 3.12157918 10.66558902 0.84719779 0.14477286 -1.66278507
O 20.10142806 3.04733842 10.71993379 -0.33325239 0.29197490 -0.18687155
O 8.04601286 1.57362063 0.59322939 0.37358576 -0.45016358 -0.36251408
O 20.43499825 1.55679234 0.64391543 0.69804950 -0.71683938 0.79203658
O 8.14037481 4.51729594 0.62732779 -0.49514038 -0.51929557 0.07851134
O 20.42293549 4.59978533 0.65998226 -0.20925823 0.28929100 -0.17621450
O 6.73629907 1.55819820 6.16422617 -1.89848320 0.27214956 1.06187731
O 18.98737915 1.58696088 6.33029862 0.31713922 0.17911457 -0.20572151
O 6.57619162 4.53815392 6.26194235 0.25217136 0.66174901 0.72033765
O 18.95136083 4.55530817 6.33017245 0.49090682 -0.36693042 0.37765821
O 2.89499714 1.64331178 4.97679651 -0.22935902 -0.99542144 0.14827039
O 15.28086247 1.51590261 5.10752487 -0.74400674 -0.16091816 0.24652070
O 2.89224327 4.55690286 5.12952883 0.20374320 -1.02331412 0.11170614
O 15.26800924 4.54892582 5.08430735 1.42475215 -0.91717902 -0.01774409
O 1.59068713 1.49480568 10.73384207 -0.53367515 0.82482036 -0.39545839
O 13.91823769 1.56145760 10.66611832 -0.21327525 0.23022361 0.47385741
O 1.60620611 4.62750433 10.73428528 1.55550021 -0.19594697 -0.32406713
O 13.94814745 4.57408991 10.68892283 0.82633527 0.59244747 0.03128770
O 1.33349427 6.11062221 3.17125847 -0.67961986 -0.40483872 1.59507034
O 13.75857236 -0.09536952 3.30339989 0.13619408 -0.40024639 -1.40173236
O 1.29549016 3.03425666 3.21325133 0.12789874 -0.44282385 -1.03521296
O 13.87287310 3.02132071 3.16139544 -0.37721742 -1.65868160 1.55880519
O 0.04147328 0.01976265 8.89219941 -0.49482685 -1.39836210 -0.47580947
O 12.42728176 0.02804239 8.84095777 -0.91979961 -1.23720421 -1.22437764
O -0.04881285 3.07340954 8.80878228 0.39735654 0.43924565 -0.36706992
O 12.35936113 3.08318759 8.86647061 0.33640060 0.20654684 -0.42253665
O 9.54687012 6.09172959 2.43621514 0.14859384 -1.03528300 0.69674341
O 21.90673134 6.18261645 2.48939759 -0.08184043 0.08859745 0.08941546
O 9.67337466 3.05720711 2.47266300 -1.30463971 -0.50302549 0.33202920
O 22.04006098 2.97971497 2.39639973 0.89268552 1.70160128 -0.17758900
O 20.53957047 6.14232962 8.06923413 -0.24960558 -0.15074517 -0.51803437
O 8.38203905 3.02488318 8.18006989 0.23492205 0.01513582 -0.06831700
O 20.52034430 3.13088909 8.13244959 -0.35571873 0.18693828 -0.04335059
O 7.52491371 1.54595162 3.16078741 -0.85844901 -0.61930971 0.90917008
O 19.88988643 1.50101651 3.19051221 -0.99810363 -0.22369388 -0.07010967
O 7.60629766 4.68087581 3.15600962 -0.31292429 0.13589538 -1.41393869
O 19.90300422 4.65764465 3.14768204 -1.41418697 0.02645019 1.50193766
O 6.17730029 1.56161675 8.87757153 0.12546337 -0.30568100 -1.05601952
O 18.45875335 1.59661998 8.85158657 -0.69306112 -0.26241551 0.47525929
O 6.18587531 4.54775606 8.88575526 0.60159254 -0.71398518 0.14433164
O 18.50635981 4.65392951 8.79982226 -0.28827807 0.29221678 0.19464193
O 3.34354549 1.59947946 2.51256589 0.50375482 -0.23214921 -0.66204364
O 15.81157159 1.56868557 2.45793582 -0.42113940 1.20039316 0.18174043
O 3.48120555 4.52283990 2.48772567 -0.26200970 -1.25861715 1.09832448
O 15.75271755 4.56514433 2.40764763 -0.76447369 -0.50703239 0.08593199
O 2.02472127 1.52027530 8.18816447 -0.57233847 1.06780969 1.12883198
O 14.34086787 1.56917426 8.21409042 1.30863225 0.69818917 0.41656274
O 2.08629675 4.61793472 8.13096195 -1.20109891 0.02794571 0.52028449
O 14.47365703 4.63014314 8.12058371 -0.44306398 0.17251289 -0.68603224
O 11.98468972 1.47923682 1.43337644 0.50000467 0.45675763 0.78932105
O 24.29306319 1.56832373 1.43956487 -0.17814819 -0.89821543 -1.76694845
O 11.98316203 4.59775185 1.33412416 1.13051403 0.42746585 0.02393723
O 24.31081986 4.61171467 1.44291675 -0.73141588 1.47163239 -0.56992393
O 10.64524626 1.60440928 7.16422197 -0.18671291 -0.31942825 -0.75555101
O 22.88274622 1.59631830 7.14500497 0.16025059 -0.40834048 -2.07701954
O 10.60492024 4.58646013 7.11135022 -0.05512448 0.63095400 -0.23649402
O 22.97074685 4.58872017 7.06264896 -1.02867679 -0.19421442 0.65283035
O -0.95519572 1.51710169 4.17415649 0.50597781 -0.89662070 0.74622436
O 11.39442994 1.55950724 4.19604142 1.10890538 1.90020515 0.13900743
O -0.96479465 4.58543324 4.28790882 -0.38842330 -0.73884569 -0.60377729
O 11.39407180 4.66214208 4.09388838 0.32710336 0.72497246 -0.23897405
O -2.24305749 1.42253032 9.87380557 -0.32498867 -0.30058294 -0.53155808
O 10.02005700 1.52585949 9.89641576 1.10490522 1.26123158 -0.23244521
O -2.29482121 4.61870013 9.85815006 1.27140044 0.23968359 0.32436874
O 9.94387713 4.65651060 9.91969408 -0.60266339 -0.83152563 0.08258705
O 5.70909125 6.13085077 1.44341088 0.72785865 1.27131170 -0.84251820
O 18.22334731 -0.03532967 1.44693174 -0.29974084 0.51371621 -0.54157136
O 5.77531277 3.04826313 1.43439524 -0.56923578 1.14442736 -0.57431515
O 18.11574270 3.01480067 1.49436526 -0.59424090 -0.82033086 -0.19981954
O 4.42923358 6.07737499 7.18821646 -1.19463525 -0.45562008 0.00029683
O 16.73135865 0.05254409 7.14886012 -0.40902861 -0.36025119 -0.70341176
O 4.43960532 3.08746330 7.21118916 -1.53536913 -0.11107388 -0.76962994
O 16.81197456 3.06117593 7.15980337 -0.22572775 -0.40376748 0.50573496
O 5.29248960 6.02913731 4.18546319 1.56674996 -0.67724028 1.24051822
O 17.59726908 -0.04019207 4.17501915 0.47249068 -1.39666495 0.33928941
O 5.22843103 3.04548750 4.15171018 -0.45885648 0.19030029 -0.95649247
O 17.55660239 3.11279035 4.13136037 0.54897618 -0.56901128 -0.24138342
O 3.90832455 6.17311688 9.90852269 -0.55722437 0.17445418 -1.24065151
O 16.01283334 -0.05435677 9.93663696 -1.44225926 -0.80037899 0.34583847
O 3.85984662 2.96153706 9.90051784 0.64137492 0.15508139 -0.48596390
O 16.22129525 3.05498468 9.80190645 -1.11966698 0.63602948 0.23572324
159
Lattice="24.697242 0.000000 0.000000 0.000000 6.114700 0.000000 -2.755022 0.000000 11.321034" Properties=species:S:1:pos:R:3:force:R:3 Energy=-624.379399 Virial="-54.274928 -0.574813 -0.891732 -0.574813 -52.512001 -5.467241 -0.891732 -5.467241 -41.165982" O_vac_type=O_O1 O_vac_tier=low O_coord=3 defect_vacancy pbc="T T T"
Ga -0.06437678 0.01787089 4.53220437 0.44736142 -1.54595815 1.30120877
Ga 12.34001791 6.12573633 4.46394234 -0.23850904 0.42077501 0.15876873
Ga -0.04242861 3.09287123 4.52713664 -0.81668405 0.59201814 0.49094041
Ga 12.35465952 3.05415666 4.54811474 1.45471580 0.56807719 -0.35259698
Ga -1.39010644 6.07075611 10.16079554 -0.78998314 0.38436027 1.28377190
Ga 11.00591603 6.12730251 10.13312993 -0.10660437 -0.12552309 -0.90319143
Ga -1.40571507 3.05325795 10.21594247 -1.24750657 0.13853235 0.90381218
Ga 10.96724777 3.08456322 10.13138613 -0.31275439 -0.99173580 1.38884249
Ga 11.11278383 0.05937609 1.11810059 -0.66265786 0.41242241 -1.07454684
Ga 23.33023392 0.05096138 1.18333965 0.16038974 0.15849772 -0.72205122
Ga 11.05305184 3.00753192 1.11180804 -1.10627635 -1.89037719 0.55842213
Ga 23.30402299 3.08898683 1.14755155 0.55261560 -0.43554713 -0.80773265
Ga 9.61817242 6.15238000 6.81229265 -0.40302617 0.54160038 0.00482450
Ga 21.86784735 0.00014369 6.77520599 0.83330557 -0.15155970 -0.70336330
Ga 9.67986531 3.12356626 6.83448093 -2.53816375 -0.89682963 0.59513146
Ga 21.91035535 3.09909149 6.87530975 0.24782798 0.64759922 -1.05825625
Ga 6.21052788 1.56680555 4.49627390 0.18918614 1.15593315 0.66152535
Ga 18.61125581 1.49613269 4.46989806 1.54141815 0.49056821 -0.54527932
Ga 6.13592706 4.59438996 4.54667609 -0.18933722 0.09879498 -0.70229579
Ga 18.63595247 4.57537991 4.50168266 0.85118726 -0.19820723 -0.84587687
Ga 4.82816308 1.36642133 10.27130171 1.00380591 -0.19184590 0.54507533
Ga 17.07365075 1.45787420 10.14552889 -0.13781741 0.49882166 1.26192518
Ga 4.82233762 4.57689745 10.20357897 0.66086559 -0.00057297 1.33787180
Ga 17.17117961 4.61618896 10.13154034 -0.38492249 -1.02978773 -0.11893415
Ga 4.85442663 1.51019421 1.13169246 -0.92141137 -0.50523797 -0.21198924
Ga 17.06963065 1.51428695 1.21142499 -0.88424647 -0.53337782 0.40144220
Ga 4.83416488 4.54514186 1.14033875 -0.60652875 0.87168795 -1.47746746
Ga 17.14151700 4.55354531 1.17222904 0.24516779 -0.00567737 -1.10540461
Ga 3.43954017 1.55160194 6.88822217 -0.11705709 -0.00733805 1.04109020
Ga 15.79810472 1.54085171 6.76867265 0.41242575 -0.80383881 -1.47720604
Ga 3.34990426 4.54962504 6.79448434 1.16728140 -0.22148357 0.45962557
Ga 15.79451259 4.61136554 6.82936211 0.61131459 -0.17742461 0.11888849
Ga 1.50581539 1.51679512 1.77762570 -1.23063625 -0.45349681 0.93660565
Ga 13.92721398 1.60982203 1.74895465 1.19305599 0.12787718 -0.59273321
Ga 1.57069829 4.58557141 1.79660624 0.42989317 -1.35968462 -0.42532154
Ga 13.92237407 4.56898093 1.75305814 1.28233753 -0.24508902 -1.86779662
Ga 0.09069501 1.49711999 7.51835705 -0.03073213 -0.31268392 0.13037300
Ga 12.47550548 1.50650991 7.37603169 -0.72534339 -0.92240558 -0.33217688
Ga 0.10452758 4.56012776 7.53625071 1.62110152 0.81010193 1.11661407
Ga 12.48258746 4.57927063 7.51241066 -0.91403863 0.57617229 -0.34582398
Ga 9.54027724 1.44106879 3.82774664 -0.13463375 -0.85538341 -0.14526279
Ga 21.83712507 1.59049376 3.87376963 0.53402195 1.44074081 0.55653859
Ga 9.49057101 4.47699046 3.79225963 -0.15018242 -0.14464196 -1.11408563
Ga 21.80074017 4.51443584 3.83563851 0.09283465 -0.48301303 -0.75738136
Ga 8.06122117 1.59126750 9.55175206 0.65400943 -0.16284104 0.43080283
Ga 20.49423993 1.52231880 9.48275084 0.89777142 -0.13939667 0.40589869
Ga 8.12217505 4.57647386 9.46595590 0.39374613 -0.78074736 -0.44019762
Ga 20.41552718 4.51218500 9.45690806 1.57465411 -0.28278978 -0.29744086
Ga 7.66897576 -0.09893687 1.78619155 0.01132337 0.06677769 -0.11159260
Ga 20.06365626 -0.00035900 1.76009642 0.75451806 1.11047118 -0.18772121
Ga 7.61131918 2.99954780 1.90484403 0.63586526 0.42279237 -0.94726822
Ga 19.94312974 3.10195411 1.74881920 -0.74756089 1.21459843 -0.29963696
Ga 6.41850707 -0.00888500 7.35590615 0.08772585 -1.96422598 -1.80976092
Ga 18.58060290 0.07326787 7.36678829 0.28723473 -0.14843400 -0.42319133
Ga 6.33494648 3.09397283 7.50933498 -1.53400365 0.04982875 -0.40942365
Ga 18.63297465 3.21979547 7.44210425 -0.74487025 -1.54299597 0.01023674
Ga 3.35411068 0.00623778 3.83901626 -1.00971033 -0.57024542 1.12993273
Ga 15.57318815 6.14803408 3.91415218 1.37076849 0.61605481 0.26645083
Ga 3.27534645 3.14729551 3.91513961 0.30153812 0.75177928 0.25546089
Ga 15.57518477 2.98383839 3.92972438 0.92310062 0.13239893 -0.28555930
Ga 1.88484320 -0.08268982 9.60947711 0.00885491 1.48696923 1.33166014
Ga 14.27831801 6.15445180 9.60040701 -0.32990260 1.14439333 0.04631896
Ga 1.88481573 3.03671335 9.54033289 0.72911569 -0.14291358 0.45177111
Ga 14.22171514 3.04831312 9.55237719 0.06751910 0.66860958 2.04172962
O 1.84742803 6.15346733 0.63257026 0.51735910 -0.12928895 -0.63538784
O 14.23529191 6.06357997 0.62370375 0.22129710 0.95210261 -0.01888841
O 1.84607577 3.07913335 0.55773059 1.42725705 1.75094426 0.38936005
O 14.21768578 3.10371136 0.67952628 0.19208473 -1.52745081 -0.02554590
O 0.45771314 -0.06139850 6.25367677 1.33200931 0.78535354 -0.05055116
O 12.74791790 6.00879701 6.28549730 -1.57643941 -0.89843519 0.43877587
O 0.49375933 3.15119465 6.32100237 -1.63952781 1.58833439 -0.42587162
O 12.75489199 2.95913369 6.24301799 -0.60204897 -0.36605911 1.39173919
O 9.12023609 0.01294422 5.07171152 0.09837290 -0.13554519 -0.41625760
O 21.40501333 0.08880628 5.02900135 -1.20957511 1.83541727 -0.00012820
O 9.17602601 3.04160980 5.03541418 -0.82203714 0.10879217 -0.49605049
O 21.52290308 3.01990126 5.07944064 -0.66024427 0.92229740 0.24599775
O 7.69008932 6.06463523 10.76662636 0.13469188 0.67813833 0.36072283
O 20.05735284 6.14945973 10.79606819 0.18937024 -0.97754398 0.46943886
O 7.80562592 3.02729944 10.66990054 1.56095099 -0.36198050 0.35609271
O 20.19015409 3.08162503 10.65163566 0.02620344 1.11767648 0.37527788
O 8.08109737 1.50353714 0.65731695 -0.42113473 0.41737135 -0.35517129
O 20.41336793 1.56329413 0.69292105 0.90913574 -1.53995807 -1.11586064
O 8.06161034 4.56822575 0.70104930 -0.15909016 -1.13887480 1.19626397
O 20.40333285 4.52613500 0.56653031 -0.59176921 -0.26215408 0.54465770
O 6.78101615 1.52453788 6.30011837 -0.03620294 -0.29914612 1.11108044
O 18.96019714 1.52892334 6.36734261 0.98295425 -0.80860460 -0.93155960
O 6.64541472 4.59014619 6.27324032 2.47450314 -0.89792136 0.66162517
O 19.02275035 4.55708827 6.28821360 0.11148951 0.15377929 -0.35234290
O 2.92676769 1.52197662 5.12168258 -1.02014649 -0.84604519 0.02995106
O 15.35164056 1.53986004 5.06182730 -0.81144584 1.97202680 1.59787912
O 2.90951869 4.65800590 5.07237750 1.28069894 0.58723406 -0.86312444
O 15.34674528 4.55908488 5.06144322 -0.77688212 -0.42898198 0.72120433
O 1.45348729 1.52894286 10.78418828 0.24331581 -0.02621819 -0.43452318
O 13.97325930 1.55862217 10.64842883 -0.14494996 0.44643977 -0.89063439
O 1.52196321 4.57644891 10.69157738 -1.88683321 2.42066405 1.36423383
O 13.91188999 4.54347219 10.75595764 1.30783092 -0.99101265 -0.31285401
O 1.36913338 6.15298647 3.26561141 -0.06566598 -0.08869987 -0.07552130
O 13.73942524 -0.03772641 3.18292707 -0.15374039 1.24251567 -0.40267310
O 1.25712471 2.99160470 3.21872299 -0.19579811 -0.12771501 0.68453852
O 13.72180276 3.05211729 3.22910213 0.65942977 -1.72957871 -1.33429549
O 0.06664607 0.01090278 8.86950467 -0.53320832 -0.66930465 0.49136215
O 12.32818957 0.03257476 8.84896013 0.34359210 0.59969065 -0.74714185
O -0.08004678 3.15079999 8.80174576 -0.47279015 -1.27235676 -1.14802251
O 12.25564727 3.03365180 8.80648995 -0.10219800 0.27745485 -0.18370122
O 9.61518928 6.08567308 2.38559182 1.78589077 0.33403606 -0.81679325
O 21.88560476 6.17803539 2.45437388 0.23731825 0.34606454 1.30911072
O 9.55709573 3.07306381 2.42888917 1.26093325 -0.11129223 -0.14751418
O 21.96076263 3.01565403 2.37242462 1.41121109 -0.05901144 -0.37538727
O 8.20830346 0.05703544 8.04303417 -1.19273059 -0.97099152 -0.44463936
O 20.52023637 6.09445934 8.15795817 -2.17232064 0.26320561 0.13912025
O 8.27675139 3.06484390 8.22259865 0.58896933 0.58287389 0.95305011
O 20.69334643 3.00385375 8.18382536 -0.60414583 -1.44067689 -1.53245902
O 7.52400812 1.55173691 3.16686447 1.06795066 -0.59340677 -1.02771066
O 19.80032309 1.51144651 3.17159400 -0.72645615 -0.38122696 0.84465159
O 7.53192270 4.63757796 3.17847827 0.28302905 0.38028385 0.58550139
O 19.95227282 4.60417200 3.21376680 -0.42326714 0.22405148 -0.04771932
O 6.14100279 1.62170736 8.82744738 0.53589970 1.03704382 0.00248495
O 18.56509843 1.48467458 8.91469942 0.15992046 -0.22869588 0.90414194
O 6.18105778 4.55535618 8.86400030 0.18099541 1.39365811 0.60128983
O 18.50885144 4.55560504 8.83845863 -1.53192441 0.03360876 -1.01189350
O 3.46773770 1.53474946 2.49005945 0.22368074 1.43182816 -0.85419357
O 15.73598469 1.48805101 2.48353562 -1.25543050 0.19142679 0.39118143
O 3.33464625 4.59970409 2.47448837 1.29699893 -0.69804277 0.26983422
O 15.76774981 4.53188348 2.41788542 0.46133523 0.81806457 -0.23858461
O 2.07570521 1.59787289 8.03163644 0.39636649 -0.37061819 0.78772908
O 14.39581703 1.40146108 8.10740000 -0.55691966 -0.19135936 -0.42696046
O 2.02773108 4.52937771 8.10846891 -0.40026815 -1.10704080 1.20671571
O 14.46556385 4.62938707 8.09382375 -0.40390912 1.53299534 0.69509452
O 11.88573064 1.58713926 1.42462961 -0.51986676 -0.13011509 0.62293656
O 24.26038044 1.52279879 1.42810628 -0.04854803 1.31764351 -0.25893204
O 11.91192492 4.56070010 1.50936214 -1.31819083 -0.59207974 -0.97457961
O 24.17292755 4.59071839 1.38528064 -1.07958045 -0.07187213 -0.87366859
O 10.57633482 1.57001194 7.09052857 -0.51306952 0.87275241 0.35965527
O 22.96818293 1.62623870 7.09850702 -0.67220941 -1.53577891 -0.14185711
O 10.60415829 4.44781551 7.13321982 -1.28643371 -0.10434224 0.18564827
O 22.94470502 4.52649741 7.17015530 1.94681686 0.71643530 -0.30218267
O -0.95685649 1.53549833 4.21855692 0.21814957 -0.15576714 0.38921003
O 11.41178910 1.55459994 4.19379750 -0.09691237 -1.12779988 -0.55497164
O -0.94729189 4.55373353 4.28030382 0.21590964 2.77080069 0.18939893
O 11.28937970 4.65777943 4.12137336 -0.50206274 -0.63768243 -0.56745622
O -2.35848125 1.51919451 9.85880986 0.23554259 0.31201897 -0.77108673
O 9.94281146 1.49146623 9.90820609 1.55275252 0.83441728 0.67077074
O -2.29167455 4.64248999 9.77663176 -0.25995498 -0.20258381 -0.51601827
O 9.94034828 4.64219110 9.80839514 0.62318885 -0.74967927 -0.15263449
O 5.87161875 6.24776757 1.51649576 -1.20576850 -2.52455672 -0.42968969
O 18.12106610 -0.04665708 1.40120345 0.18202787 -0.54211593 -0.38130102
O 5.77891627 3.03039254 1.57049541 0.01931238 0.73740932 0.69359039
O 18.19291076 2.97311245 1.43683546 -0.71984553 -0.65222922 -1.33387200
O 4.34869308 6.11307229 7.09502241 1.30431770 0.39977817 -0.59949116
O 16.74826343 -0.03987004 7.14214224 -1.67776186 -1.04157795 -0.78615625
O 16.73972888 3.11234642 7.11528584 -0.74657554 -0.19211494 -0.01594046
O 5.12717591 6.11784619 4.18630561 -0.90323545 -0.09462817 1.81309198
O 17.55735415 0.01429733 4.24093681 -0.50501881 0.42138801 0.23675957
O 5.17609559 3.02527806 4.16467836 0.01278997 -0.58363498 1.00670177
O 17.46550041 3.05453563 4.18918405 0.28523072 0.44247215 -0.05677789
O 3.87701647 6.18857819 9.83640909 0.07268248 0.43094822 0.75573984
O 16.14204752 0.02984450 9.90400774 -1.00847857 0.84541557 0.40349196
O 3.78928935 3.03733294 9.91576308 0.25368994 -1.20101085 0.11314884
O 16.16598892 3.11422298 9.81853080 0.17239821 -0.08798912 -0.42866688
159
Lattice="24.827160 0.000000 0.000000 0.000000 6.146866 0.000000 -2.769515 0.000000 11.380588" Properties=species:S:1:pos:R:3:force:R:3 Energy=-623.436607 Virial="-58.889532 1.482757 -1.135771 1.482757 -46.387474 -6.762113 -1.135771 -6.762113 -43.625697" O_vac_type=O_O3 O_vac_tier=low O_coord=4 defect_vacancy pbc="T T T"
Ga 0.10540755 -0.02729313 4.48630911 -0.67381550 0.65791818 0.80388049
Ga 12.36706880 6.21519587 4.53137147 0.42135843 -0.19563665 -0.50279238
Ga -0.04309717 3.14229511 4.60553270 0.31681626 -0.74317068 0.65853458
Ga 12.47668378 3.13842359 4.60366310 1.57769749 -0.54090199 -0.63168831
Ga -1.42241330 6.17473561 10.32879890 -0.65118291 0.89067339 -1.03579148
Ga 11.06536075 6.13453700 10.25030855 0.02502959 0.56488256 -0.06597545
Ga -1.27635432 3.01727911 10.21027140 0.77347607 0.17700007 0.59430076
Ga 11.02008133 3.04470225 10.23795920 0.21092777 -0.32822432 1.30266636
Ga 10.96045341 0.07495487 1.16791882 0.67837837 -1.08942969 0.14460756
Ga 23.43281931 0.03672584 1.17948677 -0.01531735 -1.58248282 0.47287465
Ga 10.98091094 2.97819986 1.17262182 -0.44706012 -0.11354580 2.11153769
Ga 23.34313867 3.04176537 1.04562346 0.79087291 -0.20343935 2.19925087
Ga 9.65575453 6.16899424 6.82795361 0.30628877 0.60562389 0.52943383
Ga 22.15176816 0.04170896 6.85746264 -0.60402346 0.25080586 0.55165419
Ga 9.55580481 3.07031021 6.88401812 0.42543893 -0.38345609 -1.37861134
Ga 22.06549310 3.03639000 6.90899693 0.19504080 -0.47806938 0.72848221
Ga 6.15400112 1.59377563 4.56118762 -0.05175821 -1.11017212 0.26087336
Ga 18.72517201 1.57752153 4.60476420 0.01190902 -0.08892340 -0.55475830
Ga 6.23917552 4.53599280 4.58920594 -2.20012405 -0.77003115 -1.42501447
Ga 18.68492999 4.66856570 4.63234299 -0.47059046 1.16818677 -0.74302390
Ga 4.82490162 1.43351180 10.27109732 0.75978915 -0.06221609 -1.26165965
Ga 17.32015598 1.50219396 10.17349270 -0.07306096 1.00132000 -1.19168550
Ga 4.81854383 4.63734331 10.14422011 -0.89066941 0.07433550 -0.22252423
Ga 17.32311267 4.56566121 10.26439540 0.11914939 -0.30079937 1.71520521
Ga 4.66030446 1.59876854 1.16787784 1.51207197 -0.27030005 -2.02585076
Ga 17.24213597 1.56224157 1.15094535 -0.19570164 -0.39897655 -0.91996683
Ga 4.79389951 4.53021661 1.32017909 0.26844344 -0.03191151 0.36445378
Ga 17.28994186 4.72320063 1.03048708 -1.65559984 -0.35320608 0.58370282
Ga 3.41861988 1.53648425 6.84802839 0.79955989 1.67079669 -0.11262515
Ga 15.79869469 1.54351265 6.80377379 -0.69702311 0.03022078 -0.46798571
Ga 3.44875650 4.51700363 6.86140877 -0.78962623 -0.59249634 -0.26314520
Ga 15.79807266 4.66075819 6.86791109 -0.81086984 0.09406804 0.97804823
Ga 1.52966960 1.52487214 1.78651909 -0.25738420 -1.15875318 1.13215917
Ga 14.00098202 1.45731461 1.73557376 0.20945183 -1.20965346 -0.08211708
Ga 1.51615142 4.60396374 1.79229933 1.56969847 -0.06386590 1.10321213
Ga 13.80897849 4.64442996 1.84291109 0.40037453 -0.16610870 -1.26373648
Ga 0.11251376 1.49032060 7.42595667 0.63401362 0.40925359 -1.32096670
Ga 12.50100767 1.57441200 7.35017891 0.93938450 -0.17202154 -0.80995741
Ga 0.16367442 4.63432332 7.45092591 -0.55624100 0.04324614 0.63669912
Ga 12.50837384 4.57532329 7.44331671 -0.75383263 -0.60190232 0.56825592
Ga 9.58083976 1.56526921 3.91437001 -0.51881632 -0.28036691 -0.26502181
Ga 21.88410456 1.38742435 3.86493507 0.00961705 0.40328532 -0.13925762
Ga 9.51655237 4.60650797 3.92698233 -1.04157292 -0.35420238 -1.03527067
Ga 21.97379028 4.68131062 3.95602332 0.88322229 0.40741741 0.66802608
Ga 8.11601143 1.47329260 9.55256958 -1.39544816 0.07751871 0.21672373
Ga 20.41086399 1.62597659 9.69956940 0.72594028 0.69094687 -0.14009311
Ga 8.08277576 4.63007818 9.52957200 -0.28486789 -0.25481949 -0.27745951
Ga 20.46876102 4.62134722 9.52921879 -0.41730604 -0.28731096 -0.75247849
Ga 7.72188449 -0.05810578 1.75865913 0.61968850 0.69448402 -0.79116486
Ga 20.21552343 -0.06137543 1.66941165 0.53778346 -0.92481194 -0.99929961
Ga 7.73572687 3.03505863 1.73167558 0.01501290 0.33327778 0.02717317
Ga 20.24174450 3.03254234 1.78646968 0.61868175 0.57505830 -0.92121750
Ga 6.25291284 0.07529136 7.47108085 1.31125006 -0.66621147 -0.35085081
Ga 18.67862696 0.03604314 7.41572357 -0.51219655 -0.98859496 0.38635390
Ga 6.40051382 3.00355350 7.48700425 -0.92490186 1.32775708 0.34069094
Ga 18.78994038 3.11971977 7.39863205 -0.36588374 0.56844629 -1.29452871
Ga 3.24115609 0.04143647 3.86516198 -0.61252607 -0.80844183 0.04483063
Ga 15.71695728 6.17519151 3.77331724 0.52246477 0.74162829 -0.84193734
Ga 3.20343382 3.04295882 3.87743850 -1.03146218 -0.28711672 -0.96723158
Ga 15.73627709 3.03062923 3.91442438 -0.75354306 0.74893658 -0.05585088
Ga 1.85900256 0.04324214 9.66358680 0.88109361 0.56659621 0.59609684
Ga 14.35867570 6.15323193 9.60527927 0.45947107 -0.74619081 -0.73277722
Ga 1.99450280 3.06679815 9.66372848 0.23266899 -0.51359491 1.22355681
Ga 14.27476792 3.12788164 9.50921093 -0.02645345 0.50235595 -1.46324941
O 1.90282685 6.15186174 0.68274240 0.52328583 0.69411669 1.28006001
O 14.29321819 6.17171129 0.53754189 -1.06213240 0.68815471 0.08370862
O 1.94128804 3.07873735 0.62850568 0.97013691 -1.35719239 1.01185063
O 14.34704097 3.17803034 0.58732315 2.01007341 -0.87662602 1.77343146
O 0.43087186 -0.00113258 6.29141888 -0.31714746 0.81855678 0.02811637
O 12.89065684 6.14423995 6.37462971 0.04297442 -0.47090975 -0.05094921
O 0.41444954 3.10388945 6.35431341 0.74897374 -0.36186434 -0.57078233
O 13.02577103 3.14238649 6.28765555 0.13414872 0.30504956 0.24807079
O 9.14517262 -0.00323702 5.02425852 -1.54792827 0.14066296 0.44542767
O 21.53280812 -0.00319909 5.04813959 0.15370440 0.73459114 -0.88502215
O 9.13443101 3.13615582 5.13371151 -0.66634453 -0.12771164 0.12636722
O 21.53070901 3.09758880 5.07309073 -1.11540022 -0.14580996 -0.67654773
O 7.89617119 6.08604413 10.73568885 -1.17531562 -1.23961056 -2.17559860
O 20.33938868 6.09476684 10.78663200 -1.10668951 0.84409700 -0.82833606
O 7.76945503 3.05950764 10.79908975 -1.32335022 0.08152716 1.47897857
O 20.19348475 3.02916697 10.76093455 0.01822690 0.66421079 -2.02914253
O 8.03401649 1.47891113 0.56818977 -0.45811012 -0.75905380 0.51902335
O 20.55102422 1.65379221 0.60516485 -0.39864317 -0.41712888 1.08088673
O 8.09149977 4.52409808 0.60314659 1.15248156 0.66987369 0.74183797
O 20.47940314 4.65788367 0.61297695 1.45585643 0.56229208 0.02409204
O 6.63783794 1.50738781 6.33225078 -0.30437823 0.01295458 -0.26906418
O 19.16050566 1.53074799 6.23390660 -0.27867950 -1.72504405 0.40837010
O 6.78084524 4.60839958 6.32796691 1.29923365 0.11666248 -0.52046004
O 19.08476246 4.71603786 6.27358882 1.39274829 0.04694220 0.08839193
O 2.86986081 1.51606695 4.98465118 0.77108446 -0.41637355 -0.47197003
O 15.37316335 1.51681717 5.12171819 -0.42206609 0.73936082 0.26887831
O 3.03076373 4.52482642 5.12107361 -0.32099831 1.09391920 0.74307010
O 15.42623142 4.51396024 5.06273868 0.75793960 0.07633271 0.74793286
O 1.55834265 1.59146099 10.78956476 -0.51795276 0.89411003 1.38887371
O 13.92089679 1.53899335 10.72081262 -0.74447953 -0.86116315 -0.44517548
O 1.46697846 4.56967373 10.81293475 1.23328653 1.05250891 0.04685599
O 14.08739455 4.69011665 10.81605530 -1.15155007 0.43443521 -0.73937682
O 1.48541169 6.11869133 3.27322955 -0.66036664 0.52656328 0.83486875
O 13.85114478 -0.00700136 3.20980008 0.30035057 1.83543664 0.58942227
O 1.44326054 3.08088634 3.17221856 -0.51752115 0.18206079 -0.43482786
O 13.87602952 3.07766847 3.24221264 -0.96015118 1.06261478 -0.86972054
O 0.07202371 -0.06004082 8.95437203 -0.20876229 -0.37118978 -0.65379660
O 12.45386392 0.03230777 8.86482926 -1.30400136 -0.50044932 0.33744154
O 0.03149707 3.06178586 8.91761545 0.49928143 -0.78533195 -1.23382533
O 12.35377274 3.00013541 8.92230173 -0.35196863 -1.30953256 0.13872165
O 9.67531555 6.21550728 2.37878982 -0.27907690 1.69426488 -0.02331611
O 22.07151984 6.08150870 2.57251953 -0.50824861 0.11734561 1.87338398
O 9.73344422 3.14010851 2.43193205 1.02048846 0.32813531 0.08705616
O 22.08145971 3.16766945 2.48759478 0.26986178 0.03771698 0.26744086
O 8.23785347 0.01612221 8.05362182 1.09693376 1.25876375 0.60196584
O 20.57854060 6.10227567 8.31250488 0.82668046 -1.04400113 0.50009767
O 8.29446142 3.04462437 8.09125163 -0.58140734 -0.22073377 -1.02589655
O 20.73843238 3.14133855 8.16815864 0.08792236 -0.73169577 0.61746716
O 7.62454158 1.48795256 3.16478826 0.16483479 -0.04322632 0.31506445
O 19.98563675 1.46391440 3.15854950 -2.03963810 -0.41495034 -0.02390606
O 7.61749643 4.43895484 3.15992959 0.70646028 0.71664840 -0.04586979
O 20.02346424 4.47106522 3.24342392 0.78578204 -0.52595591 -0.13881660
O 6.11764200 1.61210952 8.93170247 -1.53832115 -0.93230444 0.34552652
O 18.66135195 1.51911487 8.89142320 0.84076124 1.19518948 -0.08918291
O 6.17089301 4.68811331 8.88428167 -1.66928313 0.89746740 -0.30353100
O 18.71465510 4.48910084 8.85691390 1.18042785 0.97009221 -0.36507151
O 3.51900619 1.53876903 2.44330768 0.44751148 -0.91164203 -1.61118470
O 15.90886868 1.47396584 2.54615582 -0.13536427 0.13922189 1.32426805
O 3.31161141 4.62672271 2.29337171 0.16752635 -0.14485278 2.19546450
O 2.07899468 1.41665070 8.15282753 0.45887464 -0.74230445 0.95621338
O 14.42636142 1.54223854 8.21282109 -0.45149507 1.72382108 -0.11304020
O 2.02724767 4.61079148 8.17247277 1.66205392 -1.33948413 -0.70030278
O 14.42351149 4.57885276 8.22298903 0.06332424 -0.39791470 2.02621494
O 12.01533235 1.58003596 1.48322644 -2.00147057 1.45128883 -0.44285611
O 24.33013024 1.52094874 1.42944871 -0.02131823 -0.88204737 0.47928121
O 11.98877321 4.58429706 1.50012128 -0.44029051 -0.57739519 -0.57856816
O 24.51339876 4.67270974 1.51330128 -0.21315324 -0.77770054 0.35181386
O 10.66539679 1.52599912 7.14060369 0.00706560 0.49714126 0.00371452
O 23.11958568 1.54667485 7.06602518 -0.26956594 -0.55402024 1.10253394
O 10.72009926 4.55448600 7.04910354 -0.03227591 -0.24877659 0.01185024
O 22.96823561 4.60588345 7.14369542 0.04794719 -0.67247568 0.31849685
O -1.00176869 1.55976966 4.27114105 0.43263757 0.79086615 -0.39238998
O 11.45076937 1.60733831 4.19768829 0.38681495 -1.22649779 -1.01565609
O -0.96083099 4.57731943 4.17975355 0.63190303 -1.47202270 -0.16791975
O 11.33889433 4.56532302 4.17080018 -0.37006663 -0.63085300 -0.15970398
O -2.41642291 1.49335128 10.00233698 0.00962115 -0.81628590 -1.23329607
O 10.04364765 1.60413891 9.87619210 0.78253508 -0.32308459 -0.33433745
O -2.35516613 4.56061407 9.88338611 1.66509079 1.75378271 -1.51332263
O 10.08716578 4.58506194 10.06803080 -0.17209356 0.11995579 0.37177300
O 5.83936603 6.10353953 1.43198080 -0.55934903 0.04894907 0.04075539
O 18.33831269 -0.07173025 1.52831647 0.19388080 1.68296063 1.53662998
O 5.68561221 3.19405500 1.43090360 -0.52278311 0.01091731 0.07206696
O 18.24647692 3.10876541 1.46650162 0.10991252 0.28589759 -0.56551652
O 4.37454453 6.15631449 7.16017688 1.30475251 0.79567068 1.07984598
O 16.86527605 -0.04764286 7.18331745 0.09853503 0.42161098 0.30592321
O 4.37445605 2.99391742 7.14344765 0.42559730 -0.09702612 -1.48697814
O 16.90235657 3.16091489 7.24307267 0.26089574 0.14483485 2.00109255
O 5.15325584 6.09090231 4.25124546 -0.82848177 0.22752631 -0.52872004
O 17.68444442 0.09584236 4.23361079 -0.64064250 2.23393352 0.42940574
O 5.17521638 3.15549512 4.26623124 1.51597641 0.76628729 -0.44096667
O 17.65281014 3.09071882 4.21329170 -0.91841959 -1.13740253 -0.78061526
O 3.92242357 6.11229544 9.93438809 0.55901686 -0.85293404 0.43910501
O 16.26400348 -0.06742928 10.04939363 -0.14227263 0.32987102 -0.51562207
O 3.93065764 3.12629644 9.85374698 -0.70352827 -1.57873078 -0.55006636
O 16.14051929 2.95749729 9.80663568 0.19386353 -0.05056800 0.27639884
159
Lattice="24.836869 0.000000 0.000000 0.000000 6.149270 0.000000 -2.770598 0.000000 11.385038" Properties=species:S:1:pos:R:3:force:R:3 Energy=-622.704529 Virial="-57.052234 1.144466 -3.692057 1.144466 -42.883278 -6.043163 -3.692057 -6.043163 -42.152920" O_vac_type=O_O2 O_vac_tier=low O_coord=3 defect_vacancy pbc="T T T"
Ga 0.12093019 -0.05832084 4.48346273 0.29659500 0.15567381 0.13770647
Ga 12.40100590 6.11404424 4.53066228 0.11297558 0.33605071 0.59393200
Ga -0.03192713 3.10242975 4.50838462 -0.22541702 0.47872699 -1.62164021
Ga 12.43211994 3.00884232 4.48507741 1.15730065 -0.58803692 0.22036987
Ga -1.40692171 6.12084968 10.26390203 1.71236951 -0.38820493 -0.48478304
Ga 11.07914935 6.04280486 10.27461824 -0.36371176 0.19258838 0.38010833
Ga -1.33437187 3.19069615 10.09885230 2.08938909 -0.80272299 -0.00378110
Ga 10.98595047 3.11065787 10.22061581 1.69140808 -0.88666857 0.99005836
Ga 10.87072743 0.05289283 1.12111062 -0.12664547 0.76672065 0.98643540
Ga 23.30096686 0.09427426 0.98973390 0.61857580 0.12539052 -0.73355383
Ga 11.04792928 3.08624706 1.17409746 0.65857523 -0.34985672 -0.58721700
Ga 23.41515667 3.01750157 1.18638447 -0.94173255 -0.29461451 1.18386892
Ga 9.59375389 6.07813358 6.91948411 -0.68904236 0.76628534 0.63538591
Ga 21.85429629 -0.00508255 6.75146565 0.62789661 0.93190629 0.80702415
Ga 9.46214552 3.17806653 6.91760161 0.02865710 0.05154746 0.93337260
Ga 21.93236878 3.03965903 6.81374489 0.59426315 -0.08875758 -0.17870342
Ga 6.11618745 1.53279483 4.54594663 -0.96368628 0.33383601 -1.62841413
Ga 18.56096236 1.48861807 4.44484831 0.03768185 0.78364009 0.75072022
Ga 6.31767741 4.59193812 4.47620452 -0.02393458 0.93975747 -0.31309510
Ga 18.52488158 4.69250070 4.57799631 0.05220018 -1.09280334 0.18796411
Ga 4.78380812 1.49603009 10.26727532 -0.18130421 -0.35392531 -0.25927975
Ga 17.32859545 1.55715978 10.22652349 -0.46536071 1.85345336 0.13524307
Ga 4.74099531 4.77977145 10.17249758 -0.02912254 -0.12075999 0.53011271
Ga 17.28925550 4.53773081 10.25062113 -1.10246363 -0.57806263 -1.20515851
Ga 4.75604691 1.55462326 1.22057310 0.45512110 0.04514309 -0.05577210
Ga 17.32123265 1.48044231 1.24965761 0.06844516 0.66060972 -1.49470127
Ga 4.85187598 4.56210636 1.22217151 0.02064425 0.06538950 -1.15550710
Ga 17.21804831 4.51187867 1.12323731 0.51723849 1.01721960 -1.35096340
Ga 3.37676776 1.51213570 6.87624287 -1.37223226 -1.24774129 0.69913917
Ga 15.76578281 1.47557804 6.94525131 0.18312189 0.05410118 1.57897065
Ga 3.36740838 4.69131242 6.90560117 -0.65126149 1.23649419 -0.43644467
Ga 15.78545837 4.66843194 7.02930815 -0.78523309 -0.37877822 -0.87385958
Ga 1.43339076 1.46907751 1.75308560 0.44133049 -0.81768079 -1.07205889
Ga 14.03979171 1.59123323 1.77383414 0.00651563 1.98108211 -0.51137127
Ga 1.42427410 4.72025933 1.82476479 -0.61877654 -0.16234771 0.30204405
Ga 14.06743244 4.67092748 1.97800624 0.01348736 -0.47579939 0.47977510
Ga 0.18253495 1.61070977 7.46158412 -0.46625312 -0.18406480 -0.81506352
Ga 12.59585263 1.54458346 7.45967861 -1.14682766 -0.60107172 -0.30447095
Ga 0.08722781 4.58533662 7.41557855 -0.34893644 1.49280429 -0.46864455
Ga 12.56750261 4.62502542 7.59080470 -0.14444806 -0.07371549 -1.43368497
Ga 9.56650970 1.55889129 3.91439781 -0.01101204 -1.04600231 -0.60780688
Ga 21.85009346 1.46087306 3.84591184 0.52667429 -0.74810562 0.37076743
Ga 9.48766292 4.78640907 3.94500205 0.57580776 0.87866588 0.47693679
Ga 21.90499816 4.49494409 3.76469334 1.47429424 -1.39670605 0.08751049
Ga 8.12605346 1.52000075 9.56417192 0.21647910 -0.83542435 -1.01922966
Ga 20.40862770 1.58393752 9.66360527 -1.52485821 -0.14278052 -0.84452742
Ga 7.96467656 4.69246022 9.63536227 0.64421298 -0.24606953 -0.65377532
Ga 20.40154808 4.70068471 9.57382772 0.29859465 0.19249818 -0.29704182
Ga 7.69213261 0.04477620 1.90829970 1.52104662 0.80548158 -0.79640967
Ga 20.20974092 -0.02386329 1.86886866 0.24050806 -0.70022740 -1.34338201
Ga 7.79821623 3.08060535 1.65349873 0.07123732 1.73764567 -0.59173530
Ga 20.14016868 3.09010332 1.73784693 -1.24825136 -0.00924578 0.67456008
Ga 6.48951546 0.04814085 7.50145692 -0.06641904 -0.68887034 -0.69845984
Ga 18.82344120 0.01017720 7.50260167 0.13725940 0.41481179 1.38805985
Ga 6.41655596 2.93503741 7.53023594 0.81335322 0.36751339 -0.03240271
Ga 18.82123639 3.25302303 7.51451869 -0.28421064 -0.05960703 0.52604696
Ga 3.26246936 -0.01061025 3.92525193 -0.84019913 -0.36129300 -1.76406360
Ga 15.76801465 6.12141581 3.92420525 0.28208495 -0.26902903 -1.17670369
Ga 3.35596304 3.00972897 3.94067822 -0.56373830 -1.16001181 0.76538422
Ga 15.83537327 3.10810002 3.92292966 -0.71796369 -0.36948721 0.73751912
Ga 1.87959016 -0.17673599 9.66270457 0.87758657 -0.86980871 -0.91191759
Ga 14.18905952 6.21227819 9.43088538 -0.46805545 -0.87783152 0.87613265
Ga 2.05572030 3.21134787 9.62220446 -0.59330596 -1.27525913 -1.15329192
Ga 14.33210047 3.06215196 9.62278720 0.01391530 0.07539769 0.25212776
O 1.95857622 6.15243917 0.74843421 0.43359680 0.21724924 -0.48898748
O 14.17130423 6.21403173 0.53602753 -0.10778148 0.65749187 -0.00909159
O 1.93514190 2.99207365 0.54847640 -0.80556268 0.42322947 0.29267724
O 14.30865080 3.03513655 0.59494041 -1.23648368 -0.40272122 -0.16033053
O 0.60402314 0.00131037 6.33798373 -0.11540232 1.56378880 -0.70657397
O 12.88640255 6.14355480 6.36953330 -0.41489677 0.30874101 2.40294028
O 0.53547171 2.96419877 6.42789082 0.31693947 -0.77256217 0.50939998
O 12.97693332 3.03830722 6.28328637 -0.26844002 -0.05232118 -0.36367025
O 9.13204414 -0.02150773 5.11515693 -0.07108552 -0.51803378 -0.53202264
O 21.52580872 0.21737354 5.05332427 1.46495222 -1.25424896 -0.29914016
O 9.22015587 3.13416462 5.04580929 0.50134381 1.84386150 -1.07691172
O 21.67746582 3.02150318 5.00006688 -0.27416063 1.70141673 0.80296039
O 7.75038342 6.05854217 10.75002232 0.96570327 0.07597713 0.82438541
O 20.19723309 5.99198563 10.74829879 0.58494407 1.50987508 -0.26973037
O 7.75525464 3.13734132 10.80699601 -0.70700704 0.08082089 -0.56015036
O 20.20773984 3.15357239 10.77273400 -0.05301895 0.62692157 1.00891662
O 8.11363611 1.44809073 0.73256709 1.51958029 -0.71798152 0.88700799
O 20.62454567 1.58630331 0.53713257 0.19185814 0.49151858 -0.69903748
O 8.10250909 4.64385003 0.58631881 -0.14169444 0.90937708 0.18781130
O 20.60742914 4.57856430 0.46194962 -1.39878262 -1.22271434 -0.47143537
O 6.67811785 1.43125191 6.24149805 -0.79149621 -0.71533126 0.06159867
O 19.12680074 1.49155954 6.22430296 0.51791611 0.47377139 -0.63236202
O 6.81038152 4.59774526 6.33701899 0.35399617 0.56132904 0.39583005
O 19.21511114 4.66616138 6.31919598 -1.12120005 0.39213151 0.18333457
O 2.90639790 1.50070454 5.09506326 -0.53629033 0.76973423 0.17256326
O 15.40278647 1.62173636 5.04158755 -0.14511987 -0.49370192 -0.88860292
O 2.95187285 4.57038446 5.11372065 0.50208031 0.05452063 0.78053324
O 15.30121523 4.58522843 4.87486355 0.40645953 -0.15995193 0.16473250
O 1.50675866 1.57439894 10.69340273 -0.09347265 0.33589904 0.83115251
O 14.03441664 1.49690591 10.67735424 0.90377192 0.19468973 1.74274453
O 1.59475258 4.59121597 10.72420102 -0.17139516 1.47166135 -1.80341852
O 13.94786276 4.63071470 10.76076840 2.41434140 -1.15930173 0.87432317
O 1.32182866 6.03254296 3.14496505 -0.20878818 0.74272171 1.76004605
O 13.73263113 0.10044657 3.22282417 -0.30284874 -2.34380280 0.60952996
O 1.32779426 3.09158320 3.19755892 -0.91969965 -0.11614008 -1.22201949
O 13.78862709 2.96961774 3.35303487 0.12917734 0.04127260 -0.34101214
O 0.02615764 0.06199841 8.87437813 -0.84518865 -0.51859372 1.48642767
O 12.51665690 -0.12352308 8.80193879 0.13290312 -1.17774614 0.78051871
O 0.10246835 3.06145105 9.00690754 0.62003134 0.24974777 0.40807881
O 12.50664156 3.06452348 8.77403943 -0.38666560 0.28445867 0.28075345
O 9.72269309 6.25007257 2.43799190 -0.34528977 -1.13981192 -0.76754041
O 21.98939740 6.15418583 2.51819710 0.90161858 -0.54103123 0.01022018
O 9.80468897 3.05160100 2.50801475 -0.23849243 -0.90555283 -0.28933384
O 22.07214380 2.98333159 2.50670158 -0.16659522 1.03404149 1.45377272
O 8.24753708 0.03569371 8.09664450 -0.55477175 -0.78979300 0.46639219
O 20.61695560 6.02987491 8.16780605 -0.57355207 -0.81986889 0.06179755
O 8.25198548 3.06659198 8.22495721 -0.47285518 0.43623941 -0.20261752
O 20.78572268 3.04118861 8.16153178 -1.48889102 0.22503078 1.20841521
O 7.53377085 1.47724937 3.02684160 0.75353467 0.10114647 0.49444315
O 20.06982165 1.42279692 3.26155445 0.27085394 1.75422597 0.85192879
O 7.54980132 4.68859256 3.25421253 0.83209031 -1.10452649 -1.37210124
O 19.88137168 4.63485238 3.22651328 -0.30482704 -0.95002853 -1.19645322
O 6.20136813 1.61805986 9.01318526 -1.31379813 -0.71256859 -1.45830558
O 18.68264516 1.59472026 9.01234055 0.42515441 0.64224510 -0.25028976
O 6.23136661 4.70557622 8.82813027 -0.52771860 0.62611032 0.21385796
O 18.56866010 4.64688832 8.97044464 -0.48355927 0.14213937 0.55032975
O 3.50442793 1.41367625 2.48382368 0.86633262 -1.42911323 0.16101550
O 15.83263965 1.59023764 2.45180018 1.37466412 0.22583260 1.07273672
O 3.46363038 4.61001229 2.45382039 -0.99310836 0.34181756 0.99174348
O 15.90710393 4.59020926 2.52439209 0.39048110 -0.74067687 0.76003149
O 2.06185419 1.65467940 8.15589998 -1.77799330 0.40842815 -0.39903689
O 14.49772165 1.44279331 8.08862745 -0.46829391 0.07887081 -0.69554162
O 1.98831259 4.50593963 8.12074165 1.20751968 0.37181515 0.03268164
O 14.41851043 4.64376415 8.12189947 0.69566642 0.90501019 -0.00231596
O 11.96720658 1.59760239 1.62289557 -1.02237574 -0.52765575 -0.11239513
O 24.56488879 1.58484952 1.49392079 -0.46189857 -0.17130819 -0.10932520
O 11.96543087 4.62862902 1.61748241 -1.09359880 0.00460158 -0.71558650
O 24.44060888 4.56324859 1.46754898 0.23130092 -0.17851401 1.38210203
O 10.58816324 1.69158228 7.19297521 -0.83820042 -0.15929210 0.72898835
O 23.09093128 1.44847822 7.10827456 0.06876815 -1.50797774 -0.38555329
O 10.62575821 4.51604941 7.12951191 -0.13849545 0.73847533 0.73828927
O -1.07373361 1.43201600 4.27655407 2.18264467 -0.55076824 0.15270552
O 11.38822454 1.66484475 4.21341778 -1.59643998 0.55042934 0.29931704
O -0.95900302 4.76965996 4.13890544 1.25796683 0.11222105 -0.60727836
O 11.33213748 4.58500824 4.25014373 0.69867200 -1.19570530 0.28165468
O -2.25817725 1.55191406 10.02879538 -0.60881270 0.40443440 -0.24457491
O 10.13542823 1.54912731 9.88595666 0.07355995 -0.78308898 -0.28093464
O -2.36354936 4.67298872 9.93436651 -0.59572188 0.56868306 0.18398096
O 10.00864286 4.64817735 9.95974394 1.03455089 0.30043334 0.50439906
O 5.78793483 6.17615656 1.47188006 -0.27164425 -1.03284632 0.55127457
O 18.26731252 0.01928524 1.54509973 0.70034680 -0.90048800 -0.11860375
O 5.75602976 3.11092542 1.42927528 -0.57378336 -0.51222963 0.41842622
O 18.20894620 2.99750145 1.39597834 0.26475364 0.35931471 0.88564699
O 4.32131345 6.30141653 7.16816399 -0.67471073 0.56406445 -0.16199223
O 16.94799625 0.00492588 7.27393299 0.82390795 1.08685664 0.42737679
O 4.34533739 3.18134208 7.10065806 0.72370709 -0.72309387 0.37350744
O 16.92078642 3.05034481 7.22951942 -1.17859157 -0.20223314 0.25556725
O 5.13714340 6.06911534 4.23468481 0.56622267 0.52612703 1.12025287
O 17.54800689 -0.04727088 4.29194357 0.08092675 -0.80789311 -0.15948056
O 5.20526731 3.09957526 4.23693944 0.27779493 0.59372995 -0.51300844
O 17.64893875 3.07473641 4.19578659 0.15109182 1.20874982 -0.21957283
O 3.73945556 6.13014108 9.85034062 -1.11792453 0.58691634 -0.44708450
O 16.31008951 -0.11981847 10.02635458 0.72248180 -0.17492672 -0.69815721
O 3.64902840 3.09833852 9.97881059 -1.92265797 0.35510886 -1.22220163
O 16.33683492 3.00704760 9.89368874 1.27243218 0.75177683 0.26429983
159
Lattice="24.887298 0.000000 0.000000 0.000000 6.161755 0.000000 -2.776223 0.000000 11.408155" Properties=species:S:1:pos:R:3:force:R:3 Energy=-625.203011 Virial="-56.379418 1.316346 -0.907121 1.316346 -47.832532 -4.670285 -0.907121 -4.670285 -39.410576" O_vac_type=O_O1 O_vac_tier=low O_coord=3 defect_vacancy pbc="T T T"
Ga 0.05702000 0.07407472 4.70752464 0.44962293 -1.22076596 -0.49135819
Ga 12.41739462 6.23286403 4.50395870 -0.06425608 1.28817180 0.67251261
Ga 0.06574733 3.19313391 4.48328864 0.73253458 0.08692692 -1.31675570
Ga 12.55922038 2.89986800 4.41512265 -0.21990129 0.33729649 -1.81821599
Ga -1.39345459 6.21328946 10.13902811 -0.93311973 0.72208615 0.04430218
Ga 11.08372467 6.08604603 10.18023907 -0.57294453 -1.71719614 -1.08150338
Ga -1.46624073 3.18414772 10.15016232 -0.85757776 -0.58620078 0.79234711
Ga 11.06309214 3.00577560 10.18793149 0.47568488 0.87311265 0.18875253
Ga 11.04154174 0.00588351 1.26602373 -0.35198134 -0.36387092 -0.25952568
Ga 23.54080350 -0.00311758 1.21272884 0.29197885 -0.34427836 0.57270534
Ga 10.98146506 3.12202659 1.19623494 0.25092273 -1.67029787 -1.44688287
Ga 23.40907715 3.06654370 1.28554258 0.02538090 -0.25031917 -0.24181039
Ga 9.69245540 6.12868914 6.89358077 -0.26293887 -1.14674658 -0.41225430
Ga 22.10860436 -0.09689685 6.80412618 0.81606469 -0.10574858 -0.41378868
Ga 9.65324635 3.09012696 6.84193945 -0.21189275 0.70777885 0.34568755
Ga 22.19261782 3.10355010 6.87078523 -0.94404300 0.77950062 0.80987225
Ga 6.42048866 1.49706180 4.50898073 0.07371985 -1.15911988 0.12546144
Ga 18.71353516 1.57600134 4.44946468 1.06466204 -0.04276949 0.22061124
Ga 6.22818391 4.63810404 4.60048797 0.44997055 0.07944262 -0.17063210
Ga 18.70824871 4.62720827 4.68253085 1.21943649 -0.59389814 -0.46131255
Ga 4.93557547 1.62887155 10.35168074 -0.62794149 -0.18905316 -1.17796853
Ga 17.28220956 1.65531409 10.19332515 0.63875205 0.18278504 0.34096548
Ga 4.69804478 4.66643472 10.11304256 -0.72194951 -0.58962239 -0.27683127
Ga 17.27442843 4.50490184 10.28380407 -1.06520088 -0.87071146 0.30749848
Ga 4.82672656 1.49455736 1.27342686 -0.05504324 -1.46616082 1.08959683
Ga 17.21486269 1.45185606 1.34531108 0.41881720 0.09403028 -0.87277078
Ga 4.83785947 4.59098302 1.00288858 0.47067884 -0.13455681 0.49279476
Ga 17.17839798 4.49178350 1.19615214 0.59603327 -0.84618824 -0.29849309
Ga 3.49196392 1.57059166 6.75739770 0.18429637 -0.64082282 0.61858643
Ga 16.01989378 1.64968455 6.91035360 0.70264099 -1.17990063 1.08925776
Ga 3.43223367 4.62122480 6.91102647 -2.20172754 0.69816112 -0.21328388
Ga 15.94766780 4.63927034 6.92456606 -0.31063302 -0.09774991 0.62142460
Ga 1.51994788 1.60114382 1.80353746 -0.88546230 1.05868045 0.67112228
Ga 14.03866950 1.60163383 1.94223805 -0.22364279 -0.19214381 0.36808568
Ga 1.63468929 4.50316332 1.87717287 0.08358975 0.26058184 1.17879640
Ga 13.81588091 4.63865624 1.82598881 0.13913458 0.35810707 -0.45689609
Ga 0.21911527 1.52315766 7.46631363 0.82495124 -0.92923432 1.00507604
Ga 12.67085756 1.59200805 7.45271115 0.52160977 0.37264912 -0.14800539
Ga 0.13152543 4.53239808 7.48465924 0.38653347 -0.70293763 0.59015176
Ga 12.56011722 4.59455171 7.48790228 -0.18843938 1.28762265 0.08377641
Ga 9.46770109 1.62776382 4.08846028 0.57004109 1.37635026 0.84170329
Ga 22.01145771 1.35010286 3.83023386 -0.54801250 0.48515436 -0.54232415
Ga 9.48519748 4.51272583 3.87984717 -1.30338376 1.78546392 -0.23454794
Ga 21.92753083 4.65296446 3.94392177 1.08377372 0.40852383 0.81562533
Ga 8.12936537 1.51101043 9.50145165 0.77438756 0.37075678 1.50180012
Ga 20.62797007 1.50498418 9.61375722 -1.79754285 0.69749042 0.47769964
Ga 8.05021661 4.69892150 9.65506854 0.42655582 0.30806158 0.27930812
Ga 20.54000483 4.46192794 9.63955327 -0.04027285 0.60412044 -0.59258011
Ga 7.72996473 -0.07973977 1.74763324 -0.25074961 0.43720840 0.27071455
Ga 20.08317019 0.05734999 1.85166839 -1.39372705 0.63336610 0.98100756
Ga 7.87610257 3.14376202 1.76908133 -0.83790978 -0.47373943 0.33372247
Ga 20.05639577 3.03531307 1.84052123 -0.02682860 -0.13897592 0.10638753
Ga 6.47946165 0.00497820 7.53362793 0.26302665 0.65550485 0.43822170
Ga 18.72586552 0.12417715 7.38007395 -0.41179095 -0.59702779 0.08315693
Ga 6.31490489 3.16009650 7.60324597 0.64104141 1.13699969 0.76681670
Ga 18.88945488 3.13082212 7.44151974 1.21362400 2.03662144 -0.44065474
Ga 3.41295458 -0.01514563 3.81693539 -0.81337025 0.75294801 0.16977259
Ga 15.69112291 6.04944159 3.97730251 0.63870690 0.09415149 1.00056368
Ga 3.31289816 3.14384432 3.92661206 1.15126931 0.39548691 -1.29498925
Ga 15.89028743 3.09035254 3.85191217 -0.65624756 -0.89296274 -0.30062124
Ga 1.89142320 -0.00583628 9.44656223 -0.01415320 0.28320996 0.44869438
Ga 14.43537144 6.15682883 9.56997224 0.05847478 1.38142035 -0.91358452
Ga 1.98108987 3.09445563 9.71648126 -1.09247380 0.64962687 -1.02481809
Ga 14.32600104 3.05390489 9.60688265 0.30652990 0.12845316 -0.98249541
O 1.85877558 6.25749006 0.77577809 0.46198608 -0.49815253 0.27645957
O 14.27764005 6.15175845 0.63621506 0.47918593 1.05896713 -0.42971913
O 1.99307449 3.03403970 0.68929960 0.77007172 -0.98785769 -1.86338185
O 14.27273917 3.01243282 0.76882672 0.68655419 -0.48062760 -0.74836488
O 0.48452188 0.10155361 6.19146051 0.34778118 -0.21885413 1.03513805
O 12.75786034 6.21294477 6.26269616 -0.16355941 -0.48609367 0.55750332
O 0.56332579 3.07314579 6.27340330 0.02437536 -0.32510386 -1.51214137
O 12.95100740 3.16479949 6.41132980 0.70539326 0.12672107 0.43345150
O 9.32570869 0.04908347 5.01963745 -0.22936551 0.99261626 0.87320170
O 21.55344517 0.01809395 5.14508427 0.35706461 0.93162547 0.99297914
O 9.14922523 2.92886820 5.09623814 -0.13027021 -0.22973243 0.33728788
O 21.61485826 3.04650558 4.93916856 -0.80215837 -0.95146168 -0.05717869
O 7.86394189 6.16339324 10.72461064 -0.01244960 0.75945741 0.28059531
O 20.19136534 6.03925668 10.81098675 -1.96283394 0.40941031 0.73996729
O 7.83007566 3.07054604 10.81784175 1.36167366 -0.19971849 -0.84731599
O 20.15902902 2.95518256 10.79238228 0.02400266 1.71503056 -0.68500781
O 8.12828918 1.49453588 0.60662815 0.42497435 0.92094222 -1.48125594
O 20.58073665 1.67125754 0.50333275 -0.47422513 0.14091481 0.10261323
O 7.95414478 4.51361674 0.49495010 -1.60793523 -0.70877883 0.17202069
O 20.61392259 4.63238444 0.63813450 1.43205956 -0.63051913 -0.43624010
O 6.85307373 1.46744758 6.40677482 -0.83916904 0.30028776 -0.47552937
O 19.23629198 1.55079519 6.46932263 0.36068420 -0.43736228 -0.44996455
O 6.67289521 4.65157743 6.39897494 0.82698095 -2.97848958 0.09886987
O 19.03882404 4.67246773 6.25180578 -0.36094471 0.40249671 0.29402833
O 3.11569821 1.49701759 5.07980009 -0.94640910 -0.29393978 -0.54677672
O 15.44878162 1.67644397 5.14987539 0.18027357 -0.13334204 0.85895397
O 2.94915145 4.59045769 5.10430862 -0.28040078 -1.31852835 -0.30708431
O 15.50287669 4.76709037 5.16812766 -0.58025858 0.09126342 -0.23951743
O 14.00197506 1.50702789 10.85318064 0.00540568 0.49490808 0.35265574
O 1.58609130 4.78981118 10.79480349 -0.30659339 -0.45836630 0.34872218
O 14.00731833 4.59165592 10.78332848 -1.32846837 0.58215853 1.20599131
O 1.48571551 6.09850248 3.12461920 1.44527679 0.11979802 -0.02137786
O 13.75297600 0.07971949 3.11735623 -0.35301052 -0.54973519 -0.43229038
O 1.17991652 3.10777341 3.12540931 1.09689723 -0.19352237 0.43584958
O 13.78584064 3.04831371 3.27463929 0.28146934 -0.25906533 -1.57012985
O 0.01729115 0.06159123 9.03966733 0.30246474 0.46459083 0.64652786
O 12.42643122 0.02770190 8.93692939 0.47322353 -0.89171487 -0.53451462
O -0.17190795 3.01617712 8.86537123 -1.63356345 1.32398339 -0.26622452
O 12.56132386 3.01717964 8.78564425 0.53107466 -0.44825318 0.88490543
O 9.68170850 6.21337661 2.50323144 -0.45541613 -0.10760668 0.18702601
O 21.99545715 6.08774048 2.51090044 0.07418050 0.17937746 -0.63573434
O 9.67532046 3.10942381 2.43157685 -0.29173966 0.53669458 -1.11615447
O 22.13855924 3.01183185 2.45021212 -0.54981086 -1.64087779 -0.87797028
O 8.34765962 -0.13670895 8.23855176 1.23951644 0.21242725 1.46170676
O 20.81695856 6.09721880 8.17831809 -0.11223162 0.36067049 0.53702580
O 8.23711668 3.10733867 8.26056836 -0.21355395 0.42734963 1.58576200
O 20.69469220 3.04404590 8.17170150 0.44991385 0.01462647 -0.49926150
O 7.59088269 1.55071321 3.14380237 -0.87799432 1.07169011 -0.22755116
O 20.04469438 1.40694358 3.18781948 -0.71978588 0.27789715 1.14822907
O 7.59357022 4.55791527 3.21240007 1.86292718 -0.08668701 0.09933247
O 19.99886860 4.74376523 3.24998265 0.21568691 0.56539233 -0.91284781
O 6.26615915 1.66355261 8.89294997 1.57479609 0.05117170 0.25149828
O 18.64710016 1.37253286 8.96662637 -0.15132534 -0.05044321 0.50142505
O 6.29683179 4.74249691 8.90847948 -0.76669112 -1.14081459 1.01982623
O 18.76043461 4.57932523 8.93933228 1.14056608 -0.43763721 -0.64086263
O 3.62765647 1.51970008 2.35491530 -0.27155111 -0.24274250 -0.39035058
O 15.84245510 1.54164059 2.49242135 -1.11191743 0.44396258 -0.33288415
O 3.35066420 4.60871229 2.52446121 0.45263706 -0.20887510 -0.04980935
O 15.78245998 4.50045236 2.48681480 -0.57595170 1.55361600 1.28178974
O 2.18871938 1.59817556 8.07469323 -0.66338174 0.39417228 -0.30038478
O 14.58416661 1.55799490 8.24063414 -0.31050401 0.14273473 -0.90077797
O 2.11017907 4.55125830 8.10115057 0.24115101 1.34754795 -0.27184700
O 14.52080541 4.45189457 8.11659132 1.59402640 -0.13821318 0.75558070
O 11.98877602 1.59522942 1.38425492 0.20081862 -1.56832531 0.97724221
O 24.48506672 1.56232552 1.49462944 0.52430596 0.32110441 -1.39479042
O 12.09534853 4.70418916 1.42789957 -0.66759796 -1.13971989 -0.07912085
O 24.62263250 4.73047371 1.33744425 0.12339753 1.56801083 0.51210574
O 10.78327579 1.64719377 7.06062458 -0.42887612 -1.17798443 1.11680513
O 23.21408587 1.56167964 7.09739153 -0.20259927 -0.01595816 0.89552981
O 10.61743806 4.54671044 7.12046265 1.90621306 -0.44972533 -1.17911970
O 23.14033322 4.61380706 7.20085276 0.76209316 -1.07866307 -1.52886035
O -1.04431240 1.56309491 4.22773407 -1.60901098 1.42412308 0.14965180
O 11.39952912 1.41295693 4.33020436 -1.16685730 0.43926292 -0.02101656
O -0.96256861 4.69837774 4.24639937 -0.72056705 -0.29645530 -0.06964888
O 11.43889935 4.55190306 4.23537891 -1.33485114 0.09854585 -0.68768875
O -2.36674767 1.40364714 9.91936065 0.80804249 0.92059777 -0.85271991
O 10.18451248 1.53763089 9.94011185 -1.58832765 -0.70733346 0.14739901
O -2.35005910 4.67112124 10.10377171 -0.18882794 0.07376724 -0.54313859
O 10.14445351 4.50832007 10.01679903 -0.41511521 -0.57648199 -0.37721260
O 5.94640928 6.15493298 1.44344375 -0.35469030 -0.37593928 1.20046634
O 18.29904674 -0.03250858 1.45419451 -0.48388913 -0.38833982 0.15925036
O 5.84904130 3.14356341 1.54493958 0.55757113 0.11845741 1.28195775
O 18.26441880 3.03394526 1.42297770 -0.40148034 0.04956431 0.47868399
O 4.41750999 6.18156325 7.24202413 -0.18036498 0.25344918 0.64941035
O 16.86809272 -0.18499249 7.11528204 -0.97548149 -0.81333730 -1.53988805
O 4.34845101 3.10087239 7.22659773 -1.49697741 0.75816177 0.39603046
O 16.80266088 3.00760426 7.20921891 1.71521505 -0.54586694 -0.39627992
O 5.21050817 6.04497905 4.11557609 2.27088914 -0.44767415 0.37402125
O 17.69174309 0.01875780 4.17456896 -0.81215484 0.74970299 -0.61168385
O 5.28746526 3.11071083 4.34952736 -0.11220749 -1.58962132 -0.87682707
O 17.67509127 3.05583696 4.26158527 1.19291423 -0.12599584 -0.23704397
O 3.82803071 6.04923733 9.86645273 1.44201238 -1.04139888 -0.08716914
O 16.28228493 -0.03276267 9.91035849 -0.12089990 0.03832298 -0.82830024
O 3.66229080 3.21206078 9.93773333 0.69974738 -0.19268355 0.38511482
O 16.28679150 3.27764036 9.81104379 0.65746291 0.37219444 0.03069176
159
Lattice="25.082151 0.000000 0.000000 0.000000 6.209998 0.000000 -2.797959 0.000000 11.497474" Properties=species:S:1:pos:R:3:force:R:3 Energy=-624.189571 Virial="-56.030627 -1.608198 -6.318252 -1.608198 -47.555209 -7.674926 -6.318252 -7.674926 -44.236125" O_vac_type=O_O1 O_vac_tier=low O_coord=3 defect_vacancy pbc="T T T"
Ga 0.06777949 -0.03522696 4.52080979 0.64026192 0.58707593 0.72810729
Ga 12.55814153 6.18267265 4.56120410 -0.14164131 -1.61586773 0.13237601
Ga -0.00282351 3.13844163 4.62503149 0.41510658 -0.86751399 -0.15528431
Ga 12.55820677 3.10687990 4.68912030 0.13511265 -0.19760233 -0.00527054
Ga -1.39972274 6.19333760 10.19713120 -1.15342599 -0.63042724 0.81418403
Ga 11.14629868 6.18767201 10.26954293 -0.51055993 0.91872643 -0.57728992
Ga -1.41929534 3.08822398 10.36072221 -0.13853740 -1.07152840 1.18532066
Ga 11.20804485 3.23065815 10.31039382 1.22611672 -0.16667231 1.21113606
Ga 11.10663067 -0.05152050 1.15428366 0.86420335 -0.25701820 1.43923655
Ga 23.59719680 -0.08299792 1.08524236 1.19605962 0.22167757 -1.32661229
Ga 11.02261695 3.08059931 1.13840698 -0.46311661 -0.26037058 -0.25413109
Ga 23.72183819 3.13881776 1.20775572 0.71010499 -0.52037049 0.17862709
Ga 9.70694957 6.28526993 6.87261884 0.13544630 -1.77843502 0.42555611
Ga 22.17746016 0.04792265 7.02541514 0.76360183 -1.19342709 -0.13694051
Ga 9.76144552 3.13892918 6.97862470 -0.14918526 -0.44809962 0.17463294
Ga 22.21124352 3.15713399 6.91970193 0.41005004 0.36029860 -0.36631450
Ga 6.24014010 1.57040228 4.62907958 0.49510893 -0.57739517 -0.20177135
Ga 18.77209613 1.53961588 4.55806163 0.88315996 -1.00085297 0.24391518
Ga 6.30798647 4.71079284 4.52908151 -0.63302777 -0.52641254 0.40998832
Ga 18.82494061 4.59510995 4.49009611 -1.48752410 -0.05305255 -0.54540598
Ga 4.89925745 1.60211753 10.38913953 0.00462366 -1.00690590 -0.55585650
Ga 17.40607766 1.48865924 10.34542653 -0.24266852 0.55964323 0.31988023
Ga 4.97716971 4.58227281 10.29093886 -0.38124846 -0.49931159 -0.18729546
Ga 17.49980093 4.60091578 10.35570674 -0.74284860 -0.60806258 1.95516924
Ga 4.73979907 1.58949444 1.20863149 0.02281339 -0.69830780 -0.87174124
Ga 17.53579166 1.49889058 1.19017360 0.91515068 1.65174007 1.02356450
Ga 4.91965496 4.60413359 1.22083189 0.37709300 1.88402093 0.14031805
Ga 17.37266440 4.65010718 1.17133806 0.50641170 -0.56276827 0.30686813
Ga 3.40041459 1.60900220 6.91232665 -0.72431414 -0.24934004 1.53642972
Ga 16.00094851 1.54138189 6.94912535 -0.77149227 0.78527864 -0.18693602
Ga 3.37002544 4.70755691 6.96248842 -0.25069719 0.99669581 -0.30428803
Ga 15.96672196 4.71312798 6.99379151 0.33902733 0.05288259 -0.70961932
Ga 1.53085451 1.52366055 1.80586064 0.38952043 -0.04145246 -0.84967908
Ga 14.15678015 1.51083485 1.80074270 0.64752103 -0.68985661 0.15481994
Ga 1.56802674 4.66459119 1.75502467 0.43351598 1.01643776 -1.09440800
Ga 14.21828690 4.69568149 1.86558358 -0.79074181 1.65149320 0.51901062
Ga 0.14193707 1.46695262 7.56019782 -0.28401580 -0.16336223 0.21227397
Ga 12.70724343 1.62479680 7.58037110 0.79960515 -0.75345880 -0.87374194
Ga 0.06576794 4.65224156 7.51312651 0.26346054 -0.12072256 -0.03964203
Ga 12.69966126 4.69064391 7.58224904 -0.06150714 0.53167149 1.16327377
Ga 9.62545215 1.47351426 3.92130559 0.42519203 2.01998755 -0.33591278
Ga 22.21697703 1.67688770 3.82541212 0.02721578 0.36708390 -0.76777012
Ga 9.63536178 4.63425885 3.87374597 0.07812956 0.39163839 0.18260362
Ga 22.11321433 4.68649437 3.92123198 0.28520963 0.24664872 -0.94330574
Ga 8.15451946 1.57461294 9.67428902 -0.17928470 -1.78245153 0.53487463
Ga 20.73398591 1.61371763 9.69884675 -0.93206152 -1.23651780 0.90477222
Ga 8.13940066 4.68422226 9.71438420 -1.03952218 0.19626511 -0.49218492
Ga 20.74386974 4.59704075 9.82690570 -0.42014966 0.53574603 -0.05458211
Ga 7.81655125 -0.07133491 1.79293337 0.16959692 -0.25793177 0.07680067
Ga 20.36346421 -0.02821948 1.88838022 -1.22441215 1.10001891 1.48751627
Ga 7.87190341 3.22392891 1.85687494 -0.19217113 -0.08579803 -0.51512569
Ga 20.44339748 3.03556134 1.78817870 -0.57737537 -0.15838934 1.28621927
Ga 6.33053782 -0.00172501 7.56319812 -1.70608676 -1.21473105 -0.40757581
Ga 18.96418736 0.01129551 7.61276072 -0.36070109 -0.39603183 0.67805950
Ga 6.47707365 3.05021521 7.52391734 0.03311243 0.66818458 0.45467962
Ga 18.89754157 3.01944362 7.48956887 1.11731816 0.56275690 -2.23713694
Ga 3.33403337 0.08130863 3.87729065 -0.41910683 -0.33744951 0.99936361
Ga 15.82412933 6.12900964 3.87406881 -0.61941683 1.04281367 0.18474402
Ga 3.35469526 3.09447314 3.91075892 0.65102603 -1.18271099 -0.02132824
Ga 15.86287332 3.02596447 3.84432137 -0.22650790 -0.39832239 0.18587464
Ga 1.94165001 -0.04976149 9.64595395 1.65879711 0.88577918 -1.42010687
Ga 14.47866070 6.20251936 9.64922903 -0.27810747 -0.11818194 0.99900476
Ga 1.96150699 3.13303978 9.66935728 0.17295284 -0.60609253 -1.64656410
Ga 14.47671062 3.09797926 9.57265353 0.02178818 -0.29147470 -0.05300676
O 1.89238793 6.21718084 0.70833937 0.57275077 0.16712511 0.43545555
O 14.45792412 6.19797906 0.61372574 -0.72287405 -0.41905318 0.60398932
O 1.82148784 3.11913155 0.57769361 -2.37921945 1.46697983 0.86550327
O 14.46118189 3.11960380 0.66110680 0.41477343 1.48771193 0.35057804
O 0.45536126 -0.06196266 6.44259091 -0.78306734 1.40362180 0.20865584
O 12.99603213 6.19356269 6.37260354 -1.32511260 -0.77684659 0.02572275
O 0.57713819 3.04857908 6.33001226 0.75958385 0.48453882 0.83061125
O 13.08762063 3.08617863 6.37143481 -1.62779300 -0.59178934 -0.76877928
O 9.27140989 -0.01317059 5.16198320 -0.18539268 0.99406805 -2.05299570
O 9.15775998 3.11891884 5.12204579 0.40096579 0.42450225 -1.82161046
O 21.75386013 3.10331438 5.09878038 -0.62564763 0.13391950 0.05010890
O 7.84306303 6.24534481 10.87545859 -0.05920538 0.39166014 0.52122106
O 20.40761274 6.31116002 10.86363158 -0.45404220 -0.77471814 -1.48463261
O 7.89121676 3.03129113 10.92678936 0.63265130 0.32025236 0.19285375
O 20.45824245 3.04182418 10.89993627 0.93888393 0.06577699 -0.18505308
O 8.08424364 1.62532735 0.59908106 0.28790910 0.17066188 1.22191005
O 20.76982995 1.57540463 0.65918331 -0.30857018 -1.49589777 -0.44384946
O 8.20272126 4.69203555 0.53230232 -0.03969302 -0.99711414 -0.50716867
O 20.66159294 4.56505502 0.55688276 1.02592866 0.54041365 -2.25348215
O 6.78321729 1.57568417 6.28804063 0.82300735 -0.19686729 -0.76090861
O 19.36748085 1.52397328 6.34697273 0.69674614 0.18631881 -0.22730557
O 6.71872547 4.60168176 6.37315261 -0.62443572 0.69252622 1.15682176
O 19.29650969 4.59883938 6.41096261 -0.49378583 -0.40735157 -0.67933074
O 3.03571144 1.53135004 5.05958653 0.56603667 0.99861545 0.29376970
O 15.52856685 1.65876756 5.14623395 0.34993377 -0.02832545 0.18074905
O 2.93182401 4.75487795 5.17265529 0.16781148 0.12291793 0.32647489
O 15.47552177 4.61375487 5.16806670 0.40010694 0.27092109 0.12546092
O 1.53081282 1.47693535 10.83594772 0.07750821 0.69443204 0.62667481
O 14.07574716 1.57646311 10.94401960 -0.89709348 0.20237918 0.56219022
O 1.52482794 4.70658288 10.91798508 0.84220549 -0.86341661 0.41764062
O 14.12221902 4.61338744 10.82299047 0.46518811 -0.26239645 -0.57948951
O 1.32925403 6.16651461 3.28614601 -0.52216416 -1.55356254 1.02688302
O 13.94323082 -0.04037565 3.25164272 -1.31205004 -0.07555323 1.11338989
O 1.43726706 3.08824097 3.30222376 1.15119778 0.05496525 -1.27427390
O 13.83000247 3.11546298 3.29309680 -1.27281933 0.68956721 -0.23207284
O 0.03066132 0.03491088 9.01479948 -0.13221336 -1.73156270 -0.59244500
O 12.60264658 0.00175103 9.00140423 0.07113556 -1.21220916 -0.75317985
O -0.02583933 3.13820800 8.95819373 0.99943293 -0.39424693 1.31442402
O 12.56906805 3.13321067 8.95333788 -0.48779822 -1.76179575 0.33520909
O 9.62754648 6.11821460 2.48311930 -0.81887076 -1.38947760 -0.65685657
O 22.34956049 6.23030092 2.44480828 0.08117507 0.42060052 -1.09495328
O 9.76387582 3.10980464 2.53753941 -0.80226674 0.08480804 1.08083670
O 22.33104389 3.08127980 2.58785800 0.05388865 0.33912306 -0.36104058
O 8.38864508 -0.08136142 8.26840817 0.22564375 0.19889559 -0.49733196
O 21.05351710 6.18495234 8.18733545 -1.81672653 0.48334133 1.64726432
O 8.40353152 3.15464308 8.17738165 1.36658610 0.33618000 -1.57755059
O 20.93055264 3.12923653 8.29789018 -0.97420895 -0.43632915 0.25860777
O 7.74076887 1.57140361 3.20825607 0.90678716 -0.52281085 0.71722133
O 20.21190402 1.53633407 3.25952588 0.37833020 1.18959559 -2.05002753
O 7.65860704 4.55462275 3.22992804 -1.08515313 -0.12370456 0.07232263
O 20.14558984 4.60806691 3.31758164 0.35119236 -1.16815815 -0.83523508
O 6.19266610 1.56942375 8.80798400 -0.80684589 -0.60746874 0.20500205
O 18.74732520 1.59687960 9.02475717 0.50176801 0.02384280 -0.47364965
O 6.28411529 4.71406797 9.00435988 0.17945475 -0.27937450 -0.67970450
O 18.73118369 4.62172808 9.04009425 -0.37275103 0.33849134 -0.08327146
O 3.49274709 1.52994587 2.46522743 1.15535450 -0.23642551 -0.91486265
O 16.09665382 1.37552999 2.45839466 -0.58367549 0.85417877 0.95738512
O 3.49726865 4.59827382 2.58337182 0.08988640 1.20826406 -0.04200892
O 16.06470158 4.67866364 2.50484091 0.19587480 0.32152369 -0.49863698
O 1.99720841 1.58495564 8.27210786 1.30681418 -0.23438459 -0.44386495
O 14.65156645 1.60172845 8.25490989 0.94003279 -1.00214371 0.15588874
O 2.08079119 4.64002639 8.31178112 -0.77998262 -0.71794048 1.02887417
O 14.63277313 4.69431329 8.19955028 0.01518825 -0.37998038 0.22502933
O 12.13892995 1.68717519 1.50766813 0.21654056 1.31306242 -0.22578542
O 24.73160827 1.56617022 1.55906611 -0.47750499 1.18834555 -0.08568092
O 12.10581029 4.67880570 1.49652078 -0.64003471 1.30991011 0.19875243
O 24.65480447 4.71446037 1.42977559 0.95653845 0.93334234 -0.10389682
O 10.82285973 1.61208844 7.21174044 -0.61689119 -0.51077942 -0.11056790
O 23.24032272 1.47959506 7.23182632 -0.58758154 -1.13797857 0.85804980
O 10.65730283 4.58645277 7.15792933 -0.96817407 0.46464326 0.34689094
O 23.31017207 4.79003634 7.22198988 0.72278996 0.02326563 -0.09530678
O -0.96986223 1.71304585 4.22514656 1.05534478 0.39696259 -0.02850905
O 11.53955753 1.58505617 4.32366716 0.15438913 0.30951191 -0.30259077
O -1.02525204 4.74421237 4.29727071 0.24968076 0.50024416 -0.27003989
O 11.48460078 4.62781490 4.29297665 1.63782242 0.04539456 -0.69308329
O -2.37400709 1.58915821 10.05378279 -0.31053321 2.03258008 -0.13514855
O 10.15333618 1.63999126 10.08633810 1.34824280 1.00176832 -0.22437627
O -2.39488549 4.65576336 10.09074726 -0.51439623 0.52360179 -0.16941357
O 10.16094016 4.66532143 9.99281414 0.00136499 0.32282095 0.02043486
O 5.86696474 6.19801002 1.54153755 0.27840959 -0.40927286 0.05356071
O 18.43763597 0.02385612 1.46555225 -0.40630390 0.15774347 0.02436682
O 5.83520379 3.16422202 1.40840574 0.60904481 0.26695795 0.38933699
O 18.39011333 3.08365414 1.54387239 0.07186351 -1.39320719 -1.63009940
O 4.52952046 6.15285590 7.33551786 -0.87910636 0.18634881 0.96051537
O 16.95532436 0.07031462 7.26430100 0.61388204 0.51651958 0.90370018
O 4.44607601 3.08161001 7.14620160 -0.56240378 -2.10338250 0.21270779
O 17.04297922 3.10401974 7.20491964 -0.00858288 0.96809267 -1.36337629
O 5.26913444 6.13919729 4.26301826 0.54757817 -0.19004558 0.71945941
O 17.79438210 -0.03688774 4.35044815 1.42020409 -0.65593768 0.71262109
O 5.21378816 3.19066273 4.32522278 -0.01079938 -0.09545014 1.47069651
O 17.78571768 3.09963711 4.27451619 -0.19170453 1.53431929 0.16538578
O 3.91319841 6.27445497 10.03003648 -0.05414259 -0.33767166 -1.20586744
O 16.42150854 0.02975144 10.05843601 0.48415232 0.58854400 0.27390572
O 3.98348301 3.04607075 9.95107541 -1.14478098 -0.44026066 -0.01099467
O 16.43792312 3.12319275 10.00598965 -0.20514202 0.95830485 0.92282182
159
Lattice="25.000208 0.000000 0.000000 0.000000 6.189710 0.000000 -2.788818 0.000000 11.459912" Properties=species:S:1:pos:R:3:force:R:3 Energy=-623.200911 Virial="-51.697124 -0.188325 -1.880183 -0.188325 -45.809950 -4.989251 -1.880183 -4.989251 -43.281173" O_vac_type=O_O1 O_vac_tier=low O_coord=3 defect_vacancy pbc="T T T"
Ga 0.03472054 -0.05689173 4.59499134 0.07654327 -1.64136774 -0.67301075
Ga 12.49783759 6.22178989 4.47283356 0.79948826 0.66406970 0.42590957
Ga -0.04928873 3.07305253 4.58040399 1.59949122 0.99592240 -0.73732306
Ga 12.61050848 3.13521981 4.57248106 0.54201749 1.09958889 1.67341423
Ga -1.44195569 6.16769222 10.34141364 -0.03311987 -0.23167632 -0.28864222
Ga 11.13047631 6.15461815 10.30779246 -0.39276555 0.29840679 -0.13973779
Ga -1.40784353 3.08241462 10.33219261 -0.40743943 1.47496632 -0.15183743
Ga 11.03417735 3.06985090 10.25609557 -1.02028200 -1.00913867 -0.27359816
Ga 11.16975397 -0.02438767 1.24204928 -0.04495428 1.34425566 1.02950788
Ga 23.55195094 0.11015796 1.18627084 0.11348385 -1.25622749 0.34033351
Ga 11.11319294 2.95160021 1.23000593 -0.28952862 -0.21378916 -0.35555277
Ga 23.58480159 3.09173329 1.18409048 -0.50203839 -0.72866459 0.45471741
Ga 9.70331192 6.20085919 6.91349272 -0.26039952 1.39495751 0.75446277
Ga 22.14483875 0.00173538 6.84667923 1.28869509 1.89845709 -0.42222245
Ga 9.75942215 3.10382711 6.84070262 -0.03545465 0.62387128 0.66698751
Ga 22.22358787 3.02013263 6.90129945 0.35353087 1.10874819 0.77330012
Ga 6.29678147 1.54548350 4.64126651 0.04771063 1.43867189 0.43358021
Ga 18.75055279 1.45502928 4.54423118 0.87807197 0.46722760 -0.55090920
Ga 6.20915495 4.68208121 4.57753324 -0.17658639 -0.83571364 -1.21765498
Ga 18.78216802 4.62162636 4.51590901 -1.42002240 0.77320555 0.13854507
Ga 4.82051791 1.58867075 10.27458603 0.37279253 -0.59437716 0.96631343
Ga 17.41724272 1.58253221 10.30973996 0.07278966 -0.62692831 -0.82112232
Ga 4.87151021 4.67313851 10.32173142 -0.11598903 1.31157082 0.53459064
Ga 17.33604340 4.65758927 10.31524282 -0.63948063 1.22936979 -0.09957381
Ga 4.88987463 1.50216770 1.14574878 0.39574943 -0.34598167 -0.03728008
Ga 17.33197661 1.47542509 1.15192297 -0.56297426 0.59371707 0.19625423
Ga 4.89043356 4.62715389 1.28930955 0.14757592 -0.53615599 0.70366630
Ga 17.32405612 4.68228543 1.22179388 0.23751012 -1.34018773 -0.60400872
Ga 3.42112411 1.63870518 6.87633953 -0.47634071 0.76207468 0.17871945
Ga 15.99082977 1.55797940 6.91219746 1.73951231 -2.15728576 -1.23937317
Ga 3.48512064 4.71490493 6.93008021 0.91910612 -0.62493411 0.00735410
Ga 16.03973563 4.57262906 6.90415105 -0.21178310 0.55886583 -0.18232298
Ga 1.64080278 1.62696708 1.78047935 -0.39041490 -0.65940726 0.38388222
Ga 13.92853210 1.55119052 1.81919956 -0.26691693 0.60355522 -0.42486819
Ga 1.57878523 4.64410206 1.94283715 -1.53053312 -0.35645151 0.75020233
Ga 14.05442277 4.66749934 1.78014029 -1.35410215 -1.53036559 -0.68145322
Ga 0.21660359 1.60434617 7.52160172 0.56449685 -0.86626630 0.51461903
Ga 12.64960996 1.60468119 7.46726998 0.87391378 2.14522381 0.03219857
Ga 0.11532862 4.56868658 7.53538990 -0.58285685 -1.28691253 -0.84940603
Ga 12.55893517 4.54209243 7.43990069 0.91082508 -0.58158490 0.68829113
Ga 9.48254032 1.40523810 3.92557843 -0.20367376 -0.34412561 0.59842995
Ga 22.13558549 1.59860580 3.98187046 -0.55263194 -1.06871101 0.79064112
Ga 9.63500507 4.66214363 3.85966670 -0.15820787 -0.98971643 -0.71240876
Ga 22.02327577 4.73852997 3.95912419 0.65990972 -0.28334099 -0.20585455
Ga 8.15239045 1.54760553 9.67576686 0.20662619 -0.35846550 0.79290992
Ga 20.55242061 1.58490278 9.67801678 0.80048716 -0.18207306 -0.70777103
Ga 8.20281956 4.74184532 9.68554256 0.72100159 0.26838829 0.64797392
Ga 20.80041489 4.67977325 9.68641148 1.00792079 0.48262864 0.99408420
Ga 7.76896863 -0.02841537 1.79565464 -0.46548016 -0.30738269 1.01636570
Ga 20.23792969 0.03912576 1.77023302 -0.43063292 -1.26959459 1.86589685
Ga 7.73318085 3.18906258 1.89705149 -1.28652691 -1.26573841 0.92038880
Ga 20.22483387 3.19620477 1.69251439 -0.29278943 0.63929384 -0.36471457
Ga 6.48501299 -0.11421253 7.51782023 -1.46713905 0.11563881 0.65114331
Ga 18.85350496 -0.01822957 7.45630225 -0.36068844 0.34436957 1.00139719
Ga 6.38682078 3.12901911 7.61939172 -0.75346812 0.33492951 -0.37853404
Ga 18.94047382 3.12213317 7.53405230 0.03096492 -1.45378295 -0.34988828
Ga 3.23763584 -0.07751795 3.91025210 -0.32499067 -0.17010393 -0.20280003
Ga 15.76559123 6.12989962 3.93746657 0.85620786 -0.71207716 0.46443143
Ga 3.17531867 3.08230719 3.94798143 0.07312361 -0.85114282 1.06787832
Ga 15.81043557 3.01917730 3.92391963 -0.68444581 -0.88772410 0.02247971
Ga 1.89153722 -0.01035725 9.66199109 1.19703292 -0.03738804 -0.97185002
Ga 14.38554772 6.18991797 9.59355222 -0.91524885 0.71396195 -0.17461960
Ga 2.05345499 3.05130349 9.69218143 -0.03045697 -0.85198329 1.10280600
Ga 14.33557296 3.17958666 9.55398148 -1.50000509 -0.02408904 0.89368945
O 1.87032361 6.15114913 0.68618502 0.76576248 0.28329558 -2.10074222
O 14.46564283 6.08498012 0.63960682 0.82623131 -0.37486063 -0.99764824
O 1.95263599 3.01149797 0.60827293 0.05717040 0.44519748 -0.22788506
O 14.42487798 3.04347443 0.60938234 0.02268917 1.22083506 -0.07976404
O 0.47998389 0.01423434 6.34539681 -1.23429097 -0.03688882 0.97229312
O 12.98392267 6.25706545 6.34949335 -0.40037543 -0.04858968 1.42256256
O 0.63163032 3.11526829 6.39152449 -0.64699413 -1.18684387 0.40684115
O 13.01661573 3.05273788 6.34257397 2.18363229 -1.30501547 0.44099304
O 9.33213490 0.02940647 5.09913781 0.03383128 -0.93877421 0.48602588
O 21.66612452 -0.00475002 5.14806468 0.35274452 1.13957223 -0.56100678
O 9.20727496 3.12510420 5.08526611 2.29313093 1.63647863 -0.48855797
O 21.76198775 3.07299613 5.08685393 0.77220141 0.55085478 -0.87988478
O 7.71174765 6.09144455 10.84669823 -0.12330235 1.70476798 -0.64899285
O 20.36144165 6.24745388 10.88854438 0.35593125 0.01264373 -0.78474512
O 7.87790901 3.00730215 10.91283665 0.25440007 -1.50757746 0.42152701
O 20.34482736 2.99356006 10.81781534 -0.05679976 -0.88798281 0.90402934
O 8.07879444 1.54742995 0.58973870 0.17120082 -0.07720231 0.23054808
O 20.63640163 1.66169476 0.76138606 -0.34314315 0.14605337 -0.80361127
O 8.08927127 4.64004367 0.64277852 -0.66849237 0.17184038 0.53233233
O 20.66808713 4.73783458 0.67719774 0.39815983 0.57315133 0.42495285
O 6.74200698 1.60062366 6.31911970 -0.22955082 0.64376742 -1.49270277
O 19.27065825 1.47108794 6.43446531 0.79343372 0.35053172 -1.28002620
O 6.69361830 4.52950822 6.36342615 -0.84790027 -0.18508146 -0.92815056
O 19.20077431 4.57336719 6.35285011 1.26568932 -0.29779658 -1.78630491
O 2.95925718 1.54948467 5.12936714 -1.01933042 0.09251952 0.28362232
O 15.42849011 1.57252808 5.08332190 -0.52435175 0.33126160 0.02590502
O 2.92923438 4.74477106 5.14382262 -0.04128131 -1.09931491 0.14277442
O 15.48402612 4.63419110 5.07079650 0.44999013 1.20102882 -0.12988694
O 1.52381221 1.55124417 10.87021443 -1.00842208 -0.23750054 -0.45103285
O 14.20298937 1.54612894 10.84232889 -1.66030709 -0.21798242 -0.03590455
O 1.61912426 4.67351078 10.85476950 0.24398559 0.60099223 -1.06686321
O 14.03992474 4.67565332 10.88180640 0.72940549 -1.08610236 0.72151494
O 1.26408012 6.26651379 3.21373567 -0.37322408 0.28495767 -1.04865094
O 13.86920435 -0.01091269 3.10462436 0.66260400 1.78108932 -0.23864254
O 1.31389038 3.04493457 3.22516446 0.48645465 -0.06144143 0.32144749
O 13.84495343 3.04689726 3.32070898 0.20968655 -0.14348153 0.00599753
O -0.10151472 0.03502373 8.92262206 -0.13526572 -1.48183804 -1.30260710
O 12.47336581 -0.09395625 8.98729559 0.01596172 -0.20191841 0.45702753
O -0.05395201 3.12665521 9.10248153 0.24804340 1.61481721 -0.51569255
O 12.42584139 3.04458783 8.88259340 0.03717957 -0.48409492 0.93932772
O 9.73690902 6.11896733 2.51105839 -2.33245661 0.18348908 0.89499671
O 22.26988700 6.28452517 2.58034671 -0.97233487 -1.11493098 -0.13522751
O 9.74655886 3.00669145 2.51629024 -0.06880332 0.32617696 0.51324055
O 22.26765146 3.10661264 2.57100289 -1.19822235 -0.08250696 -0.06158549
O 8.36332316 0.13119310 8.12512593 1.26444727 -1.00044893 -0.63431147
O 20.87797027 6.27125614 8.24172116 0.97997835 -1.99972999 -0.03878098
O 8.26061987 3.20808424 8.20122011 -1.26410018 -0.02075239 -0.05011245
O 20.85948945 3.04669355 8.21076386 0.10044580 1.28525950 0.46851531
O 7.63105875 1.62947522 3.25223580 -0.12175338 1.44294299 1.00814001
O 20.15894992 1.56895906 3.21818388 -0.03756535 0.81491858 -0.78228709
O 7.60492576 4.64149931 3.13542215 -0.76565395 -1.25822933 -0.90228455
O 20.14694695 4.58413055 3.24236788 0.46760189 -0.53272483 0.73468161
O 6.30715067 1.58773232 8.82769225 -0.11358613 0.75437314 -0.89530218
O 18.70741991 1.53933858 8.98856235 1.86098909 0.85902936 -0.78471144
O 6.30138445 4.66311070 9.03365892 0.07116290 0.79036946 0.01820507
O 18.65656188 4.60225376 9.03700547 0.51573738 -0.18004568 0.31240772
O 3.36493072 1.66862220 2.43143232 -0.08345043 -1.16658973 -1.11636734
O 16.01916311 1.44197926 2.54576246 0.78064953 -0.19888365 0.56735140
O 3.51663530 4.63375833 2.44403878 0.12904881 0.96922818 0.10316888
O 15.95398841 4.60966432 2.54574712 0.60595799 -0.17078414 -0.10548475
O 2.03096924 1.51755314 8.25740256 0.05400149 0.51606641 1.43643364
O 14.48864850 1.62298963 8.28895621 -0.75740715 0.77237086 -0.40581874
O 2.06447494 4.60357012 8.27939169 -0.98667307 -0.83693070 -0.84829596
O 14.63489423 4.62002097 8.13153992 0.86705770 0.46167058 -0.62203617
O 12.08803311 1.69051152 1.59427596 -0.28275481 -0.36306992 -0.50528830
O 12.08038686 4.65174270 1.47359379 -1.29096247 -0.40443978 -1.55730727
O 24.57712527 4.60523669 1.44952499 -0.99063762 0.53236669 -0.32653649
O 10.75534139 1.55218383 7.23195900 -0.72982448 0.50210401 1.23950635
O 23.18525206 1.49883535 7.19438874 -0.00315429 1.32837869 -0.30568043
O 10.77078865 4.66919119 7.21435808 -0.82533146 -0.22322314 0.99262901
O 23.07928457 4.59693337 7.21575251 0.51607011 -0.59481381 1.37274145
O -0.99433961 1.52588166 4.26579926 -1.06006518 0.47597143 -1.31138581
O 11.47727696 1.64068996 4.34702485 -0.02814325 0.49462245 -0.47479774
O -0.88974424 4.56945709 4.22188126 -0.27434423 -0.73238347 -1.50097901
O 11.52320575 4.74492664 4.22005042 0.38065128 -0.77719669 -0.87697017
O -2.38031792 1.53837578 9.93675533 1.02185343 -1.49704143 0.85250727
O 10.22012600 1.61475133 10.03055214 1.08456372 1.04750718 0.49401411
O -2.34484757 4.64662942 9.99436264 0.13275384 -1.60150098 1.13422711
O 10.11195298 4.53934937 9.97370888 -0.39647846 0.17818396 -0.20194897
O 5.88443922 6.25486539 1.52112996 0.95030952 1.14800685 -0.44020764
O 18.27613611 0.08042807 1.56870909 -0.60350177 0.15459350 -0.63839726
O 5.83962252 3.07911154 1.44789584 -0.03299558 -0.45427174 0.38122495
O 18.23896738 3.18100128 1.46119938 0.37054821 -0.68272828 0.15326627
O 4.51651941 6.20064921 7.29527525 0.03262880 -0.54516727 0.00222335
O 16.99314812 0.05046399 7.08597413 -0.12274967 1.57776160 -0.27979458
O 4.38050553 3.01309328 7.09312050 -0.40880235 0.52493275 0.18095029
O 16.91216489 3.04204623 7.18013107 0.81570050 -0.40339217 -0.56521846
O 5.32466201 6.23752274 4.20107143 -0.73571327 1.57386781 -0.55677953
O 17.74034560 0.03939252 4.25352574 1.79474484 -0.44183926 0.70163950
O 5.38216023 3.11559311 4.15075813 -0.38001096 -1.89064585 0.57360798
O 17.82414899 3.18063787 4.24896625 0.33968130 0.53293364 -0.74740063
O 3.89939681 6.17740266 9.94970012 0.64186686 -0.59534745 -0.24885009
O 16.29445975 -0.04837069 9.91435142 1.14165498 1.13033760 0.48895594
O 3.82056916 3.03247614 10.03291409 -0.68040325 0.60320874 0.42268077
O 16.43269629 3.07595767 9.95140833 -1.03492437 0.65849766 0.92338698
159
Lattice="24.988184 0.000000 0.000000 0.000000 6.186733 0.000000 -2.787477 0.000000 11.454400" Properties=species:S:1:pos:R:3:force:R:3 Energy=-624.211187 Virial="-51.086335 2.833089 -3.123539 2.833089 -46.067314 -3.723121 -3.123539 -3.723121 -42.705562" O_vac_type=O_O2 O_vac_tier=low O_coord=3 defect_vacancy pbc="T T T"
Ga 0.01900048 -0.04981670 4.61802671 0.12144029 -1.10482652 0.54883895
Ga 12.49993895 6.16479479 4.56089649 0.20520312 -0.17512235 -1.98207025
Ga 0.08032445 3.10507455 4.60277925 -0.17240347 -0.16873061 -0.56183488
Ga 12.49334423 3.06059769 4.49267091 -0.10001398 0.75603167 0.25123582
Ga -1.44090519 6.21927326 10.20481886 0.27678006 1.31529219 -0.47893385
Ga 11.17427709 6.08446187 10.25240108 -0.44477941 0.53491256 0.15080754
Ga -1.31570246 3.13223449 10.31684963 -1.53052847 0.21113326 1.02269358
Ga 11.13316106 3.03767691 10.29347214 0.80498146 0.31818697 -1.06704306
Ga 11.22654460 0.07417370 1.19862751 -0.22360129 0.08600661 -1.41661002
Ga 23.57919445 -0.03993591 1.14648834 1.35161041 -0.93296089 0.06387824
Ga 10.98068150 3.03349422 1.22055386 0.70221175 1.14953875 -0.57110528
Ga 23.61408141 3.01304175 1.20288162 1.50072877 -0.09167517 -0.71779108
Ga 9.69163681 6.21394279 6.94672942 -1.45149991 0.31201828 -0.73012621
Ga 22.18414066 -0.12531222 6.87152869 -1.22856316 0.83110554 0.35973372
Ga 9.71068876 3.09106708 6.94304591 -0.43121487 0.00866533 -2.09900116
Ga 22.12712868 3.20100409 6.94835124 0.89878788 1.13878305 0.48040529
Ga 6.21459402 1.61717483 4.54121841 1.42958972 0.73950035 0.19092808
Ga 18.65503328 1.51732099 4.62730981 -0.74605279 0.51845066 0.08344657
Ga 6.23070787 4.69178296 4.50018989 -1.54531669 0.24850422 1.04484132
Ga 18.74107704 4.65713953 4.54404563 0.91138934 -0.39851978 0.08837984
Ga 4.78289188 1.49161791 10.38364312 1.21918674 0.18101844 -0.75508138
Ga 17.39877741 1.57014041 10.32477086 -1.34952577 0.81145534 0.77604097
Ga 4.81621194 4.49556480 10.33830319 -0.53659559 0.27883801 0.25360017
Ga 17.38898844 4.59649477 10.20006449 -0.77422111 0.77823001 0.58654512
Ga 4.86862392 1.58859554 1.17517941 -0.51095868 -0.01432379 -0.47024620
Ga 17.38687477 1.57100753 1.18805001 0.54568164 -0.20447941 0.54038264
Ga 4.85003788 4.65115579 1.19366394 1.34306113 0.28286293 1.25182051
Ga 17.31170179 4.52195312 1.12769538 0.24354901 -0.90189624 0.08601831
Ga 3.43577834 1.64038550 6.84136103 0.06806752 0.17840425 -0.94966705
Ga 16.00515372 1.56633013 6.82290210 0.63642584 -0.07988565 -2.21504417
Ga 3.48489060 4.58768270 6.80810097 -0.62398598 0.10272910 1.42420470
Ga 15.92093292 4.62565603 6.89012472 -0.00471315 -0.00046865 0.42993682
Ga 1.61918288 1.53087154 1.80342210 -0.65011615 0.17826750 -1.14364671
Ga 14.06145370 1.57661142 1.73809303 -0.19033054 0.08252409 0.77717257
Ga 1.56764334 4.61938468 1.81194192 -1.04872388 -0.91825437 0.73544654
Ga 13.99334461 4.59359987 1.86476817 -0.22248543 0.54345627 0.84282452
Ga 0.22576993 1.51180441 7.46818155 -1.23240447 0.30207203 0.14889756
Ga 12.60367209 1.43336663 7.53985947 -0.00986997 -0.47081594 0.03126521
Ga 0.11662388 4.58172191 7.53021857 1.16494791 -0.31586320 -0.00050914
Ga 12.65710844 4.74469008 7.65058601 -0.27406827 -1.23187309 -0.21379923
Ga 9.54764221 1.54153134 3.87086104 1.79529380 -0.23029687 1.05667015
Ga 22.00260151 1.58995539 3.85589956 0.06142258 -0.41738507 -0.82716848
Ga 9.56449706 4.66150144 3.94411380 1.00331516 0.60936035 1.23566496
Ga 22.08186815 4.61466571 3.87303917 0.32184818 -0.80783834 -0.52205314
Ga 8.19192958 1.55389178 9.62926730 0.82734549 0.84600485 -0.96296136
Ga 20.72816984 1.53704020 9.74799558 1.32681013 1.61084898 -0.42449885
Ga 8.05208569 4.67904476 9.62678282 -0.49417801 0.39648667 0.21782803
Ga 20.63566179 4.68846444 9.60371383 -0.35096530 1.73205237 2.05310565
Ga 7.76696234 -0.00831157 1.76008584 -0.27446409 -0.38249862 -0.55467725
Ga 20.22577742 -0.00542526 1.74225683 -0.06837660 0.03051311 -0.04286490
Ga 7.77526034 3.10155825 1.72734815 0.76718682 -2.12742269 -0.18856266
Ga 20.28398932 3.08935137 1.79200319 0.43219671 -0.11678534 1.30848423
Ga 6.47351537 0.01841927 7.48187211 1.27532112 -1.18940672 0.16184601
Ga 18.95476096 -0.00816113 7.56290517 0.10735010 1.74516302 -0.18249953
Ga 6.39789912 3.04811632 7.56936323 -1.43638576 -0.17378230 -0.78776787
Ga 18.88703880 3.15357340 7.41942058 -0.90492599 1.35086162 -0.00548006
Ga 3.28173981 0.03069617 3.91584589 0.18593699 0.76495470 0.04220145
Ga 15.74568023 6.14351998 3.87797940 0.72624419 -0.21873978 0.78766483
Ga 3.30305389 3.12246138 3.97232054 0.65939982 0.47947487 0.47521349
Ga 15.86862287 3.05965743 3.81519883 -0.01653183 1.19389347 1.55490279
Ga 1.96658212 -0.06397567 9.73094062 -0.19056485 0.56561205 0.31998831
Ga 14.40104802 6.19321690 9.54625495 -0.45011683 0.46934011 -0.09989777
Ga 1.90068436 3.18451820 9.69989586 0.15680714 -0.57370032 -0.72261534
Ga 14.47778759 3.09199178 9.75257108 0.79476926 1.13148654 0.21604165
O 1.83552444 6.19035244 0.53276009 -0.13788691 -0.01553211 -0.75447335
O 14.33074022 6.22497932 0.63472005 0.16268535 -0.64891626 0.08587454
O 1.93090562 3.16804831 0.61580717 0.36045807 0.76089505 0.98576037
O 14.41799240 3.13378108 0.58451247 -1.10635924 -1.46318315 -0.71103108
O 0.47520316 -0.11257404 6.39575809 -1.34232963 0.04056669 0.31013221
O 12.86716578 6.22477464 6.28783288 0.71384459 -0.10449981 -0.80515254
O 0.54118462 3.06648084 6.39223624 0.72400561 0.44044578 -1.08544476
O 13.01460058 3.02151600 6.32078695 0.21887724 1.67410119 1.41976755
O 9.16186543 0.03531847 5.14350141 0.00880453 -0.62646713 1.28099085
O 21.73891497 -0.05867402 5.09676093 0.29818780 -1.76067811 0.49168423
O 9.22194183 3.04831214 5.10767201 0.14200026 1.28991743 -0.98520483
O 21.67220709 3.10448479 5.16460408 -1.48978102 0.87701207 1.47197298
O 7.75908438 6.23524864 10.82536629 1.31563182 -1.42701188 -0.97402103
O 20.31358866 6.25009736 10.72544589 -0.40769319 0.22914598 -0.26311862
O 7.79252654 3.04927335 10.80051015 -0.95093768 0.54571734 -2.11895227
O 20.40145797 3.00405880 10.77816768 -1.43791848 -0.35004712 -0.37912670
O 8.23362284 1.61348105 0.57559495 1.03600591 -0.85326757 -0.00196657
O 20.56092525 1.55812762 0.61199897 -0.68253361 -1.49050062 0.92775144
O 8.16742803 4.60899880 0.56882041 -0.39781517 0.51799857 -0.34392968
O 20.65911641 4.64822940 0.57637616 0.97448915 -0.55151978 -1.06651872
O 6.68328791 1.52301868 6.37434802 -0.89627387 0.03001135 0.73223626
O 19.35453396 1.49969872 6.33933907 -0.11237576 -0.36438090 -1.51058191
O 6.86237020 4.54011777 6.30294334 0.13551626 1.02474765 0.52208556
O 19.30632078 4.68812589 6.38362028 1.46259415 -0.37210742 0.48752001
O 2.94255441 1.62392958 5.16314087 -0.13380014 -0.18710367 0.68011977
O 15.40921537 1.50431628 5.20688957 0.13491791 0.20843993 0.28878322
O 2.90394803 4.61225693 5.05573176 -0.30474208 -1.02725911 -0.18663577
O 15.40859616 4.61046927 5.02669512 0.88650881 -1.30281192 0.79489520
O 1.56626663 1.48945955 10.78204062 0.19787544 -0.71518011 0.22224298
O 14.02162115 1.51900970 10.83369841 0.41484093 0.60060560 0.56001131
O 1.54117343 4.65882428 10.78591661 0.49985893 0.24702166 -0.47842626
O 13.98709162 4.67738862 10.87469599 -1.48374367 1.08191149 -0.15400258
O 1.32800936 6.23811632 3.28444568 0.45450958 0.04813741 0.59673258
O 13.87281572 0.01088085 3.24111721 -0.19831716 -0.31384056 1.98286607
O 1.42167497 3.13492175 3.20281658 1.19204657 -0.23196384 -1.28366677
O 13.86906547 3.05540350 3.19927054 -0.22764828 -2.38631349 -0.04498322
O -0.01805065 -0.00153396 8.94117480 0.47695043 0.70524160 -0.40481601
O 12.52615933 0.03286281 8.77705971 -0.82598144 1.23927200 0.42689422
O -0.03910825 3.11706827 8.92586474 -1.21576491 0.38426926 0.93335130
O 12.48602713 3.13927168 8.90960261 -0.22649558 0.38409112 -0.23377973
O 9.61909911 6.03443234 2.49503537 -0.35451225 -0.98401478 -0.51468434
O 22.13164017 6.17367492 2.49864499 -0.59643501 0.36988987 -0.80574696
O 9.72914373 3.18477475 2.44977967 0.44852779 -0.43151110 -0.68434852
O 22.21030767 3.12828660 2.51231221 0.79982525 -0.44772766 -0.24601049
O 8.29482109 -0.05598178 8.21732160 -1.17343671 0.79026794 -0.34561097
O 20.77444855 6.24317157 8.24024121 0.42130568 -0.51844164 -0.53954281
O 8.32186270 3.02109277 8.27774494 0.69521324 0.87718616 -0.17807669
O 20.81182569 3.10047626 8.16599449 -0.64716645 -1.51029363 -0.36186398
O 7.57491401 1.64000573 3.22639562 -1.20602474 -1.30918525 -0.40828532
O 20.12844244 1.53580863 3.24958451 -0.38353439 -0.23536398 -0.83499629
O 7.60049670 4.68666499 3.25844060 0.29893147 0.83768391 0.43610588
O 20.11628273 4.65776289 3.23538559 -0.50059595 0.00496844 -0.53792336
O 6.27229647 1.67787676 8.99253346 -0.13994415 0.10858150 -0.55199456
O 18.75096655 1.64049894 8.99063636 0.19903561 -0.85325071 1.18801728
O 6.26634594 4.60152518 8.99904989 -0.29540579 0.58539735 -1.19286569
O 18.83624612 4.62358932 8.99694661 0.10241701 -0.09506237 0.81014446
O 3.49923260 1.51747272 2.44908706 1.16450070 0.26537776 1.22701268
O 15.94296761 1.51010150 2.58427041 0.96781115 -1.79366480 0.52500654
O 3.51321397 4.65864122 2.56280374 -0.29622456 -0.86932846 -0.75782117
O 15.84247714 4.50597187 2.52719782 0.02702074 -0.48006223 -0.43535548
O 2.13329214 1.56705635 8.28947456 0.60747001 -0.43118142 0.87579164
O 14.45771516 1.53617658 8.19381923 -0.97770576 -0.42427526 0.65418574
O 2.06607863 4.56326858 8.27861945 0.39113808 -1.82814652 1.52260292
O 14.55405583 4.62600770 8.21950675 -0.23793916 -0.21704190 -0.78375478
O 12.03485345 1.55653279 1.49660493 0.00957167 -0.52067317 1.41467286
O 24.60181581 1.49629725 1.51006478 -1.27522271 -0.86389463 0.27379159
O 12.15698017 4.71310522 1.52765279 1.32304979 -0.09611782 0.89861139
O 24.53810413 4.70734920 1.43658841 -0.08813465 1.03914655 -0.43103840
O 10.71389180 1.44767181 7.09966401 -1.17358905 -1.00391038 -0.17124102
O 23.21261667 1.48552781 7.22786580 -0.67667929 1.06752447 -0.17253346
O 10.67232946 4.72702579 7.24275423 0.52710407 1.47482592 -0.98323636
O 23.17153612 4.56183320 7.15913895 1.46264209 -0.74944088 0.20049905
O -1.06854659 1.46808774 4.20245269 0.14423189 0.91488728 -1.22758989
O 11.50009838 1.62403601 4.30240236 -0.02652703 -0.11456503 -1.69578803
O -1.04624593 4.64262293 4.22946037 -1.36479418 -0.06652770 0.79496286
O 11.45939504 4.58811633 4.22606925 0.59728126 -0.06190549 -1.30766771
O -2.45143167 1.50373690 9.95298994 -0.55118683 1.60753217 -0.12215008
O 10.13692135 1.54443075 9.99582155 -0.51096550 -0.93641926 -0.19160622
O -2.42230846 4.67162596 9.96814117 -1.07792496 0.81410466 0.76928468
O 10.15344139 4.69698032 9.83763270 -1.15680708 0.82754597 0.65243332
O 5.88654216 6.26108103 1.39204281 0.77471553 -0.76797117 -0.47469225
O 18.42663442 0.06466186 1.44990971 -0.99613479 -1.00357715 0.39186618
O 5.81713823 3.15556381 1.54642555 -0.33655006 -1.33195755 -0.00103289
O 18.34231628 3.05261531 1.52009255 -0.98355368 0.80364500 -1.08414570
O 16.99146944 -0.00414404 7.10376307 1.73369513 -0.31539982 -0.65283817
O 4.49023262 3.12535474 7.29567947 -1.07667590 -0.21055333 0.01211432
O 16.93061928 3.10308396 7.20874474 0.27553964 0.16405539 0.95308225
O 5.30480211 6.20444293 4.28218238 0.68396600 0.17637458 -0.56124588
O 17.72754657 -0.01121331 4.35413925 -0.20988147 0.95657783 -0.57919210
O 5.34978588 3.01314858 4.31606985 1.94773933 -1.66494512 0.62357344
O 17.78722229 3.09486009 4.26928860 -1.29811849 -0.11893361 -0.27269598
O 3.84334302 6.17471169 9.98973280 -0.02773377 0.82393654 0.00956449
O 16.30359560 0.10354758 10.05051587 1.06868749 0.18624652 1.95498307
O 3.91867051 3.04763551 10.05241456 -0.02892140 0.22055688 0.50139920
O 16.26163990 3.01684554 10.02662877 0.38828579 -0.36442190 0.09663017
159
Lattice="24.990079 0.000000 0.000000 0.000000 6.187203 0.000000 -2.787688 0.000000 11.455269" Properties=species:S:1:pos:R:3:force:R:3 Energy=-622.813717 Virial="-55.006282 0.913897 -1.966385 0.913897 -44.021289 -3.356230 -1.966385 -3.356230 -43.636342" O_vac_type=O_O3 O_vac_tier=low O_coord=4 defect_vacancy pbc="T T T"
Ga 0.06677243 -0.00576397 4.59931083 -1.15530919 -1.57946132 -0.10079152
Ga 12.46773280 6.24366779 4.65042266 -0.85348547 -0.41507712 1.85108805
Ga 0.10746381 2.99771451 4.66227506 0.85041105 0.29565321 -0.30090622
Ga 12.42159910 3.16210425 4.54630710 0.20492148 0.35231362 -0.78922525
Ga -1.36340430 6.08389956 10.31736070 -0.06102637 0.35803867 0.91469364
Ga 11.09731371 6.14428399 10.33101339 0.67345818 0.20645290 1.12473228
Ga -1.38672761 3.07975442 10.25210136 1.28778619 1.00717991 -0.11489030
Ga 11.22061034 3.20585539 10.33406705 -0.31836668 0.23425568 -0.13958322
Ga 11.08614096 0.06325198 1.11736560 0.31306934 0.99997710 0.60699213
Ga 23.66944081 0.03985728 1.13850412 0.23467926 -0.70619983 0.01192654
Ga 11.09864178 3.12252593 1.07776218 1.19967964 -0.29299145 1.32953343
Ga 23.65656418 3.10803911 1.13695794 0.38902751 -1.34121170 0.77239598
Ga 9.60139586 6.09946207 6.76063522 0.09100849 -0.20195644 0.81369272
Ga 22.18405058 0.00096466 6.93510206 -0.47671197 -0.70509106 -1.12562048
Ga 9.68306120 3.23457306 6.92286673 -0.82444278 -1.27703405 0.06284228
Ga 22.25504531 3.06194108 6.90427594 0.09534522 -0.19823902 1.65609426
Ga 6.25317416 1.63842804 4.67449903 -1.25717691 1.61902737 1.58878049
Ga 18.81472950 1.40348770 4.46840030 -0.42775266 1.02460316 1.12518573
Ga 6.30960860 4.58269260 4.41364027 0.38354704 -0.07357753 0.25087095
Ga 18.82529660 4.79797147 4.51927181 0.01158421 0.14983013 -0.74608304
Ga 4.75853302 1.55513792 10.35247701 1.16150949 -1.22715173 1.29977642
Ga 17.47815546 1.74774303 10.31470294 0.80215759 0.04888312 -0.74476828
Ga 4.99723216 4.63259782 10.27335052 1.00174615 -0.27200355 -1.37628511
Ga 17.32794900 4.65749618 10.45707151 -0.04408258 -1.23596604 1.03689759
Ga 4.83169244 1.43590877 1.28939896 1.37449301 -0.60989529 -0.92317863
Ga 17.30561536 1.62833151 1.20609134 0.20183193 1.40986012 0.53471086
Ga 4.91259080 4.69875518 1.12632960 -0.07982620 -1.15797182 0.66683383
Ga 17.32226853 4.63725539 1.28602384 -0.19016591 -2.00888429 1.47726269
Ga 3.45386012 1.51807810 6.89782385 -0.43536683 0.32075849 -1.01351495
Ga 15.92186649 1.46865124 6.83460426 -0.19490849 1.15922647 -0.47589235
Ga 3.27627983 4.53261678 6.91223560 1.10363139 -0.30565438 0.01858699
Ga 15.90365697 4.51935385 6.91458151 0.50633382 -1.13691935 0.93496087
Ga 1.38664133 1.46089409 1.73979495 -1.16877714 0.37432723 -0.66614277
Ga 14.01634193 1.39882299 1.90797158 -0.21059373 1.01587779 -0.16356711
Ga 1.54841270 4.56538284 1.88831735 -0.61729509 0.38175961 -0.09446992
Ga 14.18778113 4.61049315 1.74295780 -0.47610657 1.10183132 0.53122494
Ga 0.31479628 1.49272392 7.55815652 -0.45539650 -0.30394049 1.06586257
Ga 12.53267094 1.54205486 7.47412546 -0.36843291 -0.54290613 -0.29102682
Ga 0.19383961 4.67627674 7.58683521 0.38366279 0.66863694 -0.00557676
Ga 12.60735781 4.61843744 7.38686185 -0.44748876 -0.19797791 1.40487103
Ga 9.47788156 1.53185168 3.84983926 -0.25412901 -0.68387673 -1.54767467
Ga 21.93438141 1.46865963 3.96603314 0.27034873 -0.11770066 -0.34572735
Ga 9.46375762 4.61624781 3.90969946 -1.75297499 0.37267250 0.72940311
Ga 21.91746336 4.68427078 3.93223806 -1.46962089 0.63043333 -1.62619261
Ga 8.29131367 1.54618870 9.72562387 -0.42746126 -0.61437145 0.01463281
Ga 20.56731755 1.50345989 9.68145584 -0.35859479 0.08166154 -0.26092952
Ga 8.15277010 4.57392316 9.69303900 -0.76813551 -0.58793921 -1.35172054
Ga 20.64265716 4.57605082 9.67047929 -0.60723993 -0.46551818 0.14925509
Ga 7.73854782 -0.06217340 1.80518814 -0.80967675 0.62334650 0.59336854
Ga 20.27704450 -0.04326987 1.82501610 0.89094393 -0.39260365 -1.68269540
Ga 7.65298529 3.13349971 1.83512582 0.49695050 0.20854504 1.58273475
Ga 20.26626759 3.02523134 1.86461600 0.63358531 1.15754130 -0.68209571
Ga 6.44828706 -0.01876962 7.55887411 -0.23036750 0.22281853 -1.03406130
Ga 18.95002648 0.04085569 7.54173167 1.87884459 -1.30638047 1.15877213
Ga 6.35940920 3.13091419 7.61807668 -0.69807943 1.55451487 -0.28115967
Ga 18.86074589 3.08198592 7.52206632 -0.22306081 0.87866216 -0.34437179
Ga 3.33150411 -0.08413976 3.89196256 0.09448135 -0.67053375 -0.67682060
Ga 15.73076375 6.26931872 3.91366185 -1.27126138 -0.31908134 -0.86950178
Ga 3.23801388 3.13869776 3.94009987 -0.80991776 -0.31241083 -1.81362858
Ga 15.75599854 3.05056215 3.89434533 0.70739688 0.44681523 -1.12372815
Ga 1.83144419 -0.16898402 9.57614082 -0.24253980 2.43865011 -0.56158624
Ga 14.49197483 6.14241531 9.75631877 0.08205333 1.29589006 -0.58820301
Ga 2.06815029 3.16629996 9.60439365 0.15703563 0.34024932 0.89814823
Ga 14.36339769 3.01632840 9.73682680 0.60404452 0.30808752 -0.82273116
O 1.78251799 6.17719550 0.54612381 2.29511959 -0.28112925 -0.16144172
O 14.36626809 6.15671600 0.66543339 1.99010275 0.07844172 -0.41250630
O 1.81533159 3.14855634 0.59261388 0.15926845 0.35885741 0.29272522
O 14.34601213 2.95504294 0.61686752 0.31408765 -0.21037565 0.43632185
O 0.36484601 0.02702505 6.31240030 -0.69069232 0.17851333 1.41669426
O 12.94206680 6.29803130 6.39668682 0.05111849 -0.90419519 0.02431177
O 0.57825702 2.99231137 6.33705769 0.80780069 -0.40547536 -1.82397303
O 12.90776596 3.15358467 6.46972338 0.50045098 0.08597576 -1.40589130
O 9.25819527 0.11535414 5.10523099 0.01554223 0.85665539 -1.01486351
O 21.78987178 -0.21585399 5.16244592 -0.33711734 -0.22650818 0.45155137
O 9.10539995 3.02558654 5.14032426 -0.88193112 0.59036261 -0.29539778
O 21.63778348 3.14038956 5.04962438 0.38049798 -1.43281671 -1.16550729
O 7.85287562 6.22186126 10.88631901 0.51898878 -1.36781212 0.54083591
O 20.36944713 6.19663725 10.79766327 -1.06376079 0.21711377 1.09468118
O 7.75770420 3.03324269 10.83765515 1.02512043 0.10262514 0.02667549
O 20.26782750 3.20189178 10.78050174 1.09131266 -1.83115028 -0.28731934
O 8.17788603 1.51215037 0.60733518 -0.23414757 0.74537943 0.38838458
O 20.77127383 1.47390011 0.63604533 -0.19209165 1.14326533 -0.03330047
O 8.14582446 4.70925239 0.54558012 0.24749202 0.22415757 -0.40864407
O 20.54483733 4.61086471 0.57298448 0.59058350 -0.61605248 -0.39306343
O 6.78569349 1.62739375 6.34493840 -0.19030716 -0.47207875 1.16675259
O 19.21839357 1.47783155 6.35466945 0.00837001 0.98374204 0.03412583
O 6.78028381 4.59748456 6.31482261 0.18513785 -0.69002585 0.90478476
O 19.27961602 4.70117084 6.33701187 -0.70069283 -0.45615203 0.69922356
O 2.86147073 1.48800010 5.18941875 0.75147507 0.54271036 -1.12883303
O 15.51051598 1.57246536 5.11750534 -0.10503486 -0.91227225 0.02660221
O 2.84812571 4.61413137 5.08535852 1.10870339 -0.85250189 -0.65624820
O 15.40080589 4.78452655 5.11103711 0.38102775 -0.20448740 -0.77283486
O 1.55153377 1.56187818 10.75682917 -0.09597632 -0.49784516 -0.92273803
O 14.09737364 1.63275616 10.87583199 1.06738152 1.72900212 -0.05807828
O 1.60201371 4.48985794 10.86628204 -0.03051045 0.69160993 0.22614374
O 14.21258206 4.60969942 10.87227834 -1.44253084 1.21290310 -0.87968315
O 1.43238753 6.13982762 3.30104505 -0.27070066 0.97842430 1.56997333
O 13.95928405 -0.00999226 3.27055270 -0.32681277 -0.19270598 0.24998406
O 1.38018914 3.16975610 3.22353705 -1.16316969 -0.84860983 0.45329948
O 13.89712917 2.95033211 3.08267716 0.94151267 -0.17439764 0.31266524
O -0.03164096 -0.05260942 8.95509672 -1.01842570 -0.42003639 0.33634710
O 12.44675528 -0.01829107 8.99134630 -0.13411587 -0.86265434 0.92357400
O -0.16710358 3.13738699 8.91366492 -0.25052623 0.13031045 0.38175989
O 12.44707608 3.22744823 8.82343223 -1.14263069 1.49601639 0.35135072
O 9.67187285 6.19142477 2.51279853 -0.60122750 -0.39443257 -1.26898619
O 22.17283843 6.24731995 2.51404344 -0.52258459 -0.55472463 0.87163136
O 9.71195870 3.08840610 2.54524415 -0.49253016 0.65824398 0.13980688
O 22.07467588 3.02739700 2.46788564 0.63979023 1.01955108 -2.18962287
O 8.37851295 0.13754081 8.15678982 0.30985406 -1.23182509 0.11503550
O 20.92326713 6.12364598 8.18354877 -0.68498272 0.26896093 1.36645808
O 8.25728700 2.96778244 8.28505776 -0.47758726 1.02439374 1.56377593
O 20.86910481 3.11261379 8.27647252 0.97593438 -1.40522154 0.99140932
O 7.67160922 1.55088561 3.21239469 -0.68147163 0.52602802 -0.59420789
O 20.15055983 1.60850929 3.24730397 -1.39900924 -0.40597458 1.12492503
O 7.62376711 4.57152459 3.10027718 -0.79144797 0.71597094 0.61642777
O 20.00221576 4.51899769 3.28894445 -1.33156343 -0.36741854 -1.51002962
O 6.23303074 1.56380416 8.96214110 -0.07202656 -0.91450435 -0.19456894
O 18.76145352 1.36233006 8.87398795 0.14929424 1.18003808 -1.26514509
O 6.37833733 4.62930784 8.92571161 0.63449158 1.16951681 1.22268129
O 18.82306159 4.59031111 8.98132900 0.17296188 1.49497740 0.81850957
O 3.52120588 1.57707591 2.45077472 0.42211153 0.02605741 -0.70767459
O 15.95218941 1.51803426 2.47303970 0.69522996 -2.02042749 0.00779229
O 3.46175541 4.57090904 2.46825099 0.36707646 -0.86944952 -0.32893691
O 15.94967807 4.67810740 2.47082402 -1.06053050 -0.60758869 0.71533452
O 2.01478878 1.48771273 8.12675941 1.55136199 1.57237251 -0.53522814
O 2.12216165 4.60680380 8.33317456 -0.53203303 -1.02627527 0.48514182
O 14.60096773 4.55363217 8.24465744 0.34524871 -0.67522552 -0.28982834
O 12.14307333 1.51025384 1.46645027 1.79035824 -0.83205867 -0.91110633
O 24.58998359 1.72791974 1.36794269 -0.41460169 -0.49735549 -0.63159125
O 12.21703875 4.70706060 1.50074523 0.33716689 -0.07157900 0.10135717
O 24.39796382 4.60142134 1.44256319 -0.48302224 -0.88130658 0.39103907
O 10.67575695 1.49131669 7.19740688 -0.00486718 0.57810661 0.78327349
O 23.17974624 1.58500185 7.26811135 0.65906676 -0.99431737 -1.00162859
O 10.54595016 4.50283496 7.22559736 -1.78502329 0.76169891 -0.96178255
O 23.06908237 4.67035103 7.09474013 0.92046441 -0.25106445 0.33148641
O -0.85467568 1.45467591 4.30540397 0.19603679 0.61678209 -0.29221271
O 11.57735435 1.41321979 4.22896116 -0.38356976 0.15139978 -0.18653868
O -1.15819680 4.66746803 4.26373375 -1.72499829 0.31945433 -0.28693100
O 11.50402803 4.69109742 4.31776794 0.00805222 -0.76727509 0.33661593
O -2.27828991 1.60193622 10.12387312 0.19548325 0.52100481 -0.27290125
O 10.20893142 1.56229258 10.03958685 1.48871955 -1.15181145 -0.21710238
O -2.39048127 4.66558253 9.91475668 -0.12462111 1.17824214 0.89934796
O 9.86974631 4.71854735 10.00120348 -0.02099189 -1.02379161 0.73745026
O 5.84815956 6.14260241 1.44843818 -0.84973096 0.57476095 0.73491688
O 18.31614805 -0.09032322 1.53111403 -2.08701648 0.81018224 -0.76265932
O 5.87062140 3.10976942 1.44245143 1.22582894 0.27011473 1.43304315
O 18.30680718 3.00565243 1.50044999 0.44909565 0.73459177 0.28000761
O 4.37936208 6.15965373 7.10921748 -0.79203228 0.56744556 0.56984345
O 17.07906000 0.11967812 7.06549571 0.74900332 1.29245970 -0.29317627
O 4.30191694 3.11936493 7.29984414 0.07891662 0.15894856 -0.61546807
O 16.91868720 3.09336149 7.22588620 0.67888728 -0.06163338 -0.70692705
O 5.34404508 6.19163584 4.22865939 -0.07810348 0.15038485 -1.19718679
O 17.59364805 -0.12849445 4.21290772 -0.32870617 0.36797793 0.06910040
O 5.35807818 3.09746696 4.21102899 -1.03960447 -0.47129302 -0.57152371
O 17.76279190 3.11502303 4.31173462 0.28315664 1.00811703 -0.22260338
O 3.88459772 6.07607877 9.96716785 -0.46825783 -0.58687758 -0.27301214
O 16.38957443 -0.00596175 9.82621994 0.40759271 -0.84579229 0.32076053
O 3.88663262 3.20090824 9.99974850 1.01161926 -0.56237523 -0.12059841
O 16.37916195 3.12398340 10.08301221 0.22962253 -0.76082138 -0.62821766
159
Lattice="24.913131 0.000000 0.000000 0.000000 6.168151 0.000000 -2.779105 0.000000 11.419996" Properties=species:S:1:pos:R:3:force:R:3 Energy=-623.785336 Virial="-53.720474 -1.362926 -1.917812 -1.362926 -48.530661 -4.491079 -1.917812 -4.491079 -38.446128" O_vac_type=O_O3 O_vac_tier=low O_coord=4 defect_vacancy pbc="T T T"
Ga -0.07536451 -0.04141983 4.52347745 -1.24301670 0.97169739 1.88379432
Ga 12.42566834 6.23895852 4.56674699 0.05902362 0.65999266 2.68890854
Ga 0.04526726 3.10257302 4.54324633 0.02435660 0.25866311 0.61019425
Ga 12.52476879 3.12522512 4.62140905 -0.00472810 -0.86751864 -1.09309675
Ga -1.34933657 5.99317277 10.40639332 0.79963914 -0.35463757 -0.60360714
Ga 11.17268604 6.18697237 10.34580694 0.24927838 -0.29344409 -0.20086321
Ga -1.39271709 3.10588002 10.28058350 -0.07836955 -0.89402680 -0.08767388
Ga 11.10589750 3.10446673 10.25278787 0.29337626 -0.82654817 -0.42313069
Ga 11.03645152 0.16173966 1.33184115 -0.30433893 -1.24344776 0.59818307
Ga 23.56684635 0.04393204 1.13414549 -0.68588414 -0.89602554 -0.32810917
Ga 11.02443926 3.08782171 1.15048180 -0.15104559 0.66262723 -0.49823537
Ga 23.54011169 3.06229247 1.21547131 -0.59089434 1.06642899 0.32277484
Ga 9.74666896 6.20643709 6.76959760 -0.23110394 1.88680500 -0.57617804
Ga 22.05370667 -0.05325284 6.95220174 -0.57399039 -0.29982432 0.73257104
Ga 9.69049610 3.10595059 7.00622857 0.58796831 0.12890834 -0.00538709
Ga 22.07815874 3.08495074 6.88877803 -0.43189554 -0.26223079 0.25716718
Ga 6.30322801 1.40158297 4.47912273 -0.72996624 -0.07846983 -0.03128507
Ga 18.69136799 1.54327283 4.48589955 -0.66224044 0.16526489 0.43419981
Ga 6.19648038 4.70290395 4.47353570 0.22869656 -1.51539566 0.91824758
Ga 18.68082759 4.64592648 4.51227855 0.01395729 -0.12581296 -1.35419354
Ga 4.82097436 1.53344978 10.20520472 0.10398487 0.73864407 -0.69499844
Ga 17.24536188 1.49213323 10.20334973 -1.06784781 -0.29607449 0.36109231
Ga 4.91804667 4.66043898 10.30588300 -0.43894521 -0.85294191 0.17521100
Ga 17.31627625 4.67150932 10.28837264 -0.63663091 -0.40253523 1.08104918
Ga 4.80752255 1.49411533 1.27474610 -1.24162730 0.13780031 -0.93429342
Ga 17.35069690 1.54913417 1.05809792 -0.89173982 1.03115494 0.31626115
Ga 4.85011569 4.52100438 1.14624696 -0.40238138 -1.41192257 0.15236393
Ga 17.32489924 4.59812607 1.27513974 -0.67733077 -0.42819560 0.90233253
Ga 3.34708465 1.57218384 6.85602219 0.80772287 0.38219520 0.88968800
Ga 15.93065522 1.53797161 6.90567050 -1.74539548 -1.42180581 0.58217479
Ga 3.39526258 4.61478180 6.74778475 -0.11157970 0.42494974 -1.74733125
Ga 15.93613023 4.58637174 6.93768112 0.34501030 0.36501023 -0.67968399
Ga 1.49208960 1.49185362 1.88292135 0.71561349 0.76244854 -0.68882553
Ga 14.20549718 1.52095729 1.88533176 -0.49846388 0.28957682 -1.66539157
Ga 1.55894938 4.58313426 1.80023466 2.19725535 0.48856812 -0.20848254
Ga 13.99490627 4.66874208 1.71330771 -0.98540765 -0.03545351 0.97586052
Ga 0.18174575 1.54954041 7.45245448 -0.02999195 -0.97209903 -0.54804037
Ga 12.82571393 1.53462664 7.39536864 -0.33048094 -0.72398830 -0.85053070
Ga 0.24689586 4.67486268 7.41305245 1.42893483 0.50202979 0.18393089
Ga 12.77854825 4.65443311 7.54341501 -0.72758800 0.85675324 0.47183617
Ga 9.55413307 1.32378705 3.91716858 0.60307538 -0.99553438 0.72318273
Ga 21.97212052 1.60920971 3.77996774 0.08359908 0.89172228 0.18239223
Ga 9.58326324 4.60226725 3.94431617 2.00568174 -0.32596725 -0.70494473
Ga 22.03212547 4.72673278 3.86519174 -1.27287678 -1.26332228 -0.23242616
Ga 8.08192904 1.51592560 9.76459841 0.05946456 0.03612796 -0.54156772
Ga 20.58178471 1.72151572 9.68831425 -0.66806140 0.72848428 -0.48365445
Ga 8.08961951 4.65441654 9.66465765 -0.77343950 -2.09224618 -0.03315770
Ga 20.59354663 4.61333801 9.70291926 1.10782050 -0.05513004 0.17577620
Ga 7.85766843 0.09263873 1.74174079 -0.89686334 0.00481912 0.88125710
Ga 20.25160134 -0.07111043 1.74026259 -0.51312024 -0.16278693 -0.64433640
Ga 7.82799308 2.98994821 1.70419157 0.27055767 -0.13366239 0.49419960
Ga 20.23703043 3.06068550 1.75470104 0.55779043 -0.12713233 -0.62247540
Ga 6.44401843 -0.06676566 7.50526792 -0.31650534 1.56335883 -0.17323278
Ga 18.78445965 -0.03961205 7.48032617 0.13044663 0.38240606 -0.02513270
Ga 6.26003281 3.02405891 7.48370814 -0.68829833 -0.71903903 -0.01485602
Ga 18.77296938 3.02973508 7.43389070 0.29006100 -0.03361352 -0.71613380
Ga 3.21747840 -0.00321120 3.84815972 -0.34514716 1.22370984 0.11040333
Ga 15.80140216 6.09741541 3.94271461 0.89267600 0.48768722 -0.11437746
Ga 3.30409280 3.07417471 3.88303858 0.04917022 0.89020780 1.01655573
Ga 15.71639110 3.07760463 3.96123725 -1.76006083 -0.07199854 -0.28129113
Ga 1.90163370 0.10627971 9.57081637 -0.61271342 1.28634858 0.30267976
Ga 14.48999317 6.07027720 9.65700176 -0.28747114 -1.50716143 -0.01323600
Ga 1.98828257 3.08206074 9.67994016 -0.10517945 -1.10102899 0.85867617
Ga 14.19748586 3.10607895 9.75865843 -0.81068639 0.71625459 -1.06011093
O 1.95958764 6.27028949 0.63134958 0.01755679 0.55114039 0.33931788
O 14.35678247 6.16439852 0.68060293 1.04191993 -1.47918309 -0.74177708
O 1.95709729 3.11010077 0.57497722 0.58309048 -0.38185267 -0.34074859
O 14.30096181 3.05380742 0.71349805 0.75533905 -0.06456281 -0.83209353
O 0.48057379 -0.03767078 6.48146105 -0.86717340 -0.14414463 0.67456663
O 13.06683364 6.12853717 6.32726059 -0.37593852 0.63206423 0.96531301
O 0.65772557 3.13128458 6.29499274 0.54469004 0.39141331 0.92701523
O 12.96687432 3.10904812 6.27923477 0.02267979 0.71164095 0.01094580
O 9.21845680 0.08588842 5.11418544 -0.36189627 0.28283435 -0.10653949
O 21.75148233 -0.11517089 5.06370324 0.02672713 -0.19808971 -0.59614028
O 9.12874233 2.98316147 5.06371835 -0.26292464 0.88396862 -0.88848406
O 21.66964864 3.14318506 5.02483588 0.47794426 -0.35300377 1.47356229
O 7.87467463 6.02161960 10.78649776 -0.30907007 1.08713857 -0.99749652
O 20.30936624 6.09749359 10.75680805 0.38438978 0.01916931 0.68308957
O 7.79688400 3.17351827 10.76192459 -0.10205982 -0.19942572 -1.30533781
O 20.32474694 3.04769787 10.95271110 0.39411017 -0.53812109 -1.12973307
O 8.03224332 1.49818135 0.66999312 0.75506817 0.07596293 -0.43950551
O 20.53612354 1.43310874 0.62593478 -1.07789448 0.39761455 1.01591848
O 8.14120570 4.54462932 0.65733084 -0.90711137 0.95298257 -1.84321551
O 20.63624848 4.71797446 0.67796762 1.32555369 1.52519298 0.54476091
O 6.71632037 1.47960169 6.48505986 -1.51746429 -1.89821976 -0.53223885
O 19.17910617 1.61238262 6.43217636 0.01523534 0.46012618 0.29737449
O 6.70630611 4.71152048 6.23932156 -0.54923328 -0.15376425 -1.09763451
O 19.14522356 4.60335284 6.31426003 -0.84000333 -0.13972368 0.51295517
O 2.85624315 1.43443369 5.07927924 -1.62901539 -0.02510077 0.18830773
O 15.39054437 1.56418054 5.12589117 0.89915652 -0.10512936 0.98580650
O 2.98572159 4.58024806 5.13042707 1.92344732 0.56760902 -1.29370587
O 15.41011073 4.71522932 5.03562517 -0.81166597 -1.14509289 0.55830957
O 1.51185032 1.49221403 10.84717794 1.77146001 -0.50268088 -0.75076451
O 14.04028680 1.56684337 10.80141175 -0.05386515 0.48827426 -0.75955664
O 1.56756381 4.67647851 10.78135233 0.05281005 0.46128762 -0.60712720
O 14.05375577 4.57126287 10.82658288 0.26061232 -0.30257812 0.31569579
O 1.37733220 6.23315150 3.17052829 -0.76478447 0.37353239 0.15651119
O 13.75964143 0.02387274 3.27423114 -0.59340333 -0.07751978 0.11656213
O 1.45905481 3.21055024 3.26120616 -0.38151508 0.01325386 0.86194782
O 13.80441144 3.04703356 3.23906833 -0.25748863 0.50356053 -0.28761550
O 0.08047266 0.02670761 9.05588546 -0.05253737 -0.59669916 -0.93162883
O 12.44781464 -0.09299031 8.95488741 0.94703632 -0.47330272 0.69204887
O 12.39879132 3.08399628 8.94755624 -0.12776121 -0.68260089 -0.43757767
O 9.81003660 6.18659503 2.40196720 0.00105108 -1.01748872 0.45088515
O 22.05377680 6.15623510 2.60007689 0.65544331 -0.40900979 -1.02794003
O 9.70364879 3.06091518 2.54725586 0.70866872 0.56571469 0.01272166
O 22.08344424 3.10454572 2.46869777 1.53530612 0.47509275 -0.19330739
O 8.28875304 0.03277673 8.28438247 1.94957944 -0.31231565 0.17943172
O 20.76474363 6.20030450 8.13392439 0.12843921 -1.52274211 0.62587713
O 8.34677506 3.22434142 8.22564265 0.31246862 1.64098232 -0.68898488
O 20.63605989 3.02284376 8.19091144 -0.34167741 0.16078042 0.36280583
O 7.71441683 1.69402431 3.17938141 0.34260985 -0.59551058 0.04647757
O 20.10744496 1.59668970 3.24776567 1.06570332 0.15122500 0.35951925
O 7.63933482 4.58945870 3.24872865 0.37143935 -1.30430687 -0.63882979
O 20.06622069 4.64017762 3.34211573 2.30022266 -0.87058541 -0.23524173
O 6.13077824 1.54672869 8.98398774 -0.71542296 -0.19107350 -0.58132533
O 18.70852611 1.44895684 8.91322324 -0.13452598 -0.80196569 0.69700065
O 6.26720810 4.67503814 8.99273281 -0.86720164 -0.58130028 -0.68928820
O 18.67522814 4.60988569 8.91570003 -1.23337113 0.08115800 0.93032827
O 3.33890458 1.58065156 2.54800904 1.16288201 -0.17774503 0.18578640
O 16.03481679 1.60537350 2.47784193 -0.97162675 1.00040379 0.53191435
O 3.50726157 4.64404861 2.41082695 0.63571165 -0.30060146 -0.38957136
O 15.93697809 4.47290329 2.62667232 -0.85255195 0.68065387 -0.08233770
O 2.07040219 1.57094954 8.32334544 0.23808048 -0.92473838 1.19377728
O 14.69509271 1.47184709 8.12717387 0.98629779 0.40679270 -0.79775285
O 2.09941188 4.68871898 8.24109357 -0.78393576 1.14175625 -0.34964818
O 14.57736714 4.54532538 8.15789598 -0.40326066 -0.63160270 -0.25531534
O 12.06590051 1.54662387 1.54413775 -0.46927387 1.44498099 0.28786897
O 24.48292631 1.47874933 1.40424828 -0.40991872 -0.20121469 -0.85363676
O 12.02707682 4.73250086 1.52053419 -1.05761065 -0.72381701 -1.77027714
O 24.61445774 4.70527495 1.50514406 0.36764230 0.65409926 0.93616328
O 10.61171738 1.53184935 7.23945359 -1.33561577 -1.91727519 0.42120869
O 23.13860343 1.49176149 7.26894004 -0.13247346 -0.48740741 1.14191628
O 10.62523813 4.62978977 7.21674212 0.98247992 0.47310331 -0.53759633
O 23.24717193 4.60897186 7.24188913 -1.29265047 0.04263578 0.89738577
O -0.97729207 1.52879888 4.22297844 1.54480517 -0.53984193 -1.27529016
O 11.43890067 1.63127478 4.23356628 0.51551998 -0.15080868 0.04273756
O -1.03537436 4.61178943 4.45608965 -0.08685311 -1.32581226 1.11224961
O 11.47906121 4.73925381 4.25296338 -1.05510816 -0.42825416 0.49421802
O -2.39488365 1.48324836 9.99998125 -0.42037505 -0.18264775 0.42552089
O 10.05519930 1.47211504 9.91088168 0.96884415 -0.46800496 0.20657466
O -2.45147068 4.59763285 9.80965893 -0.26685988 -0.76735373 1.06105441
O 9.99783597 4.62640013 9.82311653 2.21495259 1.32370391 0.49416755
O 5.94584550 6.09851681 1.48524267 0.16084372 0.04158093 1.07113501
O 18.17046460 -0.00634016 1.53597603 0.02530530 1.13238729 -0.04313894
O 5.83636037 3.17423214 1.58550199 1.02484024 0.29017793 0.39941821
O 18.13677567 3.17530779 1.52853634 0.79434530 0.65765448 -0.03622120
O 4.46164353 6.18095371 7.07185645 0.15460992 -0.71617387 0.71469507
O 16.87921578 -0.06369442 7.28967800 0.77424266 1.57609037 -1.76977748
O 4.44765185 3.08394041 7.26188443 0.86282109 0.46128489 -0.99374191
O 16.87095813 3.16080913 7.08851317 1.19557831 2.08031355 0.56248029
O 5.26391193 6.09130543 4.36694025 0.30472186 0.47681762 -0.61374823
O 17.53363407 0.01980357 4.18013263 -0.71622289 -0.24192509 -0.65458252
O 5.18478985 3.08710575 4.14786840 -1.23290942 0.52011894 0.12624039
O 17.69409745 3.16034525 4.20361517 0.24963341 0.75458380 -0.87892030
O 3.72807194 6.22186796 9.90819800 -0.34465899 -0.58156427 1.23113674
O 16.20762280 -0.05876768 10.00000475 1.07340155 1.11110291 0.84484829
O 3.91975784 3.05580551 10.09576113 0.09885654 0.32073107 0.54507446
O 16.35666802 2.95436147 9.79205151 -0.32111706 0.58956614 0.96007346
159
Lattice="24.878031 0.000000 0.000000 0.000000 6.159461 0.000000 -2.775189 0.000000 11.403907" Properties=species:S:1:pos:R:3:force:R:3 Energy=-623.664050 Virial="-56.254115 0.202087 -0.569364 0.202087 -44.839648 -4.214184 -0.569364 -4.214184 -42.873529" O_vac_type=O_O2 O_vac_tier=low O_coord=3 defect_vacancy pbc="T T T"
Ga -0.07811131 0.02920304 4.50213503 -0.16153937 0.21298532 0.71200337
Ga 12.39778505 6.20643197 4.52556991 -0.12491510 -0.06597898 -0.30679637
Ga 0.01883134 3.07323021 4.49174954 0.45729668 -1.36531411 -0.75555107
Ga 12.39083181 3.09902504 4.52668134 1.24967889 0.29266796 0.75572409
Ga -1.41684375 6.18139120 10.31595147 -1.15875008 -0.02844157 -0.26501228
Ga 11.02280825 6.17783503 10.28347389 -0.15295809 -0.24421149 0.31139827
Ga -1.41728559 3.09779077 10.23541987 0.10962670 -1.70757425 0.19345137
Ga 11.06942324 3.18283705 10.15831494 -0.94126820 1.89732684 1.50189492
Ga 11.02377313 0.02262644 1.17647854 -0.34324207 -0.74566186 -0.10015256
Ga 23.52289870 0.01694463 1.14009562 0.14336884 -0.27966852 -0.99214671
Ga 11.06816571 3.10415195 1.11515667 -1.24718845 -0.53474587 0.56486631
Ga 23.51202191 3.03889063 1.17854831 -0.13874139 0.53278210 0.47449985
Ga 9.74461243 6.28897507 6.86637104 -0.05432538 0.48532165 2.11367429
Ga 21.96086939 0.01280356 6.81281534 0.91876281 0.37073248 0.54995976
Ga 9.69259676 3.08673986 6.78038636 -0.18053624 0.17381341 -0.65967664
Ga 22.05669448 3.04551220 6.89060506 -0.39566969 0.21987554 0.46841387
Ga 6.23273828 1.51296095 4.52556484 -0.37310107 -0.02161082 0.50837459
Ga 18.73373154 1.49452476 4.54178117 -0.50827319 0.92861320 -0.47322416
Ga 6.20677950 4.61572346 4.54961600 -0.65206282 -0.07492700 0.40507766
Ga 18.69237144 4.65181673 4.46560493 -0.42725814 0.42044032 -0.60527330
Ga 4.85193689 1.58525159 10.24732641 -1.13277838 -0.76808571 -1.01171697
Ga 17.33323484 1.59906920 10.23620341 0.96114868 0.43494674 -0.64211158
Ga 4.84896608 4.57048762 10.25978216 0.15787380 -0.53238657 -0.15824950
Ga 17.21668265 4.67122514 10.22638847 0.93267486 1.22336625 -1.33546822
Ga 4.81061294 1.50889935 1.15343135 -0.55846420 0.88634733 1.02733588
Ga 17.19449830 1.51651003 1.12873837 0.42484771 -0.51758297 -0.48423886
Ga 4.83801637 4.58015079 1.20238224 -0.11398672 0.79699615 -0.25414907
Ga 17.24402154 4.67446354 1.15938704 0.39680952 -1.01191366 -0.45581285
Ga 3.44256224 1.48445689 6.89528520 -0.11911722 -0.06093334 0.41284458
Ga 15.97805451 1.57162868 6.86780374 -1.12262140 -0.22985466 1.04792057
Ga 3.43789389 4.63009259 6.84461002 1.47506932 -0.31643493 0.96989255
Ga 15.79504646 4.56299042 6.84905008 1.38244061 -1.00516994 1.46459211
Ga 1.58947415 1.52258989 1.83761786 -0.83567257 -0.38072372 -0.01418629
Ga 13.81351228 1.48287067 1.82171790 1.31844644 -0.77729172 0.53361510
Ga 1.56892908 4.56425540 1.81772191 0.90984204 -0.02927489 0.32395805
Ga 13.97623727 4.63116265 1.78462007 0.31802875 -1.44196289 -1.29720212
Ga 0.16735657 1.55154710 7.54335421 -0.67843954 0.77355308 0.77312194
Ga 12.67313330 1.50790924 7.44180436 -1.56864705 -1.23982438 0.87345934
Ga 0.24261894 4.60487514 7.46333229 0.18107720 0.01265736 -0.95095821
Ga 12.60920925 4.66889513 7.50502013 0.41252351 -1.67735871 -0.32921118
Ga 9.54338208 1.56077028 3.92513400 0.52507331 0.34519464 -0.04249255
Ga 21.93462802 1.60391949 3.84270963 0.95499961 0.19316169 -0.28717842
Ga 9.58614702 4.62397461 3.90056246 -0.49663672 -0.48976274 -0.50674638
Ga 22.03136485 4.60023188 3.96123586 1.37861481 -0.19059402 0.49516015
Ga 8.11332702 1.50235220 9.61414958 0.26140105 -0.18224882 -1.10624971
Ga 20.54921923 1.53449398 9.56543404 0.15684383 -0.28728723 0.72824463
Ga 8.16116074 4.59722374 9.65469088 1.66899720 -0.42083036 0.02266043
Ga 20.62074362 4.63030198 9.62753173 0.63688184 -1.12826104 0.12626018
Ga 7.67192879 -0.05254946 1.78161205 1.44944883 0.34430529 0.19542908
Ga 20.23425526 0.08351620 1.84006424 1.12919843 -0.30575202 0.25116381
Ga 7.82733883 3.03854939 1.86102784 0.84133008 -0.09449375 -0.63404920
Ga 20.23519504 3.05091929 1.77858167 -0.25015688 -0.50498584 0.98230557
Ga 6.37579036 -0.00627477 7.53053798 0.01839880 -0.11385659 -1.18393551
Ga 18.82446401 -0.06958720 7.50944740 -0.65431226 -0.24003748 0.32461294
Ga 6.30179647 3.13261056 7.53949164 0.00477767 -0.00709463 0.68357248
Ga 18.76325639 3.05759215 7.54329480 0.03704132 0.23964144 -0.09862216
Ga 3.32819375 0.07696785 3.98634795 0.21194414 0.19353680 0.06732363
Ga 15.71276010 6.08101104 3.82187405 0.47198691 0.47231228 1.03806999
Ga 3.32276499 3.06740364 3.89182042 0.97038975 0.18446115 0.27786059
Ga 15.79974392 3.02849570 3.91782839 -1.59960647 0.73461457 0.66861010
Ga 1.96567051 -0.03915433 9.52656725 1.57840191 -0.10705914 -1.25202821
Ga 14.26886590 6.05385602 9.64535632 0.31853332 0.36844831 0.72841656
Ga 1.94558542 3.13619011 9.52792776 -0.57959438 -1.21042598 0.03378027
Ga 14.28934828 3.00100485 9.59051754 0.26987346 -1.38731498 0.80763168
O 1.84320482 6.23093357 0.65779440 -0.75551380 0.21125386 -0.75125145
O 14.29426419 6.08353959 0.61334632 -0.45510868 0.73895845 0.90422136
O 1.89256378 3.11562000 0.58810194 0.64009788 0.71363092 0.58971484
O 14.34115426 3.11912958 0.63552346 0.72619182 -0.34385326 -1.19049813
O 0.47561439 0.00463595 6.32967935 -0.98433364 1.19106235 1.90566457
O 12.93229641 6.19445874 6.34905169 0.95962194 0.31835311 -1.28738091
O 0.48489486 3.02345726 6.34302021 1.91285885 1.67918151 -0.81883727
O 12.88114587 3.12975155 6.36699192 0.23108695 -0.05824336 -0.14709257
O 9.09652428 0.02255215 5.13338090 0.05321209 -0.56929172 1.51238707
O 21.55486974 -0.08396387 5.14045089 0.14568600 -0.71832237 0.85503949
O 9.06547823 3.05275692 5.08966739 0.36002187 0.91083632 -0.84508168
O 21.68737471 3.02504098 5.07098780 -0.11676529 -0.07135063 0.85728192
O 7.72420909 6.16468594 10.72442844 -0.68793586 0.56671372 0.49000389
O 20.20623360 6.11323080 10.74698449 -0.02178328 0.46842865 0.00886517
O 7.77647488 3.11385646 10.72092129 -1.37268951 -0.60257639 -0.92985050
O 20.28370252 3.01989793 10.77602798 -1.68647392 1.27510060 -0.25179546
O 8.10316492 1.56482855 0.60560820 -0.12019665 0.65318976 -0.17493715
O 20.43073569 1.50188995 0.59898697 -0.73835425 -0.43929012 -0.40692794
O 8.10270371 4.58841027 0.61699727 2.47994731 -1.47591696 0.44013875
O 20.61781249 4.64609668 0.61187906 -0.63710815 0.31694135 0.31953641
O 6.70316065 1.56868232 6.36137640 1.24265726 -0.63522950 0.75520611
O 19.21680295 1.50149771 6.40013152 0.42405136 -1.95467070 -0.42675238
O 6.64813640 4.52587846 6.32316662 0.43136153 -0.24694656 -0.35832115
O 19.13058192 4.59238778 6.18959781 -0.23423087 -0.53791957 1.06924189
O 3.04011516 1.58767203 5.08522688 -0.96254309 0.63658983 -0.57778072
O 15.44705836 1.63262265 5.13668340 -0.65280667 0.76023194 -0.47129656
O 2.91563251 4.56230245 5.01618085 -1.67330242 -0.79981379 1.14573487
O 15.46438183 4.59190664 5.01368988 -0.82564656 1.36960891 -0.16948386
O 1.57673013 1.48169464 10.76646951 -0.79832844 1.41333383 -0.34349752
O 13.94850717 1.57875100 10.75412452 0.40493552 0.81028738 -1.82422641
O 1.57063551 4.73342156 10.77810870 0.77219082 0.59173643 0.95568965
O 14.05179139 4.68074258 10.67919136 -0.91687358 0.53886149 -0.38117269
O 1.45511139 6.13489495 3.17507730 -1.46759363 -0.75574993 -0.69596036
O 13.83253840 0.03865605 3.25097537 -0.04163990 -0.48930016 -0.67628303
O 1.36336969 3.09911875 3.22276000 -1.44317907 0.79179598 0.24052987
O 13.79801475 3.06198737 3.20615892 0.75877623 0.21251158 0.10815106
O 0.04388482 0.00012400 8.94922571 0.87353964 0.34843780 -0.91036635
O 12.49812285 0.06735118 8.90751163 1.23128773 -1.79358221 -0.28324912
O -0.03662886 3.04127009 8.92538327 -0.36586172 0.09457336 0.45703442
O 12.39023865 3.07158421 8.96922142 -0.08553134 1.47324582 -0.98123868
O 9.66924968 6.12988705 2.44627746 -0.14812035 0.21165658 0.11300637
O 22.02499713 6.14628569 2.45102731 0.33639889 0.15340098 -1.47150776
O 9.65673904 3.07609776 2.44642556 1.58605238 -1.20184977 0.45001705
O 22.13059460 3.09164652 2.45619709 -0.17196722 1.02281750 -0.04115750
O 8.30982723 -0.00868536 8.17070951 -0.21821407 1.45005839 0.52346828
O 20.74983954 6.14351259 8.24799542 -0.55468868 -0.29618538 -0.36422509
O 8.30900494 3.03827400 8.06366544 -0.04630093 1.09551052 -0.51032480
O 20.76016559 3.05226906 8.19986741 0.71954635 -0.11735854 0.25505282
O 7.57055086 1.56599574 3.26296017 0.37076840 0.18546381 0.49952312
O 20.09734650 1.51783472 3.30255493 0.75638499 -0.84998873 0.56436887
O 7.62007495 4.58767764 3.23745130 0.11104485 0.31113925 1.01655684
O 20.00318904 4.63561098 3.20349188 -0.06869068 -0.69668334 -1.38072529
O 6.22930470 1.53254119 8.85426993 -0.10485399 1.08544575 -0.28818575
O 18.62976480 1.50874137 8.88475709 -0.79272115 -1.15531290 0.15475900
O 6.22263466 4.62187338 8.99248778 -1.30620913 0.50777608 0.63650174
O 18.60026716 4.64446838 8.98251144 -0.45140769 -0.50027217 0.25379898
O 3.34281202 1.51903387 2.44993109 -0.63682702 0.79045041 -0.63456002
O 15.88155787 1.50650728 2.50522855 -1.30674277 0.24361330 -1.72342607
O 3.52920328 4.63139029 2.66458470 -0.86161994 0.90451993 -1.30845837
O 15.88996764 4.65235939 2.42750167 -0.09955828 -0.13266476 -0.24687349
O 2.06577452 1.47324975 8.18837030 -0.07132924 0.70193303 0.07378486
O 14.46120259 1.60315607 8.11786459 0.05131326 0.07017233 -0.03734785
O 2.14860036 4.59444228 8.11550348 -0.63008393 -0.92461759 0.39159728
O 14.50843713 4.66227646 8.16558356 -0.55987261 -0.20501326 -0.18173121
O 11.98243389 1.53098005 1.47479298 0.83120376 -1.44810735 -0.20535747
O 24.48044979 1.54233340 1.56344469 0.02155577 -0.15747738 1.36457906
O 12.08403554 4.62228551 1.36815714 -0.34620763 -0.02044198 -0.73132842
O 24.42217191 4.63567957 1.43131764 -0.03037652 0.20218747 -1.01634935
O 10.65751075 1.56816170 7.14888757 0.16645984 -1.34646766 -0.36765328
O 23.13411070 1.57343735 7.17791388 0.00361120 -0.61698046 -0.67212665
O 10.72210927 4.65592488 7.23214807 0.72167406 0.53085081 0.14680752
O 23.04215739 4.67039243 7.11586439 2.10533370 0.30877639 -0.83565458
O -0.91686591 1.54585383 4.25973527 -0.58549483 1.05955806 0.24065721
O 11.52109953 1.57922279 4.29226389 -0.66391046 1.30900179 0.20514783
O -1.07264683 4.61784839 4.19120862 -0.06776995 -0.32947630 0.60575201
O 11.52969172 4.53753412 4.25239867 -0.48958429 -0.67833811 0.70379669
O -2.32676579 1.49953726 9.98122456 -0.81396144 -1.83855966 -0.72182822
O 10.06053398 1.59877324 9.86657961 -0.20213232 -1.50508748 -0.33052058
O -2.40489933 4.56440215 9.95773643 -0.34304696 1.28318848 1.10869063
O 10.09758602 4.58897880 9.97667949 -0.14071871 -0.14754057 -0.93362668
O 5.73288638 6.22458738 1.44375208 -0.28022615 2.20938865 -0.39687869
O 18.30776781 -0.03158249 1.43961160 -0.05829970 -1.51297711 0.68143412
O 5.88021446 3.07353566 1.51002759 -0.57785071 -0.44741793 1.39141971
O 4.38351127 6.07307732 7.17410768 -0.42394940 0.19403783 -0.49403638
O 16.83162666 -0.04642909 7.16601573 0.10260621 -0.19609608 -1.11261963
O 4.41584520 3.12579165 7.10116012 0.86866042 -0.15889615 -1.10362579
O 16.81775746 3.04923194 7.17353988 0.52385814 1.02888517 -0.40149208
O 5.32311656 6.11543293 4.27436833 -0.83835807 1.17133683 -0.07154129
O 17.62322108 0.06950768 4.19893933 -0.02120711 1.05984876 -0.04139881
O 5.31792224 3.14643903 4.28640483 2.08446086 -0.34280557 -0.85915611
O 17.65851314 3.06609346 4.18581842 0.50866154 -0.90584433 0.73801388
O 3.89758494 6.20970306 9.92039400 -1.13662811 -0.20405296 0.20077874
O 16.33951439 0.05443733 10.00869841 -0.36814896 -0.06216552 0.95566457
O 3.86753404 3.08731218 9.97065926 -0.41337340 0.79667427 -0.26050381
O 16.25633068 3.09166743 9.92366225 -0.70665624 0.50701424 0.54314391
159
Lattice="25.072848 0.000000 0.000000 0.000000 6.207695 0.000000 -2.796921 0.000000 11.493209" Properties=species:S:1:pos:R:3:force:R:3 Energy=-624.254490 Virial="-52.283339 -1.409261 1.536249 -1.409261 -45.192948 -4.066640 1.536249 -4.066640 -38.511184" O_vac_type=O_O1 O_vac_tier=low O_coord=3 defect_vacancy pbc="T T T"
Ga 0.05642264 -0.06384665 4.51716874 -0.11591093 0.64223575 1.75281023
Ga 12.45802718 6.10218855 4.61090000 -0.60493758 0.32345517 -0.58438498
Ga 0.14485065 3.14700197 4.48292432 0.27374474 0.69827028 1.25546325
Ga 12.49587301 3.16589649 4.53029759 0.16720736 0.71075923 -0.32442551
Ga -1.39531566 6.33866379 10.37157917 -0.66149038 0.72419306 -0.94256095
Ga 11.04615958 6.09547619 10.18173624 -0.16747333 -0.55501229 -0.77811319
Ga -1.37841053 3.23145712 10.37605626 -0.04598038 0.16381232 -0.10874092
Ga 11.27227639 3.26054519 10.47762876 1.42584801 -0.73158732 -0.07895867
Ga 11.18697368 0.09526467 1.19401025 -0.48347554 -0.32685964 0.37644914
Ga 23.77684051 -0.07470675 1.16587786 -1.49488973 0.55100176 -0.34514061
Ga 11.17992714 3.03879202 1.12197775 1.06652177 -0.31147756 -2.24944628
Ga 23.66554939 3.20308422 1.27675681 0.20000523 -0.42272406 -0.22996107
Ga 9.76436421 6.11709952 6.92888598 -0.17597004 -0.87364207 -1.29089121
Ga 22.21606359 0.02491121 6.99295698 2.84918728 -0.77591601 0.33923944
Ga 9.75980663 2.98270775 6.91274004 -0.72233805 -1.17003280 1.30238243
Ga 22.16295596 3.09974547 6.93412011 0.43893739 -0.35823022 0.72949741
Ga 6.17038129 1.61363459 4.55904724 -1.50209904 -1.04131272 -1.30089498
Ga 18.87841607 1.30552163 4.55256359 0.31856222 0.27754467 -0.05395935
Ga 6.25046362 4.70634974 4.67147125 0.34256577 1.52711693 -0.99007219
Ga 18.94547317 4.70191407 4.57586541 0.19073346 0.37852474 0.78575099
Ga 4.97549499 1.58274368 10.16072521 -0.17060404 1.14891349 -1.19478563
Ga 17.50671627 1.46232436 10.41390566 0.69833583 0.55355822 -0.26693355
Ga 4.84415335 4.63214910 10.35010849 0.29832725 0.59805480 -0.64512522
Ga 17.38781948 4.70365469 10.32923321 -1.16001968 0.47749459 -0.25390498
Ga 4.84267965 1.49735268 1.17845931 0.01099029 1.28702432 0.59532679
Ga 17.29916291 1.62302071 1.28693204 -0.24164301 -0.02380879 0.77379607
Ga 4.79875392 4.75762540 1.23550768 0.47636801 1.03120911 -0.02953623
Ga 17.37432617 4.63637888 1.21053638 0.29327105 1.19184095 0.75303141
Ga 3.48096197 1.41102499 7.03044690 -0.99755653 -0.92304880 -0.90485042
Ga 16.09304429 1.53626309 7.01027865 -0.34773880 1.62057125 -0.06471769
Ga 3.55421930 4.76396949 6.82091303 -0.62817682 0.31306992 1.29734314
Ga 16.02877088 4.54343544 6.80084929 0.23587391 -0.39196844 -0.48104438
Ga 1.59681894 1.59342043 1.75598527 1.05704363 0.12808137 -0.81783606
Ga 14.10446672 1.49390740 1.65143100 -0.29057167 -1.61010298 -0.95036804
Ga 1.60845954 4.71488863 1.74853783 -0.73288722 -0.96806345 0.58983461
Ga 14.00520423 4.64195636 1.69449101 0.15053398 0.33075061 0.69021158
Ga 0.11825612 1.56164868 7.53100762 1.22458501 -0.15855107 0.51346055
Ga 12.67272394 1.53670382 7.55043355 0.10541239 -0.40147929 0.83667150
Ga 0.15185518 4.54663432 7.54984777 -1.04974035 -0.47695348 -0.23789973
Ga 12.66360051 4.79999458 7.58479322 -0.23873356 -0.40206842 0.94765047
Ga 9.70790597 1.52736342 3.96174024 -0.78633607 -0.12961844 0.22951235
Ga 22.15734558 1.55887018 3.80133749 1.46290057 1.49642550 0.95638724
Ga 9.54425323 4.57149908 3.90477632 -0.60100587 1.75919170 -0.50309821
Ga 22.07151627 4.61476626 4.01337512 0.03109594 -0.73971059 0.35448995
Ga 8.29551826 1.39507966 9.65127236 -1.01125892 0.80397742 0.36110981
Ga 20.72003999 1.53412623 9.79177978 1.39409843 0.13545719 0.01516996
Ga 8.20309291 4.71897769 9.76146285 -0.62062289 -0.44083238 -0.41167474
Ga 20.80357494 4.63459746 9.74675493 0.18660189 0.46377954 -0.03958880
Ga 7.87874262 0.03417978 1.82002124 0.81173487 0.21629011 1.70260501
Ga 20.26819053 -0.08526600 1.78844072 -1.11785753 -0.15700278 0.81062021
Ga 7.84753277 2.93954483 1.80601774 -0.85209279 -0.23360869 -0.16559618
Ga 20.26236920 3.04830602 1.75670547 0.38249012 -0.99442224 -1.23264761
Ga 6.35235887 0.05690033 7.66823752 0.14738467 0.44144459 -0.27114388
Ga 18.95177760 -0.03152759 7.68600592 0.40689827 -0.44260355 0.72491068
Ga 6.52133127 3.03295687 7.60959766 -0.18359718 -1.61750135 1.10313938
Ga 18.91359860 3.00487046 7.52619547 0.25254664 0.78185954 -0.55586094
Ga 3.40508441 0.08054767 3.91549790 -0.84719140 1.05086564 0.40266948
Ga 15.76171606 6.17463765 3.96985706 -0.20779185 0.40712904 -0.33114875
Ga 3.39702000 3.15075265 3.99876645 0.93019742 0.50964412 0.21973040
Ga 15.86478391 3.25772375 3.90627030 0.52717867 0.45064905 -0.51170685
Ga 1.84498755 -0.06711676 9.77430927 0.67320519 -0.69313882 0.70943181
Ga 14.44567244 6.21515659 9.57742038 1.13573838 -0.53038995 1.17542157
Ga 2.02383276 3.24000318 9.73946547 -1.78667768 0.97838077 1.88900748
Ga 14.40948831 3.13930194 9.78951935 2.34442037 1.63823131 0.06369902
O 1.95913878 6.09462536 0.63953735 0.73320505 -0.84486253 -0.98912820
O 14.40267688 6.16233400 0.57728734 -0.79459862 -0.33829620 1.04026397
O 2.01247418 3.11834209 0.59509764 -0.80877714 0.40778842 0.46284617
O 14.44688559 3.07932810 0.62617017 -0.23557951 -0.15374301 0.51880622
O 0.58927315 0.04523821 6.41940336 0.60233449 -0.39580126 0.02715602
O 13.08149375 6.06424497 6.47067821 0.80295515 0.16936237 -0.87104845
O 0.50880669 3.12676358 6.26234115 -0.09996881 -0.76703073 0.09012115
O 12.95511096 2.98805777 6.34451518 0.32360036 -0.56297895 0.03381423
O 9.21346428 -0.10130362 4.99366557 -0.94075218 0.12357948 -0.24402855
O 21.78519673 -0.13634700 5.13451507 0.32854149 0.24711304 -0.91852015
O 9.22429046 3.07657016 4.94664466 -0.57999955 -0.08397986 -0.25301800
O 21.89924168 3.18249996 5.08872073 0.47616095 -0.07824834 0.15145004
O 7.97303816 6.23509588 10.96829044 0.14021785 0.20582145 -0.22012750
O 20.31070308 6.10207502 10.92933532 1.65996846 -0.40485220 0.86612552
O 7.75836415 3.24459571 10.81814323 0.81675936 -0.23508810 -0.41439474
O 20.50817536 3.00677067 10.82195312 -0.06705498 0.04646191 -0.73134717
O 7.99598485 1.38949924 0.76095303 0.36476043 -0.07065986 -0.03241798
O 20.88454863 1.48397949 0.44663124 -0.72940909 -0.71469513 0.10047371
O 8.12726630 4.69300216 0.71986360 0.54277113 -1.91202278 -0.94439069
O 20.67315245 4.73270699 0.72968503 -0.54064984 -0.27229940 -0.29032348
O 6.74665417 1.50318940 6.47832400 0.21249639 0.25464295 -1.16708756
O 19.36403976 1.60114289 6.41842017 1.10385698 -0.12844499 0.69254527
O 6.86051106 4.77974132 6.36080365 1.50292291 0.39095018 0.84678205
O 19.20722783 4.69661681 6.20013376 -0.45617526 0.87486412 0.78750130
O 3.03415929 1.58468832 5.20135319 0.13327216 -0.19780539 -1.85490996
O 2.99674988 4.66319086 5.17744145 -0.30244320 0.11831347 -0.49374640
O 15.38601894 4.77235949 5.20068240 -1.24086091 0.81016112 0.96410268
O 1.59929338 1.60002498 10.87103095 0.19318427 -0.61021704 0.87566267
O 14.03034112 1.67453417 10.80991301 0.70206380 0.67491883 -0.19510723
O 1.54190925 4.72289492 10.87293018 -0.97696357 -0.47819822 -0.43002415
O 14.06774211 4.57093271 10.80816836 0.56918180 0.62439223 -0.24873315
O 1.43865848 6.16442017 3.30544172 1.89772817 0.97449878 0.75172485
O 14.02522426 0.03204511 3.24378541 -0.71767480 -1.26740165 0.82113797
O 1.42596839 3.06244903 3.17674623 -1.17235385 -2.33949117 0.15678180
O 13.89520180 3.10819549 3.31056509 -0.49405806 0.28222641 0.85181904
O 0.00294725 0.08185882 9.09941826 -2.21064860 -0.01219641 0.45505976
O 12.47073257 -0.04168360 9.01356696 -0.14922403 -0.08628635 0.42609748
O -0.01876414 3.21593817 9.01845485 -0.86623061 0.21264691 -0.08045704
O 12.48107826 3.19769258 8.84422863 0.09237992 0.53387438 -0.35937863
O 9.75630283 6.20219591 2.42776772 -0.47418759 -1.31287874 -0.82517889
O 22.24010269 6.33374052 2.39402999 -0.75091679 -0.20879741 -0.89587190
O 9.78076947 3.06342598 2.46883934 -0.35750924 0.08970856 -0.21409708
O 22.15102449 3.05547761 2.40649324 -1.52255678 0.42021371 -0.79116788
O 8.32518922 0.04778084 8.41947642 -0.90853186 0.08055701 -0.04092707
O 20.91462235 6.13889454 8.22510547 0.85183724 -0.27748238 0.47312012
O 8.35274575 3.05998008 8.23469646 -0.68444812 -0.15953799 -0.75588294
O 20.83904094 3.00776464 8.17379091 1.31813299 -0.83322536 -0.31043450
O 7.67758616 1.49371005 3.29552255 0.92403218 1.06161914 0.92104233
O 20.09341792 1.51932256 3.27674572 -2.04577404 0.34096667 1.05053293
O 7.68593272 4.60445149 3.28451566 -2.04571437 0.95242375 -0.07240211
O 20.21095673 4.65221626 3.19142673 0.91133425 0.28950375 0.31704734
O 6.28804619 1.61981862 9.02937996 -0.55677989 -1.30742579 1.63308074
O 18.68565452 1.51290373 9.10297558 -0.10721466 -1.08521617 0.11485581
O 6.35792001 4.69186576 8.91897329 0.41596392 0.76354974 -0.94695255
O 18.99244717 4.51394472 8.97780744 -0.04786098 -0.59687535 -1.13861436
O 3.44654163 1.46471562 2.60558453 0.62241421 0.73623850 -0.20661092
O 15.98772601 1.55871445 2.52709471 1.36583477 0.96397802 0.30607147
O 3.60844551 4.56668072 2.42894653 0.71212742 0.40967359 1.68571917
O 16.16300726 4.67304521 2.50137838 -0.12078977 1.17256179 -1.22724110
O 2.03410844 1.56383803 8.29220487 -0.42614987 -2.17601174 -0.06646521
O 14.65947582 1.65533721 8.26288340 0.25263654 -0.12019413 -0.00174324
O 1.87045034 4.64120006 8.25226669 1.38186663 -1.10657066 -0.90471293
O 14.57036012 4.81046316 8.22854337 -0.30763820 -0.82533475 -0.02749187
O 12.13506967 1.54205751 1.53790623 0.37017515 0.11325005 -1.27229577
O 24.73532779 1.53155597 1.49635194 0.12902359 -1.48585533 -0.17200239
O 12.09156701 4.60842630 1.37559093 -1.06910407 -0.51539687 1.11228088
O 24.61742730 4.45615502 1.51263822 -1.25242179 1.47081228 0.02712624
O 10.76038956 1.56370273 7.23654787 -1.38385791 0.63471239 -0.54525398
O 23.36809026 1.56633111 7.13393657 -0.71397092 2.03788784 -0.13781592
O 10.62516085 4.70471243 7.24564874 -1.10450638 -0.81724438 0.39509326
O 23.20167704 4.61236579 7.26765442 -0.02255379 -0.64299869 0.56613580
O -1.07960761 1.57986278 4.17923435 0.35290673 -0.15500583 0.27546117
O 11.46418885 1.62084465 4.30884259 0.99317568 0.06267540 -0.58762466
O -1.08943141 4.59950686 4.26030524 0.06414093 -0.13627922 -1.39617988
O 11.46730764 4.59711985 4.27428344 0.36711302 0.72073982 0.94953049
O -2.34682031 1.55374796 10.02284462 1.05822884 0.75290042 -0.80026851
O 10.12128015 1.53346615 10.01424637 1.14654183 0.44477498 -1.18976888
O -2.27155527 4.73296805 10.03511887 0.10578661 -0.08003960 -0.15489027
O 10.10195708 4.74443390 9.99266059 -0.58872009 -0.31506603 0.42925539
O 5.81435149 6.22169580 1.44551336 -0.01063743 -0.18363827 -0.63995062
O 18.33998975 0.17183033 1.49265756 1.07388747 0.13553720 0.20214087
O 5.80408903 3.11696730 1.43023062 1.06928820 -0.56603412 0.32837645
O 18.43665568 3.01579283 1.37380429 -0.38910086 -1.25471400 -0.10600622
O 4.49294480 6.07414930 7.13127823 0.68308235 -0.85645100 -0.48963206
O 17.00185371 0.05129779 7.20127092 0.24956070 -0.76259842 0.46522300
O 4.40531465 3.03149363 7.19022239 0.30265560 0.96379382 0.04596212
O 16.90369226 3.06782855 7.32293447 -0.40063090 -1.27909822 0.47470373
O 5.24032736 6.21597090 4.30845391 -0.94036685 0.05480227 -0.81730172
O 17.84496049 -0.04472952 4.30707394 0.17090669 0.33885584 0.01038237
O 5.33355267 3.05732190 4.26078562 0.60668345 0.36350024 0.74115491
O 17.64892852 3.16093493 4.23069625 -0.13026755 -1.59569598 0.09635490
O 3.89363818 6.03684702 10.05040946 -3.01570058 0.70717034 -0.55498082
O 16.37623938 0.04219781 9.95163430 1.00048288 0.37788942 -0.45526185
O 3.82164908 3.06058414 10.08366560 0.09854154 0.06449904 0.08074221
O 16.30947444 3.35325528 10.00837410 0.30073415 1.22471446 -0.24825406
159
Lattice="25.168934 0.000000 0.000000 0.000000 6.231485 0.000000 -2.807640 0.000000 11.537254" Properties=species:S:1:pos:R:3:force:R:3 Energy=-623.186309 Virial="-53.024143 1.106104 -0.268057 1.106104 -47.725724 -3.199190 -0.268057 -3.199190 -42.740260" O_vac_type=O_O1 O_vac_tier=low O_coord=3 defect_vacancy pbc="T T T"
Ga 0.06213789 0.01549314 4.60211938 0.88045762 -0.70050682 -1.14864516
Ga 12.66261727 6.28327938 4.59780439 -0.45904337 -0.06404904 0.44948957
Ga 0.06918758 3.23102866 4.62073289 0.05231495 -0.82834671 0.51567853
Ga 12.46597844 3.05701179 4.50334201 -0.93574650 -0.22225452 -0.16277180
Ga -1.42461208 6.18166954 10.34453924 0.72954050 -0.38600030 1.00817644
Ga 11.08410819 6.26348054 10.36696007 0.15721266 -0.01853203 -0.00104386
Ga -1.42895092 3.08175622 10.31689160 -0.08669674 1.16716664 -1.24030456
Ga 11.23911970 3.14759636 10.42829111 -0.42670220 -1.12825148 0.59549535
Ga 11.14556626 0.05378744 1.11810524 0.13148484 -0.20182593 0.09467402
Ga 23.62075833 0.02890960 1.24030271 0.02707100 -0.65940274 -1.62885482
Ga 11.05474435 3.06802322 1.11852690 2.39110766 -0.93660130 0.73023844
Ga 23.74427433 3.06779215 1.16848134 0.87050703 1.95775173 -0.46850808
Ga 9.70422658 6.27601402 6.87489125 0.75444798 -0.92835968 0.32182279
Ga 22.24613007 0.05332386 6.93291524 -0.11100171 -1.45768999 -2.10381647
Ga 9.75610989 3.16566085 6.96078959 0.80941995 -1.60801352 0.49425719
Ga 22.35382284 3.08873671 7.03644502 0.26221883 -0.86318829 -1.20737759
Ga 6.36222225 1.44863853 4.64698365 -1.21769671 2.08562841 0.12360632
Ga 18.94915732 1.56966714 4.55221131 -0.80910574 -1.07551793 1.05315063
Ga 6.19045551 4.55793619 4.58705157 -0.11098704 0.71872431 2.59697161
Ga 18.78702661 4.74853691 4.58723757 1.38730205 1.04486572 1.15632012
Ga 4.76642750 1.51135994 10.42099583 0.91402013 0.60661829 -0.38034105
Ga 17.58145845 1.58679165 10.25710664 -0.33561893 -1.56531867 0.42323438
Ga 4.91548290 4.51627065 10.37293927 -0.00341716 -0.91521919 0.06530792
Ga 17.36768112 4.63875274 10.41561516 -0.18016549 -0.11214068 0.15573980
Ga 4.90322350 1.50707730 1.20964827 0.38406885 1.02060767 0.15368220
Ga 17.42507631 1.53982394 1.19356589 0.33703209 -0.26088674 -0.01127353
Ga 4.97996111 4.62485383 1.12266017 -0.59367132 0.08181156 0.22101149
Ga 17.47298596 4.71228954 1.27211989 0.06894806 -0.57288297 -0.51235305
Ga 3.42883602 1.61842591 7.03620790 0.73314320 1.10483344 0.58678095
Ga 16.11701963 1.47328038 7.00155432 -0.40500685 -0.35655256 -0.54838123
Ga 3.46512271 4.58113835 7.00456348 0.04913941 -0.39986845 -0.43274423
Ga 16.08955220 4.71193481 6.86941506 -0.36231763 -0.28201326 -0.15787476
Ga 1.49223565 1.48303686 1.71580649 -1.88028105 -0.02293276 0.91571343
Ga 14.08944735 1.61363061 1.84297812 0.25658717 1.05241634 0.38775362
Ga 1.62343231 4.69414593 1.86754435 -0.40342154 0.04977812 -0.46558170
Ga 14.11838344 4.65226258 1.79387145 0.20119103 -0.45197592 -0.18259646
Ga 0.25611708 1.48775192 7.59403804 0.10930694 -1.02759738 -0.54539734
Ga 12.82940443 1.52615556 7.58064466 -0.78052208 -0.03579142 -0.87361315
Ga 0.19448682 4.70457269 7.44359298 -1.62847236 -0.87645586 0.37981909
Ga 12.76999094 4.78478573 7.62546219 0.25531032 0.83719938 0.76509598
Ga 9.71685203 1.60277368 3.95490089 -0.38689918 -1.22814099 -1.09765668
Ga 22.18388415 1.64365389 3.94302856 0.59920303 0.51449349 1.80972044
Ga 9.58150775 4.67696130 3.91001850 0.67094464 1.11529762 -0.39415966
Ga 22.27425832 4.62591748 3.98118374 -0.77533285 -0.94604418 -1.11667957
Ga 8.13138130 1.49084982 9.85550192 -0.11687381 -2.30870677 -0.41299564
Ga 20.85633069 1.58874830 9.77083766 -0.18158208 -0.55308976 1.10339438
Ga 8.16480793 4.78144721 9.67152603 1.04040168 1.23087485 0.04343028
Ga 20.82527653 4.77214792 9.78843276 -0.70263858 1.72632420 0.08431784
Ga 7.73225334 0.07380067 1.83442989 -0.34653632 -0.40371038 1.80084385
Ga 20.45758565 0.15856785 1.73860700 -1.55092875 0.18768044 -0.10929502
Ga 7.81040329 3.06450516 1.76503273 1.40398115 -0.59037689 -1.26666078
Ga 20.34163225 3.11228419 1.77634083 -0.22524453 -0.83251704 -1.08235397
Ga 6.46770479 0.06045035 7.49458220 -1.00732198 0.39682727 -0.33400497
Ga 19.16805865 -0.05224983 7.59765196 -1.08246443 -0.21939955 1.00065023
Ga 6.44978280 3.16193699 7.60927076 -0.03055603 -0.85734070 -0.35492977
Ga 19.09496443 3.16605058 7.47334912 0.11654226 -1.07155231 -1.01094165
Ga 3.36889124 0.04479297 3.87717262 -0.43578330 -0.26406690 0.10576493
Ga 15.94082599 6.19049696 3.95884860 -0.09421417 1.03863671 -0.85890080
Ga 3.31532702 3.06023909 3.99404898 -1.42389282 2.29800993 0.04352848
Ga 16.06410671 3.15951300 3.92336471 0.78494035 0.64685976 -1.35044094
Ga 1.87145221 0.03400668 9.75102054 -0.75027845 -0.27625377 -0.81669579
Ga 14.43403130 6.29866565 9.66433161 1.02858075 0.28178573 -0.33194232
Ga 1.96407307 3.05110500 9.68801146 -0.62437923 -0.24122305 0.01932396
Ga 14.48682663 3.34617688 9.69088250 0.26190722 0.03425272 -0.56531406
O 1.95644758 6.17859745 0.61304417 1.65911143 -0.00942529 0.05394242
O 14.50198116 6.11747705 0.60274168 -0.65731305 -1.02145944 0.44524777
O 1.83853645 3.01621661 0.63690347 1.14964922 -0.86405734 0.06226701
O 14.41832413 3.21732606 0.65798358 -1.21121478 -0.00114943 -0.40441594
O 0.43410906 -0.04618405 6.35002360 0.56526093 -0.80721130 0.14648473
O 13.00099885 6.24015116 6.36110170 0.37101864 -1.01358692 -1.68857937
O 0.47254500 3.10354442 6.30639833 -0.90819296 0.06824103 0.83168483
O 13.13467694 3.14132320 6.42976886 0.04114349 -0.42483216 1.00386418
O 9.33161194 0.05227408 5.10029569 -1.21542063 0.85462550 1.38388512
O 21.85981458 0.01057379 5.15367307 0.81125597 0.26026960 -0.55971755
O 9.30534956 3.12696669 5.16234455 -0.00233490 -0.45675974 0.76844071
O 21.77182372 3.12826648 5.20638374 -1.12287645 0.37261344 -0.27168807
O 7.86991005 6.18005721 10.96161107 0.51853154 2.47535671 -0.18397779
O 20.50059926 6.18564818 10.77060654 -1.14444793 -1.86251479 0.71144855
O 7.74463834 3.07307733 10.97025582 -0.16592115 -0.33734660 -0.54784420
O 20.53882453 3.09241944 10.88072273 0.18295001 -0.04229368 -0.50061596
O 8.32256029 1.56854009 0.62782157 0.09943652 0.32757916 -0.97890434
O 20.72102829 1.54495487 0.64146855 -0.31447364 0.40013223 1.76060631
O 8.22301766 4.67393108 0.51781259 0.03218145 0.96568849 -0.63459659
O 20.78753909 4.72341263 0.64704514 0.31848509 -0.63161104 -1.42210855
O 6.73451255 1.53650431 6.37632937 -0.51159078 -0.20485988 1.26517054
O 19.40344979 1.57658890 6.39545430 -0.31743679 0.62670201 0.56894103
O 6.87687549 4.62710877 6.39219881 -0.32147583 1.02756768 1.04283699
O 19.24899109 4.63731528 6.39120406 1.04161499 0.23979366 0.64153282
O 2.94657642 1.55561001 5.12620163 0.38269260 0.29534902 -0.64596608
O 15.70614128 1.49260859 5.22185593 0.24932030 1.70871761 1.63250657
O 3.05614924 4.68504564 4.98922695 -0.32207558 0.63622781 -0.45621301
O 15.49965668 4.65928755 5.09908059 0.25562435 -0.19397419 0.16533084
O 14.22802851 1.68951900 10.93676202 -0.19384434 -1.34318111 0.87846240
O 1.65729346 4.68520991 10.93685664 -0.00796413 0.10570070 -0.28844993
O 14.20615291 4.60688567 10.93560053 -0.41361879 0.62887515 0.66047645
O 1.40894433 6.22820694 3.34718719 0.41091096 0.10261355 -0.55290041
O 13.99872322 0.02007491 3.19169735 0.37282815 0.07595703 -0.66982148
O 1.36001372 3.19603096 3.28262760 -1.15274930 0.56514294 -0.03820979
O 13.97950230 3.16881747 3.13955808 0.28627633 0.05702323 -0.79939744
O -0.01028854 -0.07739104 9.03027527 0.97366026 -0.56294824 -0.19420912
O 12.52691507 -0.05914979 9.05620807 -0.63137088 1.24916253 1.41420307
O 0.03988662 3.14649241 8.94668198 0.17947670 0.96500144 1.16212034
O 12.55346480 3.06666321 9.02264680 0.18056896 0.15904603 -0.27167158
O 9.75076633 6.31981093 2.56895568 0.14149251 1.84040302 -2.10510776
O 22.41419777 6.23963927 2.55331227 0.19366190 0.38335638 0.23828616
O 9.84240071 2.97707722 2.50152529 0.17087668 -0.40455356 -0.50505403
O 22.35597050 3.12314981 2.51533845 -0.73250942 -0.12630621 -0.25265688
O 8.35368361 0.02990006 8.24288237 0.44080363 0.10746869 0.39552873
O 20.92124576 6.19503109 8.27891805 0.48666295 0.42904854 -0.56572127
O 8.41104340 3.09546883 8.34449459 0.27101135 -0.57824720 0.03848528
O 20.95629814 3.25146083 8.20928655 0.43807580 0.56991869 -0.80593317
O 7.70080328 1.57920247 3.30606049 0.83840652 -0.11351171 0.40451728
O 20.35255410 1.57982330 3.34087706 0.53363664 -0.48693902 -1.42901137
O 7.65690925 4.67913260 3.29111661 -0.05920382 -0.45414588 -0.21772232
O 20.37877781 4.67278805 3.18064138 1.18375242 -1.51383264 0.81666093
O 6.23119341 1.64903436 9.05016865 -0.53165316 0.64892442 0.02680030
O 18.82502522 1.51883750 8.89824451 0.72507912 -0.49754848 1.50107850
O 6.25218063 4.62409492 8.91571693 0.55844513 0.23844511 0.24614467
O 18.92653137 4.75114945 8.90423547 -0.32659805 -0.79440144 0.07083767
O 3.44948256 1.47640909 2.52354976 0.15584754 -0.95630650 -0.46906973
O 16.09277909 1.53834282 2.55537602 0.30644227 0.22234491 -0.54631957
O 3.46655384 4.69985115 2.58813055 0.32739773 0.27593003 1.10209437
O 16.02658179 4.72115836 2.51482076 0.35898515 -0.03783097 1.18466513
O 2.17356812 1.55226332 8.29171204 0.52196332 0.89385414 0.92374203
O 14.76233460 1.64595222 8.28495878 -0.54191790 0.87981867 -0.72533521
O 2.07959926 4.72082084 8.27864207 -0.86127347 0.44398268 -0.73937465
O 14.66416460 4.79590146 8.29780093 1.18920589 -0.75677869 1.27591427
O 12.16214996 1.50974569 1.44160102 0.59584746 -0.33242959 -0.78880667
O 24.77419341 1.54858906 1.38970660 -1.28653400 -0.84371219 -0.09279030
O 12.15960529 4.65712405 1.43563375 1.54419933 0.18288320 0.56762581
O 24.62422949 4.59911618 1.38549079 -1.17075206 -0.18747067 0.13387461
O 10.87105029 1.48054371 7.22369129 -0.58635414 -0.18217050 0.18937474
O 23.24003860 1.56920986 7.44291048 -1.05357723 -0.78762228 -0.60224972
O 10.78444864 4.69465583 7.13171808 1.36379665 0.22650825 -0.17761541
O 23.35359306 4.63938335 7.20378386 -0.69577267 -0.66799318 1.13891799
O -0.95543114 1.65016816 4.24599184 -0.80033545 -0.29562383 0.40395180
O 11.63535580 1.52728329 4.28771337 -0.93454428 -0.25567506 0.41101645
O -1.06850721 4.66670689 4.30579642 -0.04846313 0.19035386 0.21038434
O 11.51485141 4.64648570 4.29693923 -1.00804291 -0.09153006 1.20094485
O -2.44849921 1.61772326 9.98540718 0.60452600 0.03778163 -1.80400823
O 10.17734061 1.56888342 10.01127788 0.06942954 -0.33743244 1.41452104
O -2.39494478 4.69295078 10.04286201 -0.84855177 1.58264432 -0.28083056
O 10.20511846 4.68099032 10.03329854 -0.32233399 -0.04515768 -0.22297584
O 5.82256660 6.29760049 1.45292734 -0.94813410 0.87489061 0.11307077
O 18.51763399 0.09591301 1.42177506 0.80624681 0.30273265 0.50960738
O 5.87588223 3.06527577 1.47655897 0.29352511 0.32272798 0.37014644
O 18.51375807 3.06848196 1.49281981 -0.27106779 2.56126561 0.80476673
O 4.45634939 6.19773276 7.19782500 0.15699308 -0.65150086 -0.81456247
O 17.11010845 0.05789815 7.29123823 -0.76395042 0.34232443 -1.16911682
O 4.35333366 3.08645128 7.19303395 0.79409736 -0.25233943 0.26567848
O 17.11504311 3.08154917 7.21563955 0.51349095 0.17533884 -0.50750543
O 5.33824665 6.36959646 4.34214945 1.50642708 0.17746544 -0.22433164
O 17.89570250 -0.11964880 4.23663736 -0.47002162 -0.82005408 -0.85248576
O 5.22979280 3.17132620 4.27091407 0.55636469 0.03073582 -0.11783205
O 17.80851685 3.08308939 4.29134759 0.20958337 -1.26295754 -0.07460601
O 3.96993171 6.18998141 9.97248215 1.00778562 0.25674061 -0.20480979
O 16.45327307 -0.03225582 10.25756888 -1.09958251 1.29165742 -1.11431264
O 3.85645663 3.10101739 10.14925186 -0.04263458 -1.01075843 0.20037491
O 16.41582143 3.00562686 10.10518998 -0.13145949 1.41726280 -0.26957562
159
Lattice="24.959562 0.000000 0.000000 0.000000 6.179647 0.000000 -2.784284 0.000000 11.441280" Properties=species:S:1:pos:R:3:force:R:3 Energy=-623.329647 Virial="-52.763365 -1.225778 -1.285346 -1.225778 -41.141394 -0.983121 -1.285346 -0.983121 -41.590123" O_vac_type=O_O2 O_vac_tier=low O_coord=3 defect_vacancy pbc="T T T"
Ga 0.05152299 -0.05821941 4.36647277 -0.23165950 0.63421271 0.11616311
Ga 12.45579562 6.12838007 4.56715610 0.57973069 0.08478160 0.47338242
Ga -0.03548214 3.12157858 4.55617712 1.09027124 0.33182945 0.34484339
Ga 12.51498502 3.09817514 4.58239397 -0.04319916 0.87273100 -0.57014563
Ga -1.39657100 6.05771385 10.29543606 1.08630583 0.40028665 -0.25974845
Ga 11.12618580 6.12225174 10.27925097 1.20448042 1.04062745 0.38393673
Ga -1.31052405 3.01165846 10.22713727 0.45474640 1.34610890 -0.45797599
Ga 11.11504237 3.05749666 10.23692778 -0.32473728 -1.51338663 -1.50034828
Ga 11.10745380 0.04402395 1.02514650 -0.45351855 0.71221646 0.00975810
Ga 23.53027446 -0.13222426 1.12165836 -0.00285246 -0.23546333 1.44022392
Ga 11.02632018 2.96188962 1.16349766 1.21393456 0.18414445 0.20608435
Ga 23.50358173 3.17095010 1.23047268 1.13375353 0.23664161 1.21424833
Ga 9.84759642 6.27272897 6.88611090 -1.45690495 -0.20893129 1.24644240
Ga 22.20168865 -0.07248373 6.81917895 -0.92132048 -0.82796954 0.00944244
Ga 9.67824723 3.09570794 6.90732377 0.39203718 -0.63266757 0.53801183
Ga 22.15143511 3.04662137 6.77550415 0.25013420 0.02553685 -0.80026043
Ga 6.16118338 1.52095705 4.60050268 -1.03191947 2.03645180 0.66629671
Ga 18.71824126 1.60555697 4.61613070 -0.63481435 -0.02735469 -1.72297459
Ga 6.25737294 4.64326218 4.53594007 0.30768579 -1.16298422 0.31537521
Ga 18.65891381 4.67276652 4.67746306 0.81691112 -0.21279837 -0.54221328
Ga 4.78073865 1.45854299 10.16124986 -1.17038797 -0.24192613 -0.04624940
Ga 17.31721920 1.67109769 10.34700532 0.77545217 -1.64639125 0.19428515
Ga 4.87849183 4.72656095 10.18483234 2.10303101 -1.01421204 1.14671924
Ga 17.39197444 4.58068085 10.26494565 0.02446983 1.06659483 -0.36383197
Ga 4.89561720 1.54844522 1.16334000 0.69841040 0.17868508 0.49907003
Ga 17.34833017 1.46690137 1.25756461 1.12040135 -0.78080180 -0.50661878
Ga 4.92973055 4.66161176 1.20004900 -0.48628493 1.15934307 -0.38090268
Ga 17.38169833 4.66673871 1.16051911 1.31877334 0.93975389 -0.23996683
Ga 3.34141815 1.65286523 6.90131973 -0.41988193 0.90321766 0.08463331
Ga 15.85394481 1.40513076 6.76410033 -0.00115678 1.23643113 1.20094507
Ga 3.52349389 4.66309746 6.87131570 0.33825939 0.51435901 0.10844452
Ga 16.00089616 4.65572528 6.88986183 -0.71577174 -0.05676036 1.01289883
Ga 1.56835443 1.61392328 1.74050222 0.83152923 -1.64075328 0.03100813
Ga 14.09677745 1.62525207 1.78266333 -0.84889455 1.55293083 0.74144808
Ga 1.62314578 4.60231483 1.81214066 -0.06168275 -0.12406556 0.64081283
Ga 14.02280916 4.66954942 1.75639855 -0.35077835 0.27014590 1.66454695
Ga 0.17441850 1.60172264 7.49496607 -0.18322714 -0.61329866 0.24627129
Ga 12.56546035 1.52639832 7.52693301 2.04161204 0.51622846 -0.47295131
Ga 0.24578244 4.69617237 7.56430895 0.41065339 -0.61070957 0.14657026
Ga 12.60954555 4.70373487 7.42140384 -0.31884601 -0.35619610 -0.82258730
Ga 9.57723470 1.51379424 3.93447800 -0.44261401 -0.87848950 0.15801506
Ga 21.94901101 1.49968010 3.97082931 0.09563813 -0.43079830 -2.14733020
Ga 9.50656762 4.60328601 3.78194820 -0.73462972 0.00510276 0.83003878
Ga 21.99484534 4.65532798 3.89086946 -0.92834261 -0.15403258 -1.11436087
Ga 8.15203559 1.57351987 9.62654920 -0.77552228 0.02814615 0.28856121
Ga 20.66115459 1.60232730 9.56300505 -0.98800893 0.61004061 -0.38018499
Ga 8.10876368 4.74158516 9.59757588 0.24783126 0.51215067 -3.02469452
Ga 20.61369429 4.67982765 9.70139585 -0.11919406 0.15750042 0.22191081
Ga 7.74632013 -0.00730768 1.77327883 0.75686342 1.00952799 0.47700507
Ga 20.29622090 -0.01275814 1.83545952 -0.76303145 1.00020179 0.15152440
Ga 7.83756085 3.14173586 1.79964025 1.20280659 -0.64393801 -0.47426562
Ga 20.16105223 3.16782328 1.76556143 0.98502579 -0.39966630 0.47562142
Ga 6.50212893 0.06654761 7.46884424 -0.07430197 1.31540672 -0.74819627
Ga 18.87138823 -0.01740540 7.48133067 0.50917676 -1.41416119 -1.77760365
Ga 6.31051314 3.04167448 7.50048234 0.87554102 0.51057160 0.33567682
Ga 18.83294588 3.05661551 7.57435718 0.28244785 -0.28004309 -0.15244215
Ga 3.25544863 0.13037672 3.82222780 0.30406260 -2.05172144 -0.87037666
Ga 15.86140524 6.22839903 3.94443550 -1.16940063 -1.19983408 -0.84675893
Ga 3.30570301 3.18106636 3.96888483 -1.74901615 0.92882111 0.80471934
Ga 15.92581914 3.07282126 3.93491845 -0.82902359 0.24707933 -0.28023169
Ga 1.89437745 0.04206418 9.52217140 -1.72325050 -0.65868235 -0.75872092
Ga 14.35197763 6.17623770 9.66751917 -0.77410696 -0.40342737 -0.30425924
Ga 1.83848327 3.03680601 9.62098492 -0.03971857 -0.44754950 0.86076154
Ga 14.42277093 3.11203445 9.67763797 -0.17823384 0.89509133 1.11042900
O 1.96934863 6.18951350 0.64071892 -0.23479737 0.91844225 -0.34688365
O 14.33649119 6.24729347 0.60290636 0.59688448 0.30330085 0.40823524
O 1.98122724 3.16493907 0.54265698 -0.09790927 0.91745337 -0.97231281
O 14.32674784 3.05190044 0.72336253 0.18479915 -1.98217590 -0.73614234
O 0.43047227 0.00379198 6.41511367 -0.86152957 1.11291967 0.95704434
O 12.87937838 6.14523233 6.44120947 0.63646140 -0.26733283 0.99959913
O 0.41001810 3.16624715 6.29393851 -0.81734716 2.03319620 0.28523312
O 12.99393197 3.20289056 6.27029011 0.09166983 0.78581866 0.09983712
O 9.31674469 0.03590303 5.14762824 0.29123728 -0.32733960 -0.94370389
O 21.67359469 0.00878039 5.06188676 0.54352502 -0.24105804 2.09151292
O 9.27289597 3.09411334 5.09039026 0.07728139 -0.14600964 0.49977914
O 21.66203579 3.05023039 5.11936840 0.07779055 0.55228807 -1.17305618
O 7.84820521 6.33671993 10.84206838 -0.74151619 -0.12752814 0.15842898
O 20.11775948 6.18507537 10.79088651 -0.46171480 -0.71515832 0.98325171
O 7.86506759 3.19839732 10.84158955 -1.23634866 0.04308088 -1.03430207
O 20.29641800 3.03559692 10.80225644 0.80322941 0.52675534 0.30214558
O 8.13805953 1.55407154 0.75678411 -1.00759512 0.95666991 0.51191131
O 20.66168550 1.58013164 0.63680839 -0.33139753 -0.65607360 0.55199602
O 8.20513009 4.68081622 0.63557650 0.75596802 0.14539731 0.98442011
O 20.49147157 4.71138737 0.50644942 -0.37358523 0.37781656 -0.31895858
O 6.74241157 1.57415052 6.44809948 0.25370449 -0.18593784 -0.17179156
O 19.17071738 1.57542803 6.33366214 0.89106053 -0.32489053 0.33491459
O 6.64750417 4.59448893 6.20016184 -0.15075388 1.41635253 0.59165593
O 19.24582793 4.67013482 6.31622232 0.79139254 0.10357997 -0.20548297
O 2.90361867 1.57903712 5.13256520 0.13065466 -0.23729853 0.16239515
O 15.40810506 1.55514712 5.10118814 -1.49300515 0.24762902 0.95302375
O 2.93496125 4.62111820 5.11310711 -0.98875316 0.13926973 0.82856323
O 15.45045936 4.65075633 4.98052974 -1.19202503 -0.81078022 -1.08814523
O 1.63697582 1.54958134 10.66655418 -0.01854376 0.30981750 -0.28740120
O 14.00019894 1.50855040 10.72752410 0.52454371 -1.60234573 -1.83511625
O 1.60187584 4.61370980 10.91327585 -0.41792499 0.69415738 -0.62617758
O 14.02719149 4.68101185 10.88332331 -0.49007706 0.94417615 0.11946105
O 1.50016818 6.26300356 3.23249404 0.34170603 0.29893724 -0.63610385
O 13.92683089 0.04396223 3.26809941 -0.59924420 -0.02486749 0.52105217
O 1.39182274 3.09243157 3.35924909 -1.14942883 0.64132913 -1.23774824
O 13.94033468 3.06599717 3.20539980 -0.25343520 0.77375602 0.31828606
O -0.01272137 -0.07612362 8.95428559 1.07714711 0.41032193 -0.45289516
O 12.52370795 -0.01193515 8.99549774 -0.56002296 0.08283656 -0.36739396
O 0.03245588 3.15789585 8.89298839 -0.08058156 -0.42062246 0.92401413
O 12.48068262 3.16990787 8.98146836 0.16984713 -1.02039316 0.50244103
O 9.88968319 6.14785789 2.47685992 -0.43711669 0.45939401 -0.96517043
O 22.16932945 6.28677142 2.47750702 0.96782558 -0.63946363 0.50178172
O 9.75341532 3.06618986 2.47314757 0.09375269 0.40780997 0.30758760
O 22.17066147 3.10696932 2.42279360 -0.78681894 -0.69071285 -0.51512694
O 8.36036002 0.04790690 8.33108280 0.60252631 -0.44379169 0.85816041
O 20.82306223 6.24309764 8.24696139 -0.16571112 1.22307296 0.36335904
O 8.23419861 3.15594430 8.20542665 0.01387430 1.29374807 1.31759587
O 20.81897236 3.12541944 8.21947435 -0.87094103 0.97788224 0.30304506
O 7.69672669 1.52342007 3.31543126 0.59016652 0.05068494 -1.54904165
O 20.22575534 1.59000849 3.27183306 -0.50158874 -0.11737664 -0.47730692
O 7.57174314 4.56110533 3.29829194 -0.94158109 0.66985913 0.32519481
O 20.16441190 4.63413999 3.28258362 -0.96376266 -0.89716334 0.23988313
O 6.20630294 1.62076068 9.11113963 -0.28703697 -0.32380910 0.02083051
O 18.63070822 1.51257287 8.92607510 -0.06241820 0.37123081 -1.21495421
O 6.28735544 4.54728772 8.94730827 1.10981848 0.26848797 1.29636934
O 18.77660191 4.66433029 8.90621019 -0.32772568 -1.93209900 0.07864012
O 3.44049935 1.62926776 2.44769204 -0.14855155 -0.19057396 0.98181057
O 15.92121628 1.42933901 2.55430306 0.57291737 -0.32675030 0.77134684
O 3.45995299 4.66038475 2.55141081 -1.34431516 -0.80795710 -0.77871645
O 15.95336892 4.64722552 2.52065294 0.59529523 -1.37491397 0.44988943
O 2.02095479 1.58074112 8.11609367 0.65579353 -0.68535558 -0.03227032
O 14.57729145 1.64440358 8.16412911 0.09082493 0.91808901 -1.11380697
O 2.11453573 4.61188970 8.18114947 -0.17854539 -0.26468425 0.38632320
O 14.56553264 4.60880633 8.23964531 -1.01823301 -1.38792770 0.08083487
O 11.97620311 1.56362621 1.49088148 -0.03302950 1.01349634 1.06759135
O 24.53091045 1.57901640 1.38664892 0.69618297 -0.33898801 -0.89812639
O 12.09320271 4.62831448 1.49884739 1.09805915 -0.43820036 -0.82324997
O 24.60254025 4.67281659 1.46172936 1.05912217 -1.50274558 -0.54249079
O 10.71697002 1.50768301 7.14448276 1.05297461 1.28539689 0.38934506
O 23.19394673 1.62551991 7.21032737 1.76517338 0.02113492 0.29262274
O 10.67636695 4.80288033 7.15340687 -0.86113362 0.20346267 0.41251079
O 23.22205100 4.62323971 7.10335748 0.70862731 0.96179791 0.73401209
O -0.98849795 1.48051585 4.09174531 -1.43688053 -0.55534237 -0.56978349
O 11.37123414 1.54954609 4.20198493 -1.23718757 0.58779652 -0.41212092
O -1.03731022 4.61026740 4.18147806 -0.07902896 0.77396970 1.90871820
O 11.43064140 4.64750762 4.27683924 1.02368188 -0.34739483 1.86169470
O -2.29741357 1.61647258 10.04650768 -0.32210062 0.31552378 0.09699717
O 10.07839357 1.54790119 9.95775893 0.60046038 -0.23036986 -1.09671831
O 10.24376366 4.63609772 9.81964449 0.40459661 -0.88737999 0.45438033
O 5.88834140 6.19767568 1.45395863 0.85005113 0.70380611 1.59916289
O 18.34660549 0.05761091 1.46782685 0.36625892 -1.04627321 0.38809228
O 5.87621156 3.06003944 1.45115495 0.95185451 -0.62634510 0.71362019
O 18.20847716 3.08414853 1.41586618 0.39393686 0.45643764 -0.70201775
O 4.50797279 6.28746199 7.16028824 0.08845631 0.19141715 -1.09106823
O 16.90664054 0.04738688 7.07301306 0.50239177 -0.76560642 -0.61587950
O 4.38469915 3.14174289 7.30196234 -0.17635217 0.42932038 0.46276908
O 16.87263175 3.04883592 7.27990507 -0.35830027 -1.03653114 -0.49581482
O 5.24957718 6.09990340 4.20883976 0.27958834 -0.82550060 -0.86180690
O 17.70651650 0.00649133 4.17562205 -0.86369159 0.01363644 -0.93601277
O 5.29406191 3.14650826 4.18015863 1.62490149 -2.09066812 0.28935811
O 17.70827317 3.12821048 4.26439597 -0.38723757 -0.20511951 -1.15328612
O 3.82965311 6.13497413 9.91446078 -0.29222394 0.21922335 -0.82242290
O 16.40724598 0.06656768 10.05283747 0.02158200 -0.14620841 0.16297147
O 3.85213064 3.13516679 9.95423869 -1.84415530 -2.54203055 -0.37040422
O 16.25008245 3.16789173 9.91349608 -0.04213586 1.61122888 -1.56441373
159
Lattice="24.844859 0.000000 0.000000 0.000000 6.151248 0.000000 -2.771489 0.000000 11.388701" Properties=species:S:1:pos:R:3:force:R:3 Energy=-623.581120 Virial="-52.448453 0.616264 -3.560161 0.616264 -46.660227 -2.957712 -3.560161 -2.957712 -42.421110" O_vac_type=O_O3 O_vac_tier=low O_coord=4 defect_vacancy pbc="T T T"
Ga -0.05647269 0.01383991 4.53392779 0.28098972 0.28054675 -0.02539020
Ga 12.43455707 6.14508416 4.42586318 0.47832503 -0.83891776 -0.01312257
Ga -0.00742717 3.06469376 4.65733717 -0.41176875 -0.66151477 0.87220269
Ga 12.39857764 2.88822137 4.57017071 0.56698859 -0.94097255 0.30865601
Ga -1.45563200 6.05904956 10.28116474 -0.45079980 -0.85604016 0.65329254
Ga 11.12501394 6.10787012 10.09081404 -0.84850318 -0.35544701 -1.16564929
Ga -1.26065011 3.09232769 10.30937515 -0.65054358 -1.35316022 1.90636569
Ga 11.03487581 3.12973530 10.12778374 0.86010507 0.44106987 -0.86925600
Ga 10.77524082 -0.02129860 1.19461906 -0.12819002 0.88937653 1.67110521
Ga 23.40320538 0.03937309 0.97239065 -1.11944375 0.80987106 0.24171251
Ga 11.06214302 3.05496073 1.22399209 0.42717940 0.25599741 0.08631005
Ga 23.33436287 3.09989083 1.15403280 -0.35889207 -0.11498218 0.20208015
Ga 9.66911648 6.02379889 6.90128969 -0.27368255 0.65059413 0.03199943
Ga 22.12145224 0.10971639 6.86614538 0.83351252 0.33104260 0.70404777
Ga 9.64807071 2.96811897 6.80784537 1.31157516 0.95365044 -0.64191651
Ga 22.02988849 3.07618922 6.91597193 0.87874264 -0.80355333 -0.05353851
Ga 6.23212772 1.61227463 4.50238853 -0.44590498 0.43279941 1.17833601
Ga 18.61749037 1.54723182 4.48495217 -0.11251735 1.17674353 -0.57584802
Ga 6.19431950 4.57759069 4.48899596 0.94618603 0.70264573 -0.71673458
Ga 18.71956291 4.68769086 4.58184261 -0.56506739 0.18289322 0.83600335
Ga 4.76321821 1.70057837 10.27144641 -0.19489605 0.29278998 0.85016646
Ga 17.28628936 1.60310876 10.07331148 -0.09639070 0.18761446 -0.74148297
Ga 4.82649267 4.65960539 10.26419171 0.28322656 0.76455406 2.56150321
Ga 17.13958864 4.58224930 10.22328871 -0.15842638 -0.81288435 1.43927403
Ga 4.76827986 1.59385787 1.27522453 -0.04542151 0.05047733 0.34220748
Ga 17.15190492 1.50117346 1.23637225 -0.93260082 -0.55220232 -0.23241548
Ga 4.82009976 4.62704645 1.21650337 0.10534979 0.36457171 0.42972802
Ga 17.24848018 4.65099608 1.06354856 1.33407750 0.23444500 1.16303803
Ga 3.47406163 1.53944258 6.83635363 -0.50992200 0.23090729 -0.74637851
Ga 15.80025721 1.52359846 6.94559259 -0.50154975 -0.21956384 0.13219648
Ga 3.45339422 4.52777106 6.74854667 -0.19442428 0.63478996 0.29908705
Ga 15.78437469 4.71701216 6.79552668 0.55132946 -0.88823368 -0.03390449
Ga 1.63618456 1.57792692 1.67418592 -0.50301358 1.51640462 -0.63388101
Ga 13.92398758 1.52900051 1.76715339 -0.37818599 -0.33127970 -0.78259719
Ga 1.51854810 4.64109913 1.85769005 -0.73077205 -0.45904299 -0.34008302
Ga 14.02340061 4.66512104 1.77836364 -1.14382054 -1.17803036 -1.03320422
Ga 0.20283221 1.41549805 7.46448816 -0.43615032 -0.36149977 -0.09839669
Ga 12.40449755 1.61551563 7.61542249 -0.20298726 0.84375979 0.33718622
Ga 0.14984635 4.64533191 7.47851667 0.44127674 -0.45415682 0.00909339
Ga 12.59841749 4.54340998 7.48582426 0.38110709 0.71793109 -0.56378743
Ga 9.46445273 1.66773175 3.82938108 0.16383849 -1.52708383 0.57663082
Ga 21.91446220 1.56084228 3.95216350 -0.33460909 1.47807850 -0.34827045
Ga 9.39603817 4.61490179 4.01116740 1.61001990 0.89850618 0.53357787
Ga 21.92579157 4.57290560 3.76873097 -0.28962707 -1.75100116 -0.83349484
Ga 7.97672916 1.45310523 9.66443917 -1.44089555 0.75627419 0.95423632
Ga 20.50829270 1.55725065 9.63918267 -1.32158691 -0.88888989 0.15482170
Ga 8.02890765 4.75149374 9.65749088 -0.47652174 0.72847385 -0.36644041
Ga 20.51051326 4.57651279 9.52343025 2.13416832 0.11454109 -0.78346841
Ga 7.75123954 0.00619603 1.90126856 -0.06706406 -0.18196804 0.88252484
Ga 20.25145326 -0.11583388 1.81545410 0.88864727 0.56685127 -0.31585162
Ga 7.70760859 3.03073064 1.84929425 -0.13613573 -1.34782375 -0.38414491
Ga 20.09548203 3.03855283 1.79163794 -0.37115143 -0.39428362 0.32616418
Ga 6.29144732 -0.08610307 7.45231237 -0.48580768 -0.35910790 0.24062691
Ga 18.74018477 0.02854101 7.46043625 -1.27958686 0.61822643 -0.24946964
Ga 6.36924618 3.10202772 7.47625300 0.54490265 -0.97752464 -1.56833959
Ga 18.79318204 3.07340852 7.49249589 0.46581721 -0.43821390 0.02543251
Ga 3.31272475 0.05664212 4.04666498 0.95716664 -0.11125491 -0.89132654
Ga 15.68884682 6.22778409 3.98937507 -0.54663668 -0.39957279 0.62935300
Ga 3.36594603 3.09120965 3.79562865 -0.77881742 -0.62889710 -0.26083698
Ga 15.73237822 3.02943956 3.81822505 0.66583558 -1.47891515 -0.41585115
Ga 2.01126466 0.01385173 9.61664505 -1.32868801 0.37499580 0.30666693
Ga 14.39630663 6.18808261 9.75089885 -1.36626750 0.64457624 0.40412754
Ga 1.90410938 3.16197691 9.56660259 1.04364693 0.59421267 -0.65335123
Ga 14.42482597 3.13815441 9.69067596 -1.88786658 -1.29296014 0.55313667
O 1.81995279 6.16761287 0.57034745 -0.34835179 0.62153745 0.95881972
O 14.29658254 6.14944809 0.64609930 -0.44803136 1.54737448 1.62352612
O 1.84510531 3.03839779 0.54265851 1.38109123 -1.10052228 -0.76389417
O 14.37001195 3.21704997 0.64610461 0.18112855 0.92864701 -0.65333588
O 0.46692061 -0.08935866 6.43240281 0.78995722 -0.40635211 -1.50176197
O 12.94178869 6.03973701 6.42815144 0.61140257 0.04693017 0.10795444
O 0.43320159 3.01743883 6.25995552 -0.79874353 1.26057214 -0.50683168
O 12.84112657 3.03028793 6.24821274 1.44768964 0.15095189 0.39397788
O 9.15835925 0.09663911 5.02916532 -0.50298408 -0.29537015 0.37182021
O 21.52229262 0.03464449 5.00570241 1.06597757 -0.35507400 -0.15698539
O 9.20542872 3.05308648 5.16887805 1.48369355 0.65795771 -0.97882927
O 21.54188535 3.23769844 4.99005948 -0.06541402 -0.78785629 -0.01948605
O 7.79766870 6.06869621 10.86813892 -0.27167119 -0.00940467 -0.37803930
O 20.20320245 6.18894905 10.76376575 0.62799965 -1.26777403 -0.71293130
O 7.78829247 3.07080544 10.80491240 1.61313344 -1.04019600 0.05099066
O 20.31392842 3.16403359 10.74859194 0.75253101 -0.67521550 -0.85509665
O 8.04373849 1.64371326 0.56222053 -0.44145922 -1.16383292 0.58211621
O 20.52602342 1.52676492 0.67748996 0.94918253 0.40502887 -0.78989084
O 7.99973369 4.68253271 0.59291926 0.56663947 -0.16943037 -0.32567242
O 20.51009075 4.60651363 0.67194923 0.75918941 -0.22053088 0.67825767
O 6.78398281 1.52261247 6.30530778 -0.60708084 -0.65259881 0.49728242
O 19.11259298 1.47166278 6.25118707 1.81701312 -0.66141503 0.86399016
O 6.62856520 4.46860524 6.23683496 -0.70044869 -0.38410543 -0.73105375
O 19.07086270 4.60453052 6.24474174 -0.17114133 -1.41632998 -1.07189037
O 2.94827685 1.46510903 5.09925532 0.29059989 -0.40210797 -0.66405125
O 15.24320149 1.50571370 4.97571508 0.98595200 0.88101849 1.90091846
O 3.04430948 4.55630154 4.99553918 -1.57764802 -0.08323154 -0.21956466
O 15.39087832 4.68853022 5.01606645 -0.31805359 -0.35311080 -1.39172460
O 1.58003185 1.45442119 10.74029895 0.20238518 -0.08400022 -0.08641692
O 14.01052419 1.63701995 10.72449243 0.37254630 0.64038503 0.32499117
O 1.60870053 4.74432088 10.78718178 -0.23821473 -0.99179682 0.71331531
O 13.92038909 4.63524841 10.74976779 -1.33433354 -0.03279212 -0.24084020
O 1.36126451 6.09136035 3.20665586 -0.73035985 -0.37113952 0.31489582
O 13.77556944 -0.02424769 3.08772485 -0.71261523 -1.37155186 0.99851157
O 1.44780235 3.05111019 3.16550697 -0.31498134 1.29543169 0.01563110
O 13.77850995 3.13050951 3.15280042 -0.71673190 -0.09878313 0.25118755
O 12.38415398 -0.02784274 8.91645680 0.90691525 0.15927580 -0.28843990
O -0.03428249 3.09523713 8.93142695 0.13686785 0.15839600 -0.37011373
O 12.44315043 3.00950818 8.93461041 -0.41369308 1.46371339 -0.71303504
O 9.58072479 6.15302455 2.49951395 -0.66244184 -1.85622739 -0.60764502
O 22.05534003 6.15396778 2.52034246 -0.77782020 -0.24341679 0.82747384
O 9.72470957 3.04897904 2.45466422 -0.36871032 -0.70894244 0.65069962
O 22.17928228 2.99519164 2.54117359 0.30295577 1.12992230 -0.48270422
O 8.23999961 0.00312383 8.10988071 -0.53907931 -0.20445350 0.87318360
O 20.61580666 6.08433392 7.97313988 0.62110386 0.18603408 -0.26462567
O 8.22170963 3.01367274 8.14272602 0.15094172 0.45499816 -1.29203930
O 20.64784763 2.99431153 8.18699458 0.17020919 0.76543793 -0.13099891
O 7.44669765 1.46332199 3.22712595 -0.46680835 -1.10671538 0.18685589
O 19.89021513 1.58767521 3.28819018 0.83601423 -0.58912485 0.79856605
O 7.54105879 4.72817834 3.24988260 1.09117273 0.11302664 -0.62659002
O 20.06425266 4.73063127 3.18194391 0.93764434 0.10021175 0.99483648
O 6.18864422 1.54681508 8.97281062 -0.02048606 0.57029794 -0.24359609
O 18.71081643 1.65540342 8.95779951 -0.30580073 -0.48902569 -0.70445096
O 6.23412281 4.59470663 8.99780724 -1.32721521 -1.07171995 -0.30580942
O 18.61570305 4.58761769 8.88503503 0.16898436 1.07368512 0.98509290
O 3.45353393 1.56053574 2.47597713 0.53690057 1.43549967 0.23188327
O 15.83272885 1.38597627 2.49183836 -0.09984668 -0.97527334 -0.16340505
O 3.24769511 4.56660480 2.43120281 -0.22032369 -0.84636273 -0.72784245
O 15.78755119 4.72724515 2.44393793 0.85242033 -0.65219628 1.17369609
O 2.10511245 1.65193297 8.22079622 -0.34771636 -0.17244073 0.15412785
O 14.50136570 1.37087074 8.19626731 -0.51451697 -0.99359544 -1.12652576
O 2.11676159 4.54032260 8.07280409 -0.94546119 0.04000928 -0.65802344
O 14.48431555 4.61949733 8.31988281 -0.16988734 1.55252947 0.13279110
O 11.96107934 1.53097062 1.51051352 0.61068408 -0.75337147 0.79091734
O 24.47417949 1.59421130 1.46770919 -0.49989068 1.24837578 -0.30263308
O 11.99179391 4.64062595 1.51767342 0.88153044 0.36813149 -0.36733811
O 24.48341421 4.48279832 1.48617557 -0.11242712 0.82740516 -0.94788938
O 10.69089493 1.59495908 7.19861014 -0.56106342 1.19560467 0.90429745
O 23.05425475 1.47121790 7.18884800 0.40038888 -0.43825538 0.48481052
O 10.49980344 4.60754654 7.14030986 -0.92158613 -0.03495472 0.42624382
O 23.19688754 4.71915837 7.17580916 -0.20501821 0.81238080 -1.35022383
O -1.11026896 1.59076981 4.19138861 -0.49219148 1.97024283 -0.02728144
O 11.44082964 1.60759877 4.26291437 -0.08510104 0.61607818 -0.30521338
O -0.97466040 4.68615169 4.21745115 -1.11804127 0.42593484 -0.14304244
O 11.61779429 4.59707009 4.13510642 0.32964752 -1.28065810 0.16291735
O -2.32993601 1.56084853 9.88384282 0.59670311 0.28494502 -0.52482497
O 10.01811825 1.58515970 9.96617385 -0.04526090 -0.54431454 0.81034365
O -2.38988216 4.47658484 9.96336137 0.04098587 1.60088000 -0.97718635
O 10.04637463 4.66294538 9.78726956 0.67055082 -0.51685081 0.75965530
O 5.81886126 6.23964139 1.50103371 0.00383453 0.81721416 -0.53260447
O 18.28773281 -0.00786627 1.38542865 0.54417936 0.79043403 -0.24893408
O 5.71202249 3.08065410 1.59194888 0.11071747 1.28843809 0.28351756
O 18.13082945 2.92571328 1.34877393 1.46043317 0.63754035 -1.82370156
O 4.38084934 6.07232573 7.24427170 -0.26384163 -1.32676043 -0.14367674
O 16.76066512 0.01023480 7.13177053 1.27316339 -0.43756572 0.76649135
O 4.48342546 3.10663309 6.99947863 -0.10872651 0.00434511 0.57583507
O 16.85103877 3.17204176 7.08306908 -1.30134965 0.74415190 -1.51459642
O 5.26914407 6.18144832 4.29892945 -0.11927264 -0.45223821 -0.53328389
O 17.64543982 -0.06143657 4.25606351 -0.14231645 -0.72881605 0.11672553
O 5.31244705 3.04262356 4.26036037 0.61991910 0.55053150 -0.34855445
O 17.65274917 3.08940415 4.19661915 -1.04537288 -0.04233783 -0.76780031
O 3.86288632 6.19763729 9.86430056 -0.46445692 0.44711244 -0.57410964
O 16.39282744 -0.05407289 9.93206019 0.07375820 -0.17906801 0.82779744
O 3.92790078 2.98450130 10.01721704 -0.07079883 0.69408222 1.87701804
O 16.36178978 3.18953849 9.81827528 0.15917154 1.31527364 0.23861395
159
Lattice="24.939188 0.000000 0.000000 0.000000 6.174603 0.000000 -2.782011 0.000000 11.431941" Properties=species:S:1:pos:R:3:force:R:3 Energy=-624.827843 Virial="-54.882149 2.745641 -4.713253 2.745641 -48.355978 -3.019794 -4.713253 -3.019794 -41.181307" O_vac_type=O_O2 O_vac_tier=low O_coord=3 defect_vacancy pbc="T T T"
Ga 0.22982828 0.03731092 4.55042812 -1.22835530 -0.72579120 -0.03152732
Ga 12.46041216 6.13258553 4.63172088 -0.38005164 -1.04895354 -0.62501540
Ga 0.00762713 3.21860057 4.53231979 0.00039746 0.63006205 -0.95509636
Ga 12.22098274 3.14728487 4.55098753 -0.50409512 0.29452083 0.59648484
Ga -1.29120853 6.11874795 10.38240625 0.09463427 -0.64413736 -0.04901236
Ga 11.18316714 6.12789188 10.29298603 -0.20458346 0.72376119 0.89863857
Ga -1.30191762 3.21512686 10.22953477 -1.10270666 0.54875919 0.56984004
Ga 11.01584861 3.08257556 10.22746064 -0.59906180 -0.62749248 1.02989088
Ga 11.10252225 -0.01521740 1.27561723 -1.44838493 1.45993926 -0.24703972
Ga 23.39346215 0.05912700 1.26842744 -1.23483213 0.67476980 0.34919717
Ga 11.00898275 3.07576013 1.25867786 -1.02656503 0.15719535 0.31225893
Ga 23.44924421 3.08126218 1.15691874 1.11809542 -0.25733110 -0.72582334
Ga 9.84249179 6.20797043 6.89087879 0.26403945 0.57541067 0.83952568
Ga 22.17601617 -0.00231618 7.02491810 1.09055459 0.09916526 0.91167215
Ga 9.60624300 3.06646686 6.88699641 0.33008637 -0.32611859 -0.28089404
Ga 22.21227123 3.08752895 6.97641903 -0.64987586 -1.20076742 0.73558041
Ga 6.11545356 1.59546762 4.60115499 -0.33920221 -0.05668234 0.59239488
Ga 18.89065176 1.56535864 4.48977543 0.70728141 -0.41595381 1.91950491
Ga 6.10226508 4.62802889 4.52696497 0.43329077 1.17940504 0.74467630
Ga 18.81787119 4.61139725 4.62586341 -0.68516029 0.86518575 0.88237323
Ga 4.87442282 1.64057375 10.25326761 -0.72894750 -0.02189382 -0.41623754
Ga 17.20622567 1.50523378 10.30619121 0.70954139 0.09044017 -0.66926249
Ga 4.79630698 4.64099664 10.17322738 -0.33980306 -0.55093804 -0.69310756
Ga 17.30261296 4.66039428 10.34638549 -0.60648216 -0.35904419 0.66461701
Ga 4.87778447 1.60180816 1.16065535 -0.63179439 0.82235095 1.05503396
Ga 17.27645873 1.63532186 1.24156937 -0.46305562 -0.61456409 -0.94899546
Ga 4.82283044 4.62539390 1.24435810 0.67758344 0.09898995 -1.20798462
Ga 17.30509666 4.61364567 1.20982680 -1.23542487 -0.50049572 0.99715524
Ga 3.40195152 1.61829087 6.93454261 0.46337500 0.76550085 -0.53645405
Ga 15.91918222 1.48173165 6.85770272 -0.66920998 -0.70104468 0.65598972
Ga 3.32999271 4.66741456 6.95958237 -0.19321345 -0.00908858 0.07328781
Ga 15.92369201 4.68525966 6.83043786 -1.43215587 0.08526303 0.97382832
Ga 1.51738000 1.56674149 1.82885767 0.82806428 0.26332319 0.00901740
Ga 14.11022791 1.50856797 1.78831068 0.54495643 -0.93548747 -0.58590211
Ga 1.47840693 4.60085117 1.84851924 0.20833951 0.39749988 -0.56943818
Ga 14.03685044 4.66924686 1.77446336 -0.41848748 0.27501898 0.23985931
Ga 0.08608290 1.53951869 7.53734392 0.81532161 0.25375062 0.19387443
Ga 12.60511204 1.58129628 7.48731063 -0.17422705 0.53380871 -1.85108576
Ga 0.16044653 4.69398841 7.43882220 0.24742147 1.02574031 0.93310729
Ga 12.73077312 4.58261220 7.55645602 -1.72600192 0.22036334 -0.93099854
Ga 9.52174132 1.65611273 3.83183498 -1.96108392 -1.34507338 1.44297604
Ga 22.03177059 1.52831468 3.87863398 -1.44772152 0.22124796 0.37960759
Ga 9.43636574 4.56160009 3.87390769 -0.73847838 -0.43983768 -0.39927364
Ga 21.95645816 4.55029698 4.07714189 0.55561550 0.05795174 -0.91227317
Ga 8.08016009 1.53352335 9.58189420 -0.99480825 -0.29047490 -0.33877137
Ga 20.59225822 1.49506287 9.54602817 1.01217007 -0.21348192 2.12607366
Ga 8.25925915 4.57507447 9.51652048 -0.42385012 1.98855938 -0.39392898
Ga 20.71290513 4.72479688 9.62472433 0.11743696 -0.24241386 -0.37184858
Ga 7.92400639 0.01724802 1.83334872 1.47337169 0.26739972 -0.31628617
Ga 20.21752471 -0.01588340 1.74620028 -1.56286887 -0.17298986 -0.37145617
Ga 7.76521882 3.11978644 1.91150515 0.81880062 -1.11330058 0.87206821
Ga 20.27994457 3.11603392 1.69652437 0.72081465 -1.12616677 -0.26740269
Ga 6.42544492 0.10523283 7.53221904 0.89491217 0.38859489 0.21360083
Ga 18.79858438 0.06166637 7.58256345 -1.11316440 -0.77311502 -0.52313516
Ga 6.37097116 3.08936403 7.58264533 1.05265279 -0.61466910 1.08258092
Ga 18.75497682 3.02379199 7.45970832 -0.51247709 -0.37077134 1.60812245
Ga 3.35717293 0.04527562 4.04999734 0.45050358 1.00437480 -0.60300955
Ga 15.77200584 6.19567229 3.90708295 -0.48747044 -0.33957697 -0.08539224
Ga 3.29547647 2.99661520 3.91175215 -0.39552861 -0.66297792 -0.12624519
Ga 15.76680939 3.16108060 3.99428193 0.36833570 0.30437408 0.15925359
Ga 1.87575631 0.06054242 9.60965261 0.84703102 -1.02108443 0.48437918
Ga 14.41012898 6.09296097 9.66663270 -0.07623868 1.63216942 -1.46909460
Ga 1.80192686 3.09013785 9.64923878 1.28320830 0.10435203 0.08876947
Ga 14.50993624 3.16081164 9.57128919 0.59823693 -0.79773531 0.35020348
O 2.04640658 6.23960630 0.51533920 0.22602475 0.42424133 -0.90255124
O 14.30816128 6.23710993 0.66794524 0.44167571 -2.16995172 -0.64132807
O 1.82977249 3.17249186 0.50968607 0.32053886 0.43855489 -1.54811823
O 14.30589416 3.07619101 0.61221423 1.19696201 0.92717280 0.30148081
O 0.42997792 -0.04264489 6.28616950 -0.00817348 1.08207492 -0.19225028
O 12.96305410 6.21841530 6.41000271 -0.03237755 -0.51912791 0.23547486
O 0.39043586 3.03112534 6.35159609 0.88668493 -0.26782853 1.07112931
O 12.94676275 2.96499045 6.39782969 -0.09472956 -0.31280057 0.53438608
O 9.28382094 -0.02150708 5.14344806 -0.24362565 1.74983598 1.09189526
O 21.75986145 -0.01647282 5.09504375 0.42001752 0.92122410 0.10180008
O 9.22503157 3.11512981 5.19885073 0.08767886 1.53248639 1.66683380
O 21.74831232 2.96811668 5.05913509 1.98338674 -0.42319347 -1.35134789
O 7.80284246 6.22927987 10.75314599 0.81852535 -1.04915963 -0.22400562
O 20.26203138 6.23062759 10.78027790 0.53485444 -0.52609179 0.13620915
O 7.77672313 3.14637665 10.69662615 -0.56021860 -0.56354074 -0.10651500
O 20.07821069 3.03338500 10.83091846 0.01636721 -0.03547956 0.73803298
O 8.20603453 1.55351494 0.56508689 -1.56514048 -0.20555107 -0.95819690
O 20.64525234 1.38240417 0.66369526 -0.45109336 -0.70322966 -0.18414736
O 8.09403552 4.63365316 0.73307134 -0.35530336 0.06831591 1.19967314
O 20.59166855 4.54923291 0.54444223 -0.35328815 0.57890945 -0.14014813
O 6.78084976 1.56406450 6.31089297 -0.44565493 0.52861325 0.21477949
O 19.13932025 1.52548284 6.40101735 0.10134257 0.15212056 -0.59704348
O 6.58420076 4.70619271 6.27598049 0.45580209 -0.19473631 -0.65180077
O 19.29926742 4.59719315 6.16064900 -0.11494525 0.08028695 1.20531129
O 3.01467353 1.52705832 4.94945212 -0.66558308 -0.20551131 -0.50178420
O 15.37674816 1.56314665 5.13894638 0.07119963 0.18653934 0.65542912
O 2.95973180 4.61920517 5.04766472 1.13157453 -0.54925443 0.55421813
O 15.41991369 4.65370076 5.12892202 0.25229753 0.07536629 0.14172870
O 1.63456198 1.56757520 10.91050170 -0.68664359 0.86898229 -0.08622618
O 13.92584840 1.51872737 10.64939396 1.31403909 -0.38741429 -0.11318407
O 1.50325438 4.64396091 10.89460227 0.17369018 0.73150470 -0.59272509
O 14.06972327 4.71789063 10.77758125 1.05426052 0.47125949 -1.20916197
O 1.35536827 6.21265487 3.32483935 -0.00936407 0.69347436 0.24273359
O 13.79178951 -0.03794762 3.14717856 0.02456355 1.08987233 0.81428562
O 1.34230601 3.04872238 3.36727416 0.95182603 -0.49100331 -1.02457435
O 13.75623654 3.12783819 3.20422661 -1.18111335 -1.42466483 -1.05587416
O -0.02587929 0.00024156 8.87570308 -0.36962860 0.72729078 -0.76328087
O 12.52661850 0.02047618 8.96465016 -1.57466171 -0.62633076 0.30573059
O -0.05269934 3.06486321 8.89345325 1.37376221 1.42379814 0.06495997
O 12.43938469 3.07011889 8.90809424 -0.27622356 0.06069298 0.20506497
O 9.78299297 6.19415990 2.39020235 -0.30867701 0.28445249 -0.57442767
O 22.16259321 6.23367847 2.45540632 0.77312763 0.18006100 -0.62480101
O 9.69367678 3.15474482 2.36990416 1.38477892 -0.62330621 1.64261890
O 22.30041553 2.98262635 2.39274110 0.65731492 -0.05653138 -0.68713195
O 8.34908275 -0.01443160 8.22053633 -0.29673325 -0.04834228 0.38652536
O 20.81145837 6.18766178 8.22423397 -1.36532465 0.50764074 -0.23546048
O 8.36288949 3.15347295 8.16945227 0.60967473 -0.13122596 1.49891605
O 20.79155521 3.03317080 8.23220610 -0.80000626 -1.25541910 0.28352497
O 7.62413041 1.57845227 3.36328904 -0.03617298 -0.19295515 -0.54950711
O 20.12608833 1.57204274 3.19084430 0.19842324 -0.29083140 -1.04879140
O 7.80421928 4.55881857 3.29252746 1.35922887 -0.74352993 -0.35149438
O 20.08106225 4.61972209 3.24315754 -0.92629018 0.54541793 0.03607962
O 6.25167806 1.56373027 9.01829307 0.46960642 -0.14514564 0.24723182
O 18.53060854 1.62441492 8.83724244 -0.84967083 -0.45723741 -0.53413675
O 6.24248376 4.59164080 8.98885998 -0.68239273 0.97090945 -0.82578366
O 18.70947166 4.68490729 8.83589471 0.86240325 -0.75168516 0.17719290
O 3.29192410 1.73924292 2.45773640 -0.21254885 -0.75064582 0.10591572
O 15.97702173 1.41902363 2.59649053 -0.02522122 -1.43530160 -1.00334091
O 3.39843318 4.60062268 2.44377282 1.07587464 1.25894862 0.29399034
O 15.99773958 4.61951122 2.55404972 0.66082677 -1.17930113 0.46263839
O 2.09502042 1.60288599 8.30596431 -0.22934544 0.01260150 1.64786675
O 14.68680881 1.48886611 8.15447490 -0.30565458 -0.10413812 -0.38641088
O 1.92658184 4.72664466 8.28307235 0.29030281 -0.56101925 1.47279815
O 14.43189408 4.51549750 8.17875809 0.98876869 -0.73349674 -0.21272722
O 12.08163639 1.46247674 1.42069483 0.75622122 0.46075459 -1.26823662
O 24.44079199 1.53213490 1.47367790 0.25900060 0.17745613 -0.40669645
O 12.07320154 4.65625823 1.57040038 -1.48349902 -0.20475819 0.38003982
O 24.59421207 4.67246720 1.42990576 0.14971303 -0.47300867 -0.91766471
O 10.82041700 1.49469407 7.20330731 0.21470323 -1.58235754 0.39359150
O 23.10485706 1.60925472 7.29125442 0.71190638 -0.87290939 -1.10838059
O 10.65391250 4.67038487 7.14879809 -1.06671703 -1.11351007 -1.00484161
O 23.15688978 4.66343139 7.18755845 0.91241571 0.12056424 -0.07745693
O -1.01827372 1.60563032 4.25806432 -0.63116850 0.28387468 -2.10103293
O 11.44203821 1.48613547 4.25938948 -0.06977459 -0.26460978 0.58939687
O -0.95686360 4.67929728 4.26331849 0.41030816 0.11726964 -0.20359777
O 11.37778689 4.81035376 4.20754444 0.45283151 0.92442837 1.22571510
O -2.37767301 1.50284731 9.96008163 -0.13447221 -0.70145702 0.63031388
O 10.11622956 1.50612227 9.98640038 -0.60197488 -0.08026644 -0.34435919
O -2.40722688 4.68542769 9.92774827 -0.00529470 1.90744021 -0.90848359
O 10.08477154 4.62009231 10.04510388 -1.21227530 0.12566681 -0.38405931
O 18.29148558 -0.11883919 1.45532776 0.13982872 0.82814784 -1.05427836
O 5.86521361 3.06743334 1.38180463 0.27533957 0.15310417 -0.57046240
O 18.45889310 3.09600621 1.41323834 -0.89117372 0.88320261 -0.88910938
O 4.38337487 6.12066333 7.18123557 -0.56586829 -0.02642862 0.07252521
O 16.73560767 -0.00844790 7.09653515 0.31475728 1.04703958 0.35323801
O 4.42022099 3.15293882 7.16341340 -1.32544349 0.01990366 -0.96382540
O 16.88608182 3.23104884 7.16623261 -0.68882725 0.16008704 0.48508857
O 5.25992158 6.01886291 4.14077429 1.64654840 -0.50517179 -0.01998540
O 17.85262563 -0.03316841 4.28554176 0.26659490 0.21907158 -0.51548294
O 5.22109832 3.05565903 4.28365886 0.15594053 0.81045877 0.11523610
O 17.63183680 3.08138960 4.13350104 -0.13089297 -0.24896935 0.17902229
O 3.82105285 6.09272309 9.99996772 1.14457405 -0.42908276 1.01041175
O 16.47923935 -0.01753888 10.17604913 1.74828199 -1.32735051 -0.14165943
O 3.88238389 3.07890030 9.88140185 -0.19879082 0.44739818 -0.27151060
O 16.40922412 3.06132812 10.01769373 0.31490379 1.19655027 0.37491432
