159
Lattice="24.699463 0.000000 0.000000 0.000000 6.115250 0.000000 -2.755270 0.000000 11.322052" Properties=species:S:1:pos:R:3:force:R:3 Energy=-622.008593 Virial="-59.852296 -2.151863 -1.845150 -2.151863 -50.640738 -6.181705 -1.845150 -6.181705 -42.126115" pbc="T T T"
Ga 0.10227827 -0.03573976 4.39073398 -1.49827606 -1.46758894 0.82105445
Ga 12.37460245 6.17910536 4.53113170 0.72459189 -0.32461842 0.51426423
Ga -0.01548472 3.12072040 4.37491250 -2.56077976 -0.35301492 -0.52926473
Ga 12.44254469 3.08457466 4.56437219 2.83776801 -0.43994900 1.05977686
Ga -1.38134328 6.05461073 10.03459498 0.94810242 -0.78373169 -1.64261973
Ga 11.16882745 6.13103377 10.20315560 0.37323303 -0.67893861 0.73064192
Ga -1.32947727 3.14159905 10.20063399 -0.99995300 2.38961118 -0.17720637
Ga 10.99661503 3.04035823 10.19473117 -1.33547899 0.10070454 -0.91800803
Ga 11.01123146 0.01327431 1.18757283 1.08801300 1.76067143 -0.61808048
Ga 23.24367606 0.07410590 1.17718653 -0.75121729 1.70801422 -1.90702058
Ga 11.05576352 2.79852786 1.02851217 0.56012236 -3.77356130 -0.32698642
Ga 23.19849383 3.08210080 1.15013384 0.05230212 -0.68295591 1.71929062
Ga 9.58292166 6.20295637 6.79814309 -0.36618037 1.47351028 -0.88835117
Ga 22.04705375 -0.03026498 6.85230623 -0.81199140 -0.70730587 -0.87561105
Ga 9.64601392 3.12912769 6.79511435 -0.34548433 -2.07270037 -1.20006686
Ga 21.85545162 3.11041127 6.76253139 2.00554769 -1.16044579 -0.32081734
Ga 6.20069725 1.45307387 4.56266852 0.66944577 0.28711973 2.40938442
Ga 18.37819467 1.55306482 4.48671034 -1.79306484 0.74571704 -2.16028977
Ga 6.31233217 4.71133797 4.43489860 -0.54922595 0.77840156 1.47992227
Ga 18.55660520 4.52765268 4.49698597 0.35554516 -0.93001087 1.46630804
Ga 4.83483399 1.56900549 10.40628326 -0.13277505 0.69684803 2.62109900
Ga 17.07328886 1.43260185 10.24015350 -1.02658637 0.38204703 0.37164023
Ga 4.85282585 4.57096529 10.37051565 -0.44257667 0.60809173 -0.56538057
Ga 17.12682080 4.54485494 10.19384941 -1.13530202 1.01178948 -1.42432860
Ga 4.60072977 1.40373883 1.08041234 -2.37883612 -0.41787058 0.68206735
Ga 17.17582798 1.50075950 1.09749612 0.37942863 -1.79664495 0.05018037
Ga 4.73242997 4.58830600 1.13554126 1.23964258 -1.83766516 0.31744215
Ga 17.10579305 4.54716029 1.15834781 -0.01789583 -1.10467696 -0.30805848
Ga 3.41887694 1.44708504 6.93271046 0.64066048 0.71517754 1.23875452
Ga 15.86002214 1.56563499 6.79318434 0.18442977 -1.43152651 1.34687052
Ga 3.44610742 4.45805748 6.81754573 -0.99971498 0.56299383 0.49444233
Ga 15.77149060 4.52529972 6.83090699 -0.14294866 -0.78777179 0.31258909
Ga 1.45395566 1.54529308 1.58415061 -0.53514813 -0.33001997 1.21215774
Ga 13.79633787 1.47904804 1.72652021 -3.11738180 2.09948751 0.81288017
Ga 1.53108736 4.63056614 1.69264533 0.46725533 -1.86313211 2.04204957
Ga 13.97319379 4.53812996 1.79582923 -1.42150770 -0.67827595 0.11555682
Ga 0.06183720 1.44974479 7.44954390 -0.78850263 1.34271540 -1.09568274
Ga 12.46220240 1.51755428 7.56392074 -0.40077989 2.39199701 1.78943724
Ga 0.17923352 4.56162323 7.47077862 -2.20484024 1.07745057 -1.21910165
Ga 12.48427064 4.54954885 7.40799953 0.17992606 1.56111759 0.30769318
Ga 9.41101530 1.31159750 3.89071880 -0.71874503 1.36384449 0.39797080
Ga 21.89715671 1.62453933 3.94106570 -1.55441610 0.02558944 -1.67303711
Ga 9.34360256 4.63926778 4.07843627 0.50418616 -1.73752949 1.92757651
Ga 21.85071753 4.45554710 3.86472127 0.72474000 -2.05844429 0.53076538
Ga 8.11690307 1.50097730 9.46325461 -1.41055344 -0.63646328 -0.95512525
Ga 20.51883676 1.43553071 9.45687888 1.74483676 -1.89945981 -0.88811322
Ga 8.08756945 4.60793235 9.61386974 0.75550386 -0.68028129 0.67730593
Ga 20.50704837 4.49418521 9.50663845 0.02871839 -0.46465668 1.53519709
Ga 7.58466890 -0.01056005 1.71296892 1.26750983 -1.15611101 -1.62751739
Ga 20.16270383 0.11915208 1.88319165 1.24330622 2.47730562 -1.03818717
Ga 7.69346556 2.92158574 1.64593911 1.42568246 -2.04090264 -0.90894325
Ga 20.02323203 3.07351050 1.69070666 0.68427267 -0.80105473 -0.08044468
Ga 6.29919780 0.09523936 7.61246652 1.81183914 1.94320530 0.95500635
Ga 18.64831134 0.00835035 7.40537443 -0.21048533 -0.84680543 -1.01430673
Ga 6.23948692 3.07010770 7.49825466 2.43115025 2.17028382 -0.45925113
Ga 18.73191647 2.97181747 7.42382348 1.11868922 -1.06490382 -0.56273316
Ga 3.18539635 -0.05232765 3.87683981 -1.55743591 -0.89473634 0.18953512
Ga 15.62858628 6.16566993 4.00239913 -0.40751820 -0.84301153 0.94259408
Ga 3.38263751 3.04663534 3.82737098 1.44320651 1.37158229 -0.53900231
Ga 15.69930311 3.08318922 3.91086275 0.50476300 1.24462021 -3.28333542
Ga 1.92251679 -0.11914054 9.49786976 1.34456102 -0.01679247 0.83546645
Ga 14.34005091 6.15722320 9.44648698 1.97347482 -0.38454644 -2.18071121
Ga 1.84080751 3.06510088 9.65396372 -1.67866945 0.22789114 1.17669165
Ga 14.18393377 2.95644979 9.53643744 0.07396901 2.55810479 1.02605899
O 1.98861420 6.11620685 0.58017467 0.10055294 -0.80922956 1.54498486
O 14.15231762 6.23073957 0.59639661 0.32879230 -0.17112195 0.78321936
O 1.79877235 3.19367109 0.42713562 -0.11323564 -1.54041276 -2.17158679
O 14.21514827 3.09355913 0.52060017 -1.18822161 -0.36369677 -0.29790739
O 0.59445419 -0.11993228 6.20732944 0.72371307 1.38187357 0.83199724
O 12.94857600 6.06678539 6.17812630 -1.44908101 0.68112665 -0.37475450
O 0.56613607 3.06960504 6.26125942 0.63936522 0.09532475 1.00192854
O 12.76120423 3.05515145 6.23656827 3.11226302 0.88667041 -0.06278080
O 9.14998856 -0.00082291 4.98269411 -0.91916788 0.07441210 -0.15572492
O 21.54163334 -0.07335189 5.12519964 1.00002349 -1.25254146 0.15130452
O 9.22597554 3.06610153 5.07233473 -2.44949972 -1.11461793 0.14960797
O 21.32743342 3.01967400 5.01509950 0.94753400 1.72544903 -0.69286315
O 7.71652930 6.18212426 10.70635238 0.25656775 1.40512307 -2.04699205
O 20.05041294 6.11625442 10.67137315 -1.35698803 -2.28753989 -1.69805537
O 7.70212444 3.04556354 10.59063029 -0.59201446 -0.54598714 -1.04920716
O 20.17932673 3.00116163 10.66058148 0.86782828 2.60652534 2.54245096
O 7.95952912 1.58115792 0.49481388 0.51908368 1.24575938 -0.14958331
O 20.45824958 1.57629515 0.59728161 1.91240185 -0.03423490 1.34249698
O 8.01576452 4.72919530 0.59171423 0.67053708 -0.12314648 -1.09447883
O 20.29394282 4.68707845 0.60317774 -0.46768470 0.33103553 0.30255879
O 6.49345160 1.63953633 6.24465674 -0.48012314 1.48020132 -0.76925125
O 19.04804767 1.54641513 6.27515256 -0.43503374 -1.58411605 1.53414050
O 6.74339604 4.45575211 6.16454596 0.41427842 -1.97814232 -3.29521703
O 18.89756724 4.64762576 6.32793003 -0.22118663 -0.24751294 0.25889940
O 2.94472272 1.39881707 5.17674885 -0.72646671 -1.05454864 -0.74750413
O 15.37265204 1.53220282 5.11400155 2.38685564 1.49361685 0.73232378
O 2.95849905 4.59465490 5.06903297 1.23128837 -0.00682398 2.27011650
O 15.23895912 4.57043937 5.12962009 -0.46177832 -1.50189889 0.16526317
O 1.51245904 1.47589290 10.72776903 0.26606439 0.32093029 1.99388743
O 13.83202324 1.56935476 10.83012185 -2.29895124 0.21355708 0.05869766
O 1.64166581 4.64238737 10.63867491 -1.85760333 -1.50884112 -0.21594921
O 13.75473232 4.60975956 10.71146139 -1.55989796 0.51912412 -1.99003873
O 1.36848542 6.09352898 3.29126347 0.73544291 0.14727117 -0.21220277
O 13.63301298 0.07230808 3.19928705 1.94874682 -0.70021131 3.52011535
O 1.34629600 2.99611729 3.11272831 1.65879751 0.45698503 -0.08083778
O 13.73171309 3.05779509 3.15831477 2.21073235 -1.09498844 -0.79030764
O 0.05109293 -0.20378576 8.92109681 -0.19733584 0.80940580 -2.83147451
O 12.40923469 0.05748838 8.73024116 -2.54282927 0.62989186 0.00612451
O -0.06638739 3.01281691 9.01562423 2.00974046 1.04581048 -3.02416507
O 12.38197023 3.03956935 8.81664372 -1.42506234 0.22161296 -2.64347381
O 9.58399101 6.10269825 2.41507890 -0.05763362 0.28683244 0.28209727
O 21.94579454 6.17043905 2.40946638 -0.03466778 2.00100486 -0.47179158
O 9.63519288 3.08921344 2.47748716 -0.67584101 -0.53104831 0.55253349
O 21.97844551 2.99864000 2.55268672 2.70076073 1.20607278 1.11928041
O 8.17423641 -0.00197955 8.11921877 0.20465754 1.66576545 -1.27909114
O 20.67646625 6.12435525 8.05589997 -0.16689044 -1.19378549 -0.88341171
O 8.19809822 2.93039809 8.17746707 -3.84219514 0.99831362 1.03267369
O 20.77170154 2.93133057 8.11580609 -2.44835555 -2.15096666 -0.34768816
O 7.62786477 1.58163397 3.11536379 1.15239055 1.75955151 -1.51002661
O 20.04384232 1.48320077 3.15636685 0.78350073 -1.26260322 1.45947132
O 19.74217065 4.61494535 3.34166176 -0.89010017 0.39994658 -0.05726578
O 6.13520894 1.49930333 8.85630889 0.12876121 -1.89573556 1.81990615
O 18.48929949 1.52787984 8.81258646 -0.37005362 -0.52680739 -2.69490623
O 6.23428610 4.45389408 8.76491133 -0.22987817 -0.63358380 -0.48649953
O 18.49045087 4.63944271 8.88441166 -0.79621887 0.53188173 0.03598729
O 3.41121806 1.60778081 2.49771034 -1.53656530 1.38942044 -1.20623374
O 15.56624082 1.44597488 2.43203171 0.85643148 -0.56404960 0.26773803
O 3.32329656 4.60673135 2.55716281 0.25190994 0.38837927 -1.41033076
O 15.72063796 4.45040586 2.50354006 0.43001127 1.23542069 1.37117852
O 2.03737286 1.50480643 8.12532613 0.46839377 1.01322936 -0.68105164
O 14.36381878 1.56784271 8.09534242 0.10622283 0.17743110 -1.84425205
O 2.02759963 4.74790775 8.19712169 1.77480130 -0.34674906 -0.46466349
O 14.49918573 4.63054504 8.23552535 -2.37575592 -0.03650332 2.16971737
O 11.96708291 1.43538243 1.45359972 -0.04345124 1.95120141 -0.31262555
O 24.24970848 1.49692170 1.43350268 0.31058092 1.27903649 0.36200223
O 11.84623354 4.61111322 1.35376233 1.33900009 -1.60092242 0.94684899
O 24.23613998 4.59914990 1.25716029 -0.42096446 -0.55310805 -0.60198381
O 10.66789023 1.56319695 7.02345344 1.10206487 1.81348128 0.80308582
O 22.76035562 1.51792724 7.11446126 -0.62541982 1.57098553 0.77194914
O 10.64639509 4.56888734 7.12384432 0.44477687 0.46156074 -0.34947805
O 23.11729552 4.78028696 7.15658247 -0.58834522 -0.09241728 1.37288211
O -1.01018011 1.47552525 4.34953070 0.38593232 -2.28893985 -0.63950293
O 11.31321811 1.46170709 4.16106028 1.70677963 2.40079191 -0.38101113
O -0.94537321 4.49961868 4.27521157 -0.09104974 0.76425204 1.14211740
O 11.38971477 4.59176350 4.37102217 1.40137448 -2.54776640 0.38421706
O -2.41161303 1.49564936 9.82507029 0.15875179 -0.59490367 0.30604214
O 9.96141395 1.57716915 9.79021690 -0.81621654 1.12194571 -1.53282780
O -2.27717794 4.71172316 9.90150522 0.31632118 -1.60744697 -1.70597082
O 9.77114188 4.50205688 9.94286520 0.52410458 -1.70070209 1.77015438
O 5.83391081 5.93130994 1.51902516 -1.04934051 0.32538357 0.29246622
O 18.10025380 0.10759714 1.38834651 -2.65112696 -0.86124462 1.53882468
O 5.65560564 3.09772874 1.46430740 -0.91646263 0.41867812 -0.61734418
O 18.11282106 3.03853317 1.47319245 1.56240458 -1.05041873 1.35349500
O 4.48135472 5.96640164 7.08776699 1.44958233 -0.10695806 -0.57979851
O 16.77434713 -0.07153779 7.17695103 0.47268839 -0.02097370 1.50011358
O 4.32093036 2.93524507 7.11181694 -1.09190130 0.57171666 0.97867418
O 16.74271619 3.28815638 7.11581707 -2.34838511 -0.04916651 -0.40633028
O 5.18600205 6.16082437 4.26957157 1.07815852 -1.44352338 -1.13655917
O 17.65449297 -0.04857499 4.29325036 -1.67730943 -0.22423318 -0.66248994
O 5.20132507 2.97710155 4.14343407 -0.33107539 -0.80300485 0.27423674
O 17.52289307 3.17054711 4.31695031 1.31596455 2.31623643 0.39321559
O 3.69289306 6.02300924 9.90933717 -0.12816687 -0.66636666 1.97560200
O 16.19705245 -0.08771356 9.92665121 2.07825404 2.01156832 -0.13880181
O 3.73789847 3.00399033 9.86194641 0.28420690 0.17043069 -0.18988539
O 16.19701573 2.99603002 9.88550010 -0.27601659 -0.65647203 0.79746084
159
Lattice="24.869255 0.000000 0.000000 0.000000 6.157288 0.000000 -2.774210 0.000000 11.399884" Properties=species:S:1:pos:R:3:force:R:3 Energy=-624.295796 Virial="-54.522700 0.893292 -0.372962 0.893292 -48.417859 -5.188661 -0.372962 -5.188661 -43.100844" pbc="T T T"
Ga 0.06991408 0.02702303 4.43806806 0.09089495 -1.65411556 1.62047054
Ga 12.52126590 6.16836491 4.49999129 -0.70151246 0.40357293 1.52598813
Ga 0.09064085 3.12333460 4.53890000 0.20268408 1.45903365 -1.10829526
Ga 12.47911830 3.18322334 4.50250161 0.64517297 -1.56597127 -1.02120425
Ga -1.30428139 6.15843325 10.20551629 0.03161637 1.46682152 -2.37995202
Ga 10.97605494 6.05082265 10.35053089 0.14581465 -0.78190178 0.92337193
Ga -1.26123802 3.08242503 10.20342733 -0.78908499 -0.42475465 1.37827503
Ga 11.08843238 3.08538542 10.30503143 -0.36278521 -0.70744664 2.35364632
Ga 10.96326528 0.02713461 1.28055184 -0.08047632 0.14199376 -0.16107601
Ga 23.42129053 -0.03917772 1.20707486 -0.07393542 -1.32552181 -1.99336782
Ga 10.95269086 2.98187409 1.09521797 -1.07410931 0.31127626 -0.88877590
Ga 23.60549989 3.05828789 1.21086057 2.05458937 0.88482057 0.63262927
Ga 9.57191565 6.02600699 6.92657996 -0.20593559 0.16440515 1.18370329
Ga 22.09012725 -0.13295748 6.87540056 1.22391746 0.73716198 0.71614937
Ga 9.61909640 3.13848756 6.70075709 -1.68963165 -1.15254422 -0.93314500
Ga 22.16652570 3.02165624 6.87496020 0.20282724 1.28599574 0.82089197
Ga 6.27974226 1.53061871 4.55221039 -0.85567682 0.81068328 1.43809386
Ga 18.62467960 1.51085521 4.57734261 -0.35433681 1.05322854 0.40763989
Ga 6.12210513 4.57826404 4.57521920 -0.80251041 -0.61413184 -0.55216143
Ga 18.77349463 4.63555659 4.51398876 -0.03450142 -1.69869568 0.34986575
Ga 4.89899284 1.50079716 10.25481061 -1.28179721 -0.66055329 0.10101224
Ga 17.38170901 1.48256542 10.32602868 0.14032339 -3.59043046 0.57724629
Ga 4.90807759 4.69955475 10.27965412 -0.54318128 2.68552224 0.06600160
Ga 17.31573514 4.61865858 10.17090131 0.65458988 0.16159205 -1.29137437
Ga 4.87023478 1.59125145 1.15900402 -1.47068262 0.07055659 -0.25680977
Ga 17.13608638 1.56092459 1.28528293 -1.13529580 -1.22050798 -0.98390981
Ga 4.79656041 4.51652869 1.09533852 0.55109377 -0.44705996 0.21645801
Ga 17.24278891 4.58119428 1.12767663 1.08855960 -0.43810847 0.58722135
Ga 3.43237124 1.49988872 6.98959519 -1.22422290 1.26813794 0.56718907
Ga 15.90199188 1.53657538 6.85625480 0.13264200 -0.70837493 -0.73617491
Ga 3.40130608 4.61065341 6.91447649 -0.67071088 0.72875839 -0.75886711
Ga 15.88693741 4.63097512 6.90560493 -0.39738902 3.75463150 -1.33253387
Ga 1.51176969 1.56564003 1.69166154 0.29364905 -1.30223805 -0.94636656
Ga 13.97617691 1.59087265 1.78673982 1.55091722 0.72322402 -0.56512569
Ga 1.52563995 4.53601886 1.84751435 -0.77289982 3.34221375 0.39772409
Ga 13.93003226 4.75573653 1.70864676 2.40474475 0.04419127 0.03061012
Ga 0.17682152 1.53130238 7.41884390 -1.65703957 0.26042830 -0.06821208
Ga 12.59480347 1.62432965 7.37692742 -1.16116543 0.46096483 -0.25213965
Ga 0.16825138 4.61138465 7.48363765 -0.73660179 0.30250708 -0.56656589
Ga 12.63845669 4.61292227 7.42583315 0.53808856 0.87878240 1.54474520
Ga 9.42686957 1.50525514 3.92152245 -0.48838719 -0.38458214 0.77377169
Ga 21.89573762 1.48453450 4.00864875 -0.76842379 0.63750998 -0.62357928
Ga 9.40788998 4.73193863 3.87885385 0.02556600 1.13276770 1.54987876
Ga 21.94896156 4.57095612 3.90836606 2.24431828 1.00055330 1.64178958
Ga 8.04373571 1.59202584 9.65692937 -0.04911084 -1.33772209 0.63523748
Ga 20.53758052 1.61030080 9.63831252 -1.38323734 0.92398532 0.54577438
Ga 8.07556947 4.56377178 9.61016704 0.63336569 0.61465636 -0.08241429
Ga 20.54908370 4.60428708 9.72293823 -1.42219955 0.27024504 -2.04648758
Ga 7.67457664 0.05006271 1.75168522 1.62370421 0.74793666 0.17254920
Ga 20.17282938 -0.08495779 1.84957484 -1.56889410 -1.40699564 1.17220859
Ga 7.78515992 3.01506444 1.85065049 -0.19346589 2.11678474 -1.41239606
Ga 20.18139544 3.01703530 1.74694458 -0.42260544 1.20591661 0.10027439
Ga 6.23953333 -0.05211019 7.48160621 1.51080219 0.33619982 1.03276102
Ga 18.67814575 -0.02886573 7.66474522 -1.93726099 -0.10195228 -0.15106179
Ga 6.37163191 3.03863102 7.44677197 0.23735307 -0.97772525 0.07857953
Ga 18.93383466 3.03253851 7.47529363 0.01073865 -0.98226611 -0.62126178
Ga 3.22035886 -0.05874902 3.90626817 0.15999101 2.45667543 0.36238212
Ga 15.82080542 6.30455826 3.95883416 0.26549467 -2.04643171 -1.79052299
Ga 3.35459021 3.05404751 3.92605825 0.00665011 2.97384324 -1.17833763
Ga 15.80582161 3.15665454 3.83220413 -0.56933734 -1.03609856 -0.17496742
Ga 1.86175151 -0.06252554 9.64587149 1.59113340 0.26793763 1.73715150
Ga 14.35670965 6.19779891 9.60656070 0.14533167 0.30092829 1.00722569
Ga 1.98001469 3.05950342 9.65643682 1.45040827 1.30480863 -1.68288175
Ga 14.34484505 2.97886928 9.61309462 0.20558754 0.36476042 0.41040349
O 1.75982736 6.20149324 0.65671891 -0.45446474 1.59863821 -0.45066089
O 14.32324198 6.14445707 0.57902770 -0.74576667 0.26347088 0.08704017
O 1.91573197 3.19554302 0.63141486 -0.17593725 -2.00755773 0.26807105
O 14.30097253 3.14908105 0.60379977 0.87478782 1.89180935 -1.27996470
O 0.52379983 -0.01255679 6.24273011 0.77644808 -0.42030297 0.76078674
O 12.85860220 6.18066185 6.29314547 0.46806697 -0.78225665 -1.90493181
O 0.50172736 2.98465203 6.39696368 0.76466158 -1.02150317 0.90258984
O 12.97643236 3.02222552 6.38273817 2.14041324 -0.11319900 -2.20806286
O 9.13477284 0.03891465 5.12972241 -0.39072498 0.83758462 0.95667785
O 21.68122926 -0.05917785 5.04358758 1.16205461 -1.17075604 0.36560714
O 21.58666299 3.09201295 5.12348093 1.16307880 0.72487788 0.13010586
O 7.82811157 6.06639091 10.92364667 -0.89674191 -1.87225655 -0.08129383
O 20.20736369 6.12533508 10.76436980 -1.00140669 -2.73007727 0.33719559
O 7.90926901 2.99715019 10.62012674 0.16637560 0.89599364 1.46174653
O 20.23872092 3.03256259 10.73330366 -0.21018349 0.46317299 -0.64018718
O 8.01286072 1.54669218 0.59787146 -0.02436759 0.02340757 -0.30154224
O 20.48326354 1.60494152 0.56035171 -0.79426790 1.23562758 0.20945881
O 8.21745764 4.55322987 0.53631452 -0.71535034 -0.82932730 -0.81801324
O 20.46414673 4.57669018 0.64564000 -0.93838389 -1.46787271 -0.57503751
O 6.62354114 1.51596036 6.26253088 -0.27549057 -1.54073524 0.05912564
O 19.09091128 1.47350759 6.30502445 -0.57590857 1.76415639 -0.61235645
O 6.63577616 4.56289555 6.23794544 2.89218674 3.27994505 -0.06566136
O 19.03714256 4.64914224 6.28067607 -2.69608533 0.47211779 1.41873689
O 2.90430833 1.51017125 4.99146054 0.73087638 0.67644111 -0.39584408
O 15.44493296 1.67774485 5.05329716 -0.98963889 -1.20090018 0.15219463
O 2.92101234 4.61361590 5.01968679 0.79764018 1.53499671 0.73150594
O 15.41180841 4.63969709 5.16104638 -1.98737169 -0.86997131 0.31375824
O 1.51169263 1.41535292 10.73269666 -0.83170029 -1.19472788 -0.82759212
O 13.85792470 1.46238776 10.74995988 0.09515585 -0.80781971 -1.63755425
O 1.52549333 4.59287649 10.74991912 1.96436195 0.56263377 1.54384204
O 13.97631850 4.62373199 10.76448738 -1.04018230 -0.31266445 1.91896495
O 1.31820016 6.16895162 3.20444620 1.62654500 0.90840328 -1.45348162
O 13.81187315 0.03696858 3.24299408 1.03651539 -0.09188394 -0.86761186
O 1.40928735 3.08041239 3.20817777 -1.41260213 0.14697261 -0.92130619
O 13.75966874 3.20539021 3.32519003 -0.20240339 0.46176763 0.35002527
O -0.09126335 0.01203712 8.93425813 0.07218031 -0.82316401 -1.12431042
O 12.43495864 0.03154529 9.00023388 -0.21341492 1.70020443 -0.56769297
O -0.07157558 3.10551775 8.89983901 -0.50378131 -0.68763435 1.22370104
O 12.48985829 3.06085365 8.84249934 -0.00381808 1.15688334 -0.60109507
O 9.64586276 6.02113281 2.49386354 1.30776071 0.49051306 0.64183347
O 22.11695594 6.11178601 2.51219950 1.62938603 -0.58917132 1.90256247
O 9.61819097 3.02007831 2.58175915 1.41536277 -0.17782955 -0.59238544
O 22.15937567 3.09772375 2.52600838 2.39087891 -1.11659570 -1.07201557
O 8.24420810 -0.05181396 8.21139965 -2.72612198 -0.07679225 -1.59257268
O 20.64842638 6.05949804 8.25603637 -2.33517826 1.05703289 -0.92758450
O 8.33377990 3.10845205 8.17385858 -0.82650962 0.79863111 -2.87626684
O 20.79448351 3.11942209 8.29936176 -1.06373637 -2.32844948 -0.81626486
O 7.63152870 1.54908769 3.10170495 0.87909381 1.48438543 -1.24652588
O 19.98904623 1.57927491 3.13666901 -0.38030174 0.03557410 1.88085172
O 7.60397736 4.61155733 3.20171598 -0.16337498 0.82538299 -2.25568784
O 20.06581241 4.55630187 3.03881744 0.48912636 1.13894509 -2.42696973
O 6.26828812 1.57284281 9.01423414 -1.71650716 -2.33513609 -0.34956731
O 18.68269862 1.46051644 8.87630764 0.52403014 -1.10685518 -0.19720941
O 6.23246256 4.62578510 9.04178130 0.86278239 -0.81564766 0.73122731
O 18.62210437 4.76277280 8.74910197 -0.73491242 1.01913821 -2.07215423
O 3.45106061 1.54173601 2.39995767 -0.35376862 0.73953285 -0.94733435
O 15.85020097 1.60341490 2.50586983 -0.99853294 -2.32512999 -0.35088144
O 3.50356662 4.62872988 2.54378748 0.29599147 -0.53267305 -1.19194774
O 15.91905458 4.58145107 2.46516558 0.28673180 1.29090919 0.08915640
O 1.99744052 1.55687031 8.23447127 -1.44358565 -0.09441850 -0.26390191
O 14.64718952 1.47193654 8.15637503 -0.86309347 -0.34150217 -0.19801860
O 2.04604202 4.69746166 8.26732988 0.41864205 -0.51732692 -0.38537234
O 14.43504164 4.55259550 8.21955600 -1.65859295 -1.09446309 0.87519873
O 12.06165827 1.55467654 1.52087865 -2.31586763 1.28708709 1.17957916
O 24.47147232 1.58407172 1.46800569 0.71933860 -0.38802208 0.37383180
O 12.09728296 4.54786284 1.52966223 2.04298152 0.37487122 0.92343385
O 24.43619935 4.60794564 1.49933354 2.11053365 -0.73593963 0.59568169
O 10.62760321 1.39687826 7.22825406 2.79028800 0.07929386 -0.02382028
O 23.18270408 1.43625251 7.05841636 2.03723540 -0.29461009 1.45531282
O 10.56876982 4.58420560 7.23082756 -1.73665210 -0.22719024 0.70635975
O 23.01182063 4.57953306 7.03327623 -1.63543705 -1.79800684 -0.09591265
O -1.01243145 1.56587280 4.12323617 1.44551261 -1.00550933 1.72544774
O 11.52707159 1.49362416 4.23327579 1.11250134 -0.54126233 1.37674652
O -1.08772495 4.63199165 4.25381726 -1.10032642 0.67285328 -0.69654226
O 11.33689580 4.61829617 4.36735599 -0.23534322 -0.46527327 0.44962243
O -2.36144880 1.56137632 9.88677101 -1.71939347 -0.49918832 1.54547081
O 10.03145936 1.60010781 9.95849012 -1.77958427 -0.90772202 -0.78734106
O -2.37796452 4.72145583 10.02761304 1.51544600 -0.08888712 -0.59419066
O 9.99160524 4.64106524 9.89304494 0.44419730 0.15657020 0.64396195
O 5.83656895 6.22329405 1.42337358 -0.33597862 0.23170997 -0.37796124
O 18.33162055 -0.00588555 1.34274660 1.19424410 1.81916045 1.68998489
O 5.79299991 2.99773905 1.49708389 2.07439995 -0.92848808 -0.83687848
O 18.24415666 3.16385337 1.50720974 0.16368439 -0.94567580 2.41096638
O 4.37134758 6.15573785 7.18500071 -1.60104950 -0.78572278 0.66401958
O 16.91621100 -0.10851829 7.03355268 2.07495319 -0.80367260 0.48413911
O 4.43331085 3.01965445 7.17947041 0.06037140 -1.47270458 0.04397127
O 16.84652358 3.03068617 7.14035988 0.54346770 0.03247588 1.60604036
O 5.29678067 6.13461376 4.26530103 -0.34748145 -1.38783186 -1.32799213
O 17.60758422 -0.04947719 4.34691770 1.57512347 -0.19501143 -3.07426456
O 5.25365116 3.08764355 4.23062643 -2.70026823 1.18377865 0.86371591
O 17.74431788 3.05413286 4.21896951 -1.27756313 -0.55321153 1.81832182
O 3.87272219 6.24981562 9.98207188 2.03058138 0.14328072 -0.72195942
O 16.21736378 -0.07728993 9.89313644 -0.36817101 -0.74169517 2.50140930
O 3.84302639 3.03674804 9.92358964 0.09227965 0.00442028 0.50989742
O 16.31573336 2.99147818 10.00346745 3.05488571 -0.79230735 0.65489239
159
Lattice="25.141783 0.000000 0.000000 0.000000 6.224763 0.000000 -2.804611 0.000000 11.524809" Properties=species:S:1:pos:R:3:force:R:3 Energy=-624.231829 Virial="-52.292685 3.058391 -2.746601 3.058391 -47.841791 -7.804496 -2.746601 -7.804496 -41.535985" pbc="T T T"
Ga 0.10109165 0.02708442 4.57485736 -1.07389695 0.34001992 -0.25166819
Ga 12.57910399 6.16292856 4.53263327 1.46848199 1.06999060 -0.09859011
Ga -0.05941423 3.05040565 4.56747758 0.67732872 -0.38264896 -1.84479531
Ga 12.51958864 3.07842208 4.65380585 -0.63151188 -0.59442377 0.60502760
Ga -1.39015271 6.27151277 10.31781858 -0.14492943 -1.49891743 -0.49017325
Ga 11.22128441 6.26112029 10.53606204 -0.31947074 0.12678516 0.04991233
Ga -1.26496482 3.05067543 10.36002466 0.95224551 -0.16063203 -1.17681002
Ga 11.26224165 3.03320242 10.38280471 1.26474199 -0.62321111 0.39023149
Ga 11.21113879 0.03268801 1.08275368 -0.86356235 -1.10488890 -2.26823833
Ga 23.61761621 0.04975474 1.14119487 0.40195431 -0.45135521 -1.33403049
Ga 11.17110908 3.13922075 1.17606352 0.21976884 1.56002629 2.47653687
Ga 23.77775067 3.07317279 1.12352275 0.19379248 -3.15066465 1.75953302
Ga 9.57204244 6.24540614 7.00022758 -0.50703158 -1.39375152 -0.91756284
Ga 22.29585385 0.01008696 7.00315057 0.03456207 -0.05133583 0.67743637
Ga 9.75473930 3.12420087 7.02970307 -3.13486281 -1.16579971 0.05225576
Ga 22.39710472 3.09351145 6.85661892 -1.01351416 1.13214175 0.22702674
Ga 6.27697237 1.66960343 4.64262886 -1.75355590 -1.28793825 -1.37670257
Ga 18.81381255 1.55653381 4.50685033 1.51132740 1.23436960 1.66962234
Ga 6.28948779 4.68895858 4.55896553 -0.70684587 -0.55960776 -0.71558313
Ga 18.85645085 4.69216477 4.54588044 -1.31893664 0.58512331 -0.13368871
Ga 5.00278809 1.49648530 10.27257777 -0.48470352 0.34635801 -2.03090149
Ga 17.46055702 1.58768342 10.54218508 -0.89765061 1.23650638 -0.58517568
Ga 4.88116034 4.71207055 10.30519309 -0.95763145 -0.03085759 -1.62232340
Ga 17.38424410 4.64499212 10.37188603 0.19000243 2.78351710 2.64293906
Ga 5.00198335 1.52568295 1.20763891 0.79848570 -0.98430189 -0.87583894
Ga 17.53792531 1.42701739 1.12174006 -0.62190633 -3.73983144 -1.72115648
Ga 4.83028166 4.67867298 1.15074955 -0.44232382 -0.03531321 -1.07360424
Ga 17.43866179 4.63700573 1.33922913 0.39292909 1.46798244 1.26427565
Ga 3.44951129 1.56171388 6.88978599 -2.03978100 -0.55913321 1.15615244
Ga 16.07219928 1.57826029 6.86682883 0.43071941 -1.90041017 -0.63870512
Ga 3.52025817 4.79891784 6.93372803 0.28361235 0.33604921 -0.45340336
Ga 16.01618712 4.74963493 7.05850471 -0.50008388 -1.10125554 0.82742798
Ga 1.55480089 1.59111105 1.84353593 0.30714358 0.84487586 -0.13315598
Ga 14.14913406 1.63032645 1.82710698 1.36485123 -2.75216974 -0.93720200
Ga 1.49661246 4.69442891 1.71628796 0.19493337 1.40612425 -1.04844071
Ga 14.08927059 4.62724171 1.84339383 -0.16448774 0.14604346 0.85922039
Ga 0.20159114 1.52607115 7.62708828 0.23546227 -0.54310187 1.59903372
Ga 12.80995066 1.61597701 7.65789001 1.41199790 0.57005949 -0.67019883
Ga 0.12255439 4.72190389 7.72330016 -1.12899224 1.63893460 2.09680814
Ga 12.84387280 4.72230423 7.63947881 -2.53782509 2.48278656 -0.12549546
Ga 9.75090193 1.53858068 3.93128235 2.00103419 -0.11995346 2.04860899
Ga 22.24661290 1.58086091 4.12422247 -0.97592373 2.01911794 -1.14639888
Ga 9.58122247 4.66626160 3.91985085 -0.05073086 0.99534284 0.66211369
Ga 22.12952562 4.56836025 3.88061847 1.09788382 0.40935034 -0.41957345
Ga 8.20089623 1.50965033 9.70719973 -0.30917833 1.54519097 -0.10452401
Ga 20.89836368 1.59681324 9.58601375 1.11917262 0.75346206 1.34798296
Ga 8.07133963 4.71860242 9.69630960 0.42618706 0.23464619 0.09333144
Ga 20.69631256 4.61086655 9.73764716 -0.35772731 -0.60610888 1.11731138
Ga 7.83967073 -0.09483856 1.80035045 -0.18283171 -1.44758301 0.04365849
Ga 20.45400634 0.03176633 1.80086217 -0.17795472 1.23765121 2.86035647
Ga 7.75805538 3.16451104 1.87773661 -0.87574153 -0.25337850 1.24266311
Ga 20.48086490 3.16530821 1.90654230 -1.02892272 -0.07642749 -0.63652427
Ga 6.39163536 -0.05206390 7.62838952 0.37904899 0.47727796 -0.37206373
Ga 19.00074316 -0.06939799 7.45309463 1.28148800 1.03145955 2.36005525
Ga 6.40135524 3.06520706 7.53196901 -0.65580744 1.29253256 0.18733674
Ga 18.95809230 3.03124418 7.52068942 0.50049080 0.30916148 -1.78133671
Ga 3.27719703 -0.04441278 4.06507064 0.50390692 -1.40784552 0.03150121
Ga 15.99930399 6.18771022 3.96905584 -0.82234366 -0.96892148 0.67018819
Ga 3.34188133 3.10197169 3.92153289 -0.46742869 1.27849156 -0.77867471
Ga 15.87735412 2.93276979 4.05646233 1.51504741 0.26822073 -1.26239613
Ga 1.99216097 0.04534891 9.78391255 2.66030593 1.13493021 -0.48274855
Ga 14.55649237 6.18381639 9.81879911 1.87453803 -2.53262905 0.39467155
Ga 1.98011134 3.06500435 9.62982292 -1.52975178 -0.80158284 -0.46384720
Ga 14.45596880 3.04115882 9.75327015 0.12670433 0.01374119 0.00162586
O 2.02502375 6.19126155 0.47374038 0.02085776 3.21960062 1.66666558
O 14.52629383 6.18223095 0.47166374 0.95762327 -1.82360521 0.23183871
O 2.02035612 3.10865758 0.64526544 -1.74408122 -0.48567718 0.77044638
O 14.36801731 3.16331225 0.62334983 -0.00231261 0.76348147 1.07207991
O 0.63506244 -0.10447615 6.33750735 -1.74604259 -0.27035171 1.00876568
O 13.02929679 6.17559014 6.30159200 1.39151102 -0.60188825 0.24724974
O 0.45793248 3.13242188 6.43033352 1.62066963 0.59013921 0.01585330
O 12.96247300 3.11941715 6.40486762 -1.74823040 -1.53300959 -0.09307613
O 9.24783021 -0.08383672 5.21945785 -1.16878202 -0.71567338 0.49590780
O 21.84561383 -0.01092882 5.11035304 -0.22678038 -0.69664700 -0.36840009
O 9.29427176 3.10524092 5.06255022 -0.17938681 -0.23677071 0.40313707
O 21.70092429 3.02947605 5.03082032 0.61785080 -0.31632511 0.02449531
O 7.88048748 6.27383408 10.93896602 -1.29497829 -0.85173398 -1.05656155
O 20.43105963 6.13799148 10.92091063 -2.17798651 0.18819490 -0.32859883
O 7.83065453 3.19193136 10.81853786 0.55325607 0.66571499 0.37556847
O 20.41749259 3.15456814 10.93237917 0.60019529 0.12275149 1.45020798
O 8.18551705 1.52150291 0.56102055 0.35630103 0.17541831 -0.73876834
O 20.74358713 1.59010302 0.67634244 1.60918226 1.30271541 2.64165431
O 8.22532120 4.64497491 0.58161927 -0.73151107 0.97219362 -0.16796130
O 20.77492688 4.63661088 0.57327936 -0.10966178 0.13902147 -1.10676266
O 6.78373848 1.54354042 6.45817608 1.05075939 -1.04834974 0.02395114
O 19.35254791 1.51381615 6.30905956 1.07322713 -0.22481732 -0.13550011
O 6.91290555 4.73370601 6.51227210 1.43698861 0.06011388 -0.54536140
O 19.39345012 4.66329087 6.52261214 0.05564035 0.59238058 2.00364704
O 3.05829649 1.40679476 5.20895981 0.17120488 0.45942100 0.36228484
O 15.58686844 1.60614975 5.18394868 -0.02742216 2.64089976 0.18121642
O 2.94523958 4.60286785 4.95569457 0.08486876 1.71595087 1.74634227
O 15.60666819 4.70958762 5.15223314 0.12426701 1.29182993 -0.83782777
O 1.60134143 1.60422693 10.85981052 0.35110583 -0.87404324 1.40554122
O 13.96189736 1.73667922 10.92671168 0.46140933 0.76752755 -1.09016617
O 1.61478553 4.66271717 10.72990981 0.83934616 -2.50208317 1.94932729
O 14.24376019 4.72272570 10.91800943 0.94056120 -0.40346397 -0.38505542
O 1.37741540 6.21866822 3.30030053 -0.92745283 -1.03805103 -1.33710105
O 14.02817669 0.10648696 3.38723585 1.38580284 1.23045645 1.22490126
O 1.47544725 3.11376962 3.26863482 0.63318108 -0.75400399 -1.38019421
O 14.02739061 3.05224970 3.16259381 -0.62139311 0.94984352 0.34273474
O 0.02617433 0.05232650 9.11062417 -1.60600398 -0.77513419 -0.40597277
O 12.62168833 -0.03247436 8.97622920 -0.82728048 0.13180737 1.13134302
O 0.06833408 3.00686175 8.89966700 -0.28644264 1.15391646 -0.27706353
O 12.47369776 3.14396802 8.97665387 -1.15792002 -0.94692828 -0.53103742
O 9.94002134 6.17349514 2.43437499 0.33313573 -0.17758432 -2.39010690
O 22.29518365 6.27972477 2.58082828 0.09541462 1.78278485 -1.27807934
O 9.90030259 2.97689866 2.53211104 -0.42036427 -1.02682143 -2.01862949
O 22.35360361 3.03047330 2.51184891 -0.34751098 0.63093044 -0.46861444
O 8.40199308 -0.03944071 8.23397560 -1.62625382 -0.51431779 -1.19897466
O 21.07510719 6.28057631 8.24091795 -1.24543092 -0.45863502 0.18062036
O 8.34616643 3.02912049 8.27045413 -0.56838844 -1.90124021 -0.90248577
O 20.98445768 3.05432666 8.21978716 1.00607197 1.14302044 0.39844849
O 20.19293683 1.57504979 3.27949110 -0.13262591 0.68301101 -0.15415496
O 7.65473837 4.50411829 3.22458801 -0.84312997 1.16912577 2.14829195
O 20.19239031 4.73445230 3.22313908 -1.62387213 -0.38793800 0.09972380
O 6.14757296 1.63689448 8.87661153 -0.26126153 -1.04808005 -0.03411928
O 18.83363917 1.52827080 8.83143433 -0.48981659 0.84273034 0.85509739
O 6.26494015 4.76632769 9.06127327 -0.55704703 -0.28544189 -0.25768002
O 18.86107197 4.77192792 9.07855775 -1.35137989 0.10702105 1.92599522
O 3.51669965 1.72105322 2.47194629 1.67094904 0.87569952 -0.35871454
O 16.14306603 1.53110110 2.56505630 1.48135161 0.02665777 -1.62763471
O 3.34895810 4.66962984 2.42147883 1.13363728 0.51817187 0.14316882
O 15.91882866 4.71042979 2.42606222 -0.10349507 -0.77842512 1.15185609
O 1.87470088 1.41695227 8.35156091 0.94763755 0.76694467 -1.15328591
O 14.69059870 1.43924921 8.38324274 -1.04352034 -0.68874191 -1.33741588
O 2.01060503 4.64881748 8.22270416 0.56128677 -0.23344046 0.56516580
O 14.66149391 4.69463951 8.17490040 0.98718298 -0.22084260 0.89046070
O 12.13656498 1.53813730 1.55950209 -1.81531824 0.39073325 -0.31874182
O 24.72825616 1.59448122 1.54225118 0.65276300 0.85621125 1.02752536
O 12.12833593 4.66952929 1.52702519 0.18577793 0.67391856 -0.12522883
O 24.74367927 4.83766299 1.33359361 1.53965553 -0.93122278 0.55010585
O 10.78848722 1.55187711 7.24336026 1.71726767 -0.60998701 -0.95244132
O 23.41002967 1.61987136 7.11998457 -3.12810391 -0.96121653 0.88093129
O 10.84790924 4.62958160 7.30494886 1.26759180 -1.39870404 0.16093063
O 23.43264774 4.58414842 7.22879675 1.00062216 1.96704131 1.15130762
O -0.94747001 1.61827489 4.34301950 -1.29194116 -1.71969332 -1.16176689
O 11.59346505 1.59000403 4.33340274 2.32763913 -0.06779890 -0.24875314
O -1.02248843 4.62317672 4.28623422 1.78948884 -1.27672386 1.86623088
O 11.55569567 4.57562775 4.36625781 -0.91460266 0.28088186 1.73120275
O -2.44190612 1.51629751 10.11271579 -1.85291012 0.46782042 -0.13917302
O 10.26960105 1.57676937 10.16508355 -1.77819062 -2.84824377 0.25172134
O -2.38499406 4.65899595 10.12885361 -0.02870301 -0.45064873 0.34535540
O 10.13142899 4.65252151 9.89227333 0.83360197 -0.24099737 -0.83964313
O 5.85187693 6.17114548 1.47785941 1.09994959 0.68133518 -0.42989789
O 18.31356786 -0.01681842 1.60516768 -0.47059836 0.57722570 -1.27254368
O 5.89085483 3.19808110 1.44149735 3.67868349 -0.85595589 -0.83982671
O 18.40036321 3.00650415 1.51942293 -0.44034473 0.81179595 -1.51263176
O 4.42204345 6.19314849 7.29820459 -0.45429135 2.88144406 -2.32239654
O 17.03735750 -0.04126130 7.21799635 1.19749184 -1.70442867 0.52175551
O 4.53795143 3.16470538 7.14951809 0.06808992 1.47220471 -0.05153502
O 16.85544360 3.12144065 7.29289713 -3.44216203 1.98742683 0.37018950
O 5.26486614 6.19947455 4.26690914 1.37945267 1.01102147 0.50823596
O 17.81766159 -0.00429693 4.27500771 -0.36714390 -1.57630831 -2.72334749
O 5.38789947 3.13894411 4.23336546 0.37485703 0.98197169 -1.36756972
O 17.68180582 3.11196548 4.29291670 -0.73835830 -0.70095961 0.00063421
O 3.81289807 6.32317485 10.14414906 1.55292434 -0.08453429 -0.17446336
O 16.45513899 0.06236611 10.16975207 0.93455454 -1.30388147 0.49368920
O 3.82048150 3.04117466 9.89693125 -1.86320868 -0.75908504 -2.34995342
O 16.46560458 3.02493617 9.97842919 2.48845192 -1.43234410 0.35810187
159
Lattice="24.853308 0.000000 0.000000 0.000000 6.153340 0.000000 -2.772431 0.000000 11.392574" Properties=species:S:1:pos:R:3:force:R:3 Energy=-625.762660 Virial="-57.830434 -1.695241 0.991944 -1.695241 -41.534127 -4.184720 0.991944 -4.184720 -44.802804" pbc="T T T"
Ga 0.03203580 0.05571682 4.51766399 -0.91578391 0.42829634 1.46108648
Ga 12.44591314 6.19159274 4.51398924 2.23776564 -0.82915299 -2.40104223
Ga 0.00253014 3.09246107 4.55582541 0.13105816 1.44583609 -1.35911144
Ga 12.38233094 3.06510994 4.55661713 2.96555729 -1.62357297 -0.99838671
Ga -1.32217014 6.13709285 10.22582993 0.27021560 -1.66625959 -0.99155659
Ga 11.10374979 6.18015416 10.29720188 0.91381549 -2.40718355 -0.69063498
Ga -1.36645132 3.06116360 10.23555133 -0.15327844 -0.69050261 -1.00926096
Ga 11.02930421 3.08356994 10.20134578 1.08340529 2.45611842 1.25698291
Ga 11.06706945 0.07506287 1.10251366 -1.64641834 2.96668501 -0.23172940
Ga 23.48141429 0.00185636 1.20387446 -0.12840319 0.59765722 0.36605781
Ga 10.96826612 3.07873262 1.20306689 -0.69394846 -0.78774075 0.06867184
Ga 23.53557070 3.01800658 1.09486835 0.84161890 0.35331557 0.78710248
Ga 9.57308338 6.15784458 6.90041673 -0.80170089 0.35812767 -1.55251940
Ga 22.08498026 -0.12117924 6.82279562 -1.37029084 -1.20062346 -0.29833717
Ga 9.56417898 3.07166870 6.76523476 -0.16590052 -0.64632084 -2.44603556
Ga 21.99810332 3.07831238 6.90300530 -2.14133957 0.09177717 1.01694850
Ga 6.24191856 1.51194665 4.53955934 -0.74960761 1.47190460 2.41196526
Ga 18.65605765 1.54968437 4.44061195 1.19319276 0.23592454 0.80907108
Ga 6.22534559 4.62001828 4.46202158 -0.13769250 -0.04514460 -0.91687454
Ga 18.64895366 4.60049209 4.44769397 -0.00881611 -0.65508234 -1.28437958
Ga 4.82656318 1.50505148 10.24652481 1.15110742 0.04945056 -1.35443065
Ga 17.16912133 1.55088046 10.16067629 -0.72809305 0.02149669 -2.22507673
Ga 4.89772583 4.61250947 10.22084982 -0.84186012 1.65364907 1.21723169
Ga 17.25155032 4.59669451 10.15876575 -1.51232608 -0.59230014 -1.68820681
Ga 4.85045525 1.53531025 1.14077649 -0.72576482 0.20072101 1.03374595
Ga 17.21868957 1.62037072 1.21328266 -0.74684540 0.13409290 -0.78468597
Ga 4.70894190 4.61154586 1.09540572 0.08565871 -1.46463114 -0.44414666
Ga 17.18192404 4.71964018 1.15740717 -0.38528150 -1.32997386 -0.19611838
Ga 3.50872490 1.50086764 6.79585922 -1.73314099 -0.89014167 -0.69665989
Ga 15.82054569 1.48680606 6.93386117 -2.84726217 0.69660661 1.11119637
Ga 3.46070043 4.66455058 6.94108595 -0.18290849 -1.73547336 -0.80232413
Ga 15.85049015 4.65311203 6.82541936 0.66767941 0.04263320 -0.83750692
Ga 1.64167457 1.60429738 1.80358122 -1.69114643 -2.16348672 0.60991218
Ga 13.91111209 1.48975943 1.82252764 1.41914775 -0.31527667 -0.96764930
Ga 1.55573865 4.71025590 1.77645699 -0.96358394 0.60644614 -0.11204222
Ga 13.92281657 4.58856227 1.73816293 -0.25595647 0.03428594 3.53552321
Ga 0.13129819 1.59294661 7.51202835 -2.07000697 0.27856077 1.07053524
Ga 12.54360021 1.57405495 7.49078799 0.98441806 -1.97251177 1.30014637
Ga 0.15195567 4.64008966 7.54966897 1.62051744 1.21051435 1.83830179
Ga 12.51892469 4.61181716 7.38522439 2.57504000 -1.28367209 1.29492887
Ga 9.53972736 1.56171451 3.94189740 0.04110725 -2.28267987 -0.82535101
Ga 21.93277733 1.50774136 3.91078238 -0.52311357 -0.54276744 -0.52238729
Ga 9.46013923 4.70015615 3.98497306 -1.99192729 0.11261886 -0.92938801
Ga 21.98365248 4.55749388 3.89369253 -0.67907916 -2.93083438 -0.00421346
Ga 8.05418171 1.53865597 9.68552459 -0.21677559 -0.09632572 0.87751942
Ga 20.52053001 1.59154875 9.65183395 0.77375092 0.53893149 0.59887519
Ga 8.01428684 4.66189249 9.47577491 -0.70284234 -0.94084002 -0.25515518
Ga 20.59255857 4.58607548 9.59291604 -0.06745542 -0.02941387 -1.42742911
Ga 7.69630037 0.01285001 1.81039791 1.57005723 1.13457416 1.17191372
Ga 20.27632445 0.07173428 1.71197767 -0.71293087 -1.14552048 0.30548858
Ga 7.70696586 3.03670490 1.72817754 -0.38512956 -0.06055333 -0.76056941
Ga 20.11853175 3.03828147 1.78067881 -0.64388806 -0.01251952 -0.68898512
Ga 6.36274755 -0.03005678 7.50420008 -1.92184759 -1.96846983 1.60829326
Ga 18.81712365 -0.02974764 7.49125619 -0.63144149 0.68659800 1.61662239
Ga 6.32179832 3.04175765 7.55324871 0.18651409 1.33505711 -1.02829307
Ga 18.79799604 3.08894408 7.43170340 1.01258604 -0.91037627 -0.02083312
Ga 3.32673667 0.04014646 3.89914668 -2.12385701 2.66793122 1.31582008
Ga 15.75211733 6.16961421 3.91644086 1.86461241 -0.41656167 1.60094510
Ga 3.33198770 3.04155802 3.91103867 1.00090673 0.02218462 1.77750242
Ga 15.74023861 3.06165671 3.93050697 -0.19293624 0.93165614 1.22685757
Ga 1.91709693 -0.02247201 9.70252091 0.04990756 -0.42763163 1.01345626
Ga 14.27883581 6.14895581 9.71835820 1.33508122 0.06837477 -1.58171539
Ga 2.07829586 3.13126105 9.62165963 0.08928205 -0.16511204 -0.48952177
Ga 14.29432873 3.03711084 9.66449251 1.84850127 0.64046319 0.40039605
O 1.91445220 6.26811355 0.67182955 0.23039098 0.81997843 -0.86476114
O 14.33064772 6.13109516 0.60127103 -0.72084072 2.30999126 1.74238361
O 1.88083324 3.09965536 0.62606910 -0.30631584 -0.56451723 0.12454808
O 14.30106964 3.09581004 0.64748124 -1.06265325 0.46999711 -0.62461147
O 0.40476428 -0.00874319 6.32167181 -2.06473801 0.94186746 -1.36872516
O 12.92523349 6.13176840 6.27132842 -1.27985273 -0.55441430 -2.62528415
O 0.49887649 3.05001271 6.35731028 2.93831543 -0.12564151 2.50881040
O 12.89088899 3.03808299 6.36695682 -1.00431127 -1.53445492 -0.14615245
O 9.13464497 -0.02856339 5.03782101 1.24679592 1.09436286 -0.31888392
O 21.56975821 0.05961909 5.02549713 0.12601974 1.79379779 2.08544116
O 9.13199865 2.99746723 5.03020925 -0.29677008 -0.68412668 -0.28357116
O 21.56616623 3.03076949 4.99663186 0.56788945 -2.16333288 2.00208712
O 7.78548961 6.19135658 10.75981306 0.22231668 -0.67841600 0.38179819
O 20.25821033 6.10500513 10.82401196 -0.24592641 -0.15697645 -3.68259631
O 7.82453008 3.17111019 10.72378839 0.54240841 -0.55247623 -3.59980158
O 20.17425417 3.05829891 10.75294926 0.06461133 2.63186763 1.78220615
O 8.02740597 1.49612907 0.67040843 0.84173168 -0.49379325 1.99815116
O 20.47750509 1.48947199 0.64115292 1.36679404 0.16894438 -0.42534775
O 8.10737152 4.68648566 0.57559180 0.25992487 -0.60680946 0.83631938
O 20.48935850 4.66649311 0.59382112 0.23823040 -1.14478944 0.03792239
O 6.72617408 1.55653319 6.29751823 -0.08428996 -0.54963543 -1.03069726
O 19.22804298 1.57092606 6.36688533 -0.99116069 -0.35612974 0.83182245
O 6.74578109 4.64700989 6.30807346 -0.04911911 1.80406438 0.41461019
O 19.16781489 4.58047288 6.27552534 1.45893816 0.32324122 2.01658289
O 3.01318657 1.51072679 5.06816537 0.86459427 -2.02544539 0.49670068
O 15.42134310 1.57347478 5.09530334 0.56887147 1.00338297 -0.08596218
O 2.96272314 4.61963665 5.14800811 -1.27447276 0.21556836 1.27202452
O 15.37508900 4.61141426 5.07174147 0.84995737 1.78346339 -0.04709120
O 1.52675585 1.45495167 10.74714413 -1.20488044 1.46092831 -1.06720936
O 14.02325446 1.52833801 10.76816865 -0.24626904 -0.81825457 0.81650365
O 1.47954161 4.59549275 10.75885322 0.54231822 0.56182931 1.21397232
O 13.98607166 4.59194058 10.83309976 -1.01481294 -0.39238524 -1.01449228
O 1.34561604 6.04411779 3.23505500 0.54383841 -0.90401238 -0.83455443
O 13.79161773 0.03522350 3.21672368 -1.02330663 1.88506764 -2.25891770
O 1.31391473 3.11607369 3.20468950 -1.21360777 1.13052058 0.13595722
O 13.80975725 3.01067469 3.21408898 -1.80643092 0.83095894 1.60496988
O 0.01465587 -0.02017268 8.90401486 -1.26222705 0.97338975 0.96556342
O 12.35398496 0.01919451 8.88965709 -0.14355488 -0.77198969 1.69364751
O -0.06815946 3.19104382 8.88320817 3.50622572 1.81977037 -1.22200047
O 12.46603917 3.05461953 8.87254735 0.76480600 0.31726488 1.00983280
O 9.71782283 6.11943077 2.51058987 -0.45722731 0.63154443 -0.11400223
O 22.06403050 6.20855662 2.45174771 0.11770728 0.38023197 -1.54243003
O 9.73554976 3.04452275 2.47669541 -2.01184844 0.50905998 1.84410144
O 22.00532698 3.09672756 2.44972778 2.08882791 -1.98976524 2.88286245
O 8.34468155 -0.03910413 8.21798885 1.15326072 -0.06960106 -0.70314579
O 20.67842041 6.13967042 8.17820575 -1.64294638 -0.32830522 1.05129523
O 8.38039368 3.14032024 8.16049821 -0.70301759 -0.23287784 1.18771667
O 20.76763721 3.15408576 8.15570039 -2.05235253 -2.64452115 1.52328077
O 7.63283145 1.52152249 3.20971266 0.42852440 -2.83085806 0.06432335
O 20.02161985 1.55610049 3.21466268 -0.28138879 1.33279840 -1.43963424
O 7.54974555 4.65289594 3.23558205 2.48045519 -1.81863436 0.40026827
O 19.94742271 4.61531352 3.24228603 0.92175942 0.00043327 -1.03606025
O 6.23247391 1.56212323 8.97874021 -0.15576724 -0.59125231 -0.79281743
O 18.61816415 1.52301625 8.90719250 1.26405235 1.01904296 -0.92997265
O 6.11203455 4.63469083 8.91389941 0.38049770 -2.78670665 -1.53276690
O 18.61838680 4.64968607 8.82745395 -1.47940649 -0.57840437 -0.10701717
O 3.41276546 1.59413221 2.43100008 1.50019466 -0.87253634 1.36730221
O 15.90572496 1.50259614 2.56401997 0.63839049 1.89505684 -1.01906074
O 3.53823610 4.61805862 2.40353352 -0.39693687 0.17838939 0.79150675
O 15.93510167 4.49498139 2.48469398 -1.71187817 0.74559400 0.30272023
O 2.09361011 1.54158557 8.21512809 1.09517704 0.27095039 -1.07401005
O 14.51099319 1.56358732 8.20945727 -1.29715459 2.50203300 -0.82946401
O 2.13570583 4.61281275 8.18228475 1.29092974 0.19923928 0.30757718
O 14.48113071 4.69439669 8.19425310 1.92908745 0.27518540 2.86589094
O 11.99730900 1.51598165 1.47129681 1.15685684 1.33391360 0.62247299
O 24.47815973 1.45431041 1.55376338 -0.22581338 -0.61568903 -0.42119066
O 12.08641456 4.66244108 1.45748043 -0.30706205 -0.81375319 -1.97668120
O 24.48726299 4.62791318 1.40298073 1.51514961 1.21014473 1.57927272
O 10.69779648 1.55406718 7.18267692 -0.13253269 1.11209976 -0.71378296
O 23.06518615 1.56123049 7.16597969 0.69137114 0.06944133 0.87001157
O 10.64602765 4.57051555 7.24803111 -1.43179256 0.96037669 -1.86367544
O 23.04910337 4.62077571 7.07229615 -0.91453809 0.20517355 0.72663348
O -0.96661469 1.49007779 4.28440313 -0.75270231 0.86796966 -1.44397109
O 11.46648617 1.48331977 4.26647759 0.81684091 2.72895311 -1.27275935
O -0.99345863 4.62261361 4.22112932 -2.12404513 -1.64405176 0.84289439
O 11.47905228 4.61640744 4.35397006 1.21976967 -0.38666106 1.28645200
O -2.37242081 1.49695463 9.90739485 -0.46986264 -1.58512689 -0.52698179
O 10.00963818 1.54135925 9.97753537 0.48607399 0.44328407 -1.41105102
O -2.38071135 4.59395209 9.91855353 -0.80968427 1.45958432 -0.59457356
O 10.13692635 4.62884468 9.85894438 -0.68362168 0.63273523 -1.62540783
O 18.24255237 0.00833316 1.44395625 0.06641000 0.95782273 -0.21640975
O 5.70714611 3.09303539 1.45547766 0.87686940 -1.88217377 -0.91552615
O 18.24662339 3.13651542 1.44585277 -1.18499231 1.71230259 0.44145519
O 4.40467341 6.09774097 7.23772662 0.36073345 -3.74549403 -1.07187524
O 16.76689372 0.01102391 7.11227175 0.37265149 -0.45587399 0.88517732
O 4.36796318 3.10635575 7.21153719 1.81474384 1.00375862 0.42199384
O 16.79683527 3.06416030 7.09790074 0.92580951 -0.06246454 0.01733062
O 5.20234621 6.12147723 4.34075917 -1.32027181 0.00114631 -0.98244680
O 17.61675609 0.01343569 4.29419464 -2.13979207 -0.16142414 -2.57967424
O 5.26784533 3.11344715 4.26314838 1.23366017 1.90471280 0.29252302
O 17.75161920 3.11702783 4.24624879 1.51284144 0.09842682 -0.72865436
O 3.83746955 6.17701693 9.93746158 1.44809991 0.98958857 -1.89635867
O 16.28450100 0.02789260 9.98039429 -0.76852481 -0.66012105 1.54599819
O 3.88912272 3.09308547 9.88396103 0.46594755 1.78884412 -0.90823035
O 16.34993788 3.10004870 9.90079856 1.23110521 -1.17003032 1.79683597
159
Lattice="24.710634 0.000000 0.000000 0.000000 6.118016 0.000000 -2.756516 0.000000 11.327173" Properties=species:S:1:pos:R:3:force:R:3 Energy=-623.111195 Virial="-52.707892 0.379778 -1.242773 0.379778 -48.606636 -3.355740 -1.242773 -3.355740 -40.332673" pbc="T T T"
Ga 0.00125534 -0.05328515 4.50608777 -0.88142981 0.30990461 0.69237336
Ga 12.40772175 6.13627693 4.49660567 1.08283584 0.69890054 -0.11083650
Ga 0.06028783 3.14907484 4.43125099 0.09945876 1.32139881 -0.37494577
Ga 12.36624502 3.03847388 4.45860845 0.09106825 3.39181512 -1.27737586
Ga -1.32227825 6.06990689 10.10023949 -1.57391466 -1.59097181 1.97854949
Ga 11.02354758 6.26263762 10.32800595 -2.16632819 0.87108504 -2.30878696
Ga -1.35346545 3.05399513 10.11744360 -0.58358185 0.19848331 3.84808424
Ga 11.00356234 3.11261620 10.17055472 -0.76271374 -1.25807488 -1.59670161
Ga 10.94931410 0.04465208 1.11864968 0.65634869 -1.14299258 -1.41660431
Ga 23.27583977 -0.01050388 1.19818191 0.06530955 2.16067658 0.48253242
Ga 10.96558260 3.13395569 1.15678194 -0.26352192 0.56422826 0.11942998
Ga 23.21543816 3.04054639 1.17344079 1.52663218 0.21842909 -0.46266105
Ga 9.63144550 6.21698571 6.82998594 -0.27237022 -0.61320009 -0.65984562
Ga 21.90674001 0.02162008 6.82120689 1.83975668 0.31726042 1.49302653
Ga 9.62413632 3.19303758 6.84577807 2.86528017 -0.92672217 0.71638613
Ga 22.00621759 3.05899786 6.86594265 -0.66325856 -0.80404217 0.05241398
Ga 6.26274745 1.59472202 4.45777337 0.34655245 -0.47963665 1.52170339
Ga 18.50308568 1.49101597 4.52881317 -0.83940224 -0.65720171 1.75380757
Ga 6.13936417 4.54216747 4.42392248 2.19427839 1.15119768 -0.63290969
Ga 18.53319385 4.67078628 4.45719100 0.90911973 2.14281799 -1.56100343
Ga 4.83437901 1.68478449 10.19167332 1.10064618 -0.62551208 2.16776235
Ga 17.14564050 1.56197420 10.13426222 1.51475748 0.48088410 -1.07024692
Ga 4.80293868 4.52791649 10.19207349 -3.37328808 -1.34336582 0.64692939
Ga 17.21561473 4.53590246 10.20255810 1.14128221 2.30291269 -1.13194514
Ga 4.71093409 1.47556479 1.12572460 -0.66345558 -1.28505331 -1.78258791
Ga 17.12741723 1.54585220 1.20275671 1.02771862 -0.20737956 0.82633993
Ga 4.81728356 4.66553815 1.06229928 0.48775486 0.83001332 -2.08183894
Ga 17.12046037 4.57630558 1.06620772 -0.94689537 -1.02811257 -0.24292327
Ga 3.37441533 1.52631289 6.76877681 0.56858029 -0.43308705 0.72593799
Ga 15.84764469 1.53478358 6.90753857 1.27578578 0.30450496 -0.53973119
Ga 3.36244099 4.57906377 6.73211155 -1.37651319 2.02586051 -0.59893838
Ga 15.72232287 4.55531229 6.87239499 -0.24585263 1.11731871 -0.80393872
Ga 1.57472555 1.52584817 1.70547166 -0.78694712 1.22549364 -0.25160344
Ga 13.89105121 1.48363813 1.78936635 -1.78546734 1.98910077 0.57755958
Ga 1.57824954 4.54468655 1.75535384 0.47883349 -1.73909418 2.71653128
Ga 13.91135684 4.54802131 1.74585173 -0.32171254 0.97359554 0.25633608
Ga 0.12320986 1.55097667 7.38949421 0.44233556 1.35611342 -0.67972416
Ga 12.40692580 1.52637265 7.44631045 -0.68015676 0.00651196 -3.50373555
Ga 0.20712509 4.65411261 7.42506707 0.84209776 -1.73100563 -0.76439143
Ga 12.46334382 4.53751760 7.42623437 -0.68333256 0.88724703 0.34979751
Ga 9.47791439 1.59114123 3.82559882 0.27255918 1.82151631 -0.47221080
Ga 21.79754059 1.55365822 3.82750864 -0.47614234 0.98035967 -0.48050960
Ga 9.40724731 4.67776617 3.90292525 -0.47485350 0.88833565 -0.03070688
Ga 21.82733514 4.63037786 3.96397471 -1.04877773 0.03376256 -0.16075190
Ga 8.06086630 1.44620260 9.59467716 -1.47384865 -0.47388254 0.82878848
Ga 20.47835514 1.53006886 9.45951312 -0.59510058 1.93674043 -1.47168198
Ga 8.21009013 4.58853029 9.55371930 1.38215749 -1.22259420 0.39259416
Ga 20.44928503 4.57565487 9.52886201 -0.52856253 1.73659777 3.17254441
Ga 7.65486434 -0.04542436 1.77706358 2.36403003 -1.67037384 1.04631701
Ga 20.04127434 0.05373683 1.77235987 0.77541198 1.15215103 0.19366526
Ga 7.74001589 3.15205773 1.69807368 -0.96388430 -0.38576099 -1.06927372
Ga 20.06584790 3.07470549 1.85966501 2.88645263 0.60574163 -1.96849388
Ga 6.33137636 -0.02862682 7.35728885 0.19536516 -0.49529657 -1.02891792
Ga 18.65728095 -0.00166659 7.49129315 -0.33332503 -0.34044337 0.58518407
Ga 6.24815852 3.08321239 7.49696904 -0.21575567 0.88458713 -0.45386771
Ga 18.69954140 3.00153740 7.42195076 -0.07990173 -1.28113731 0.79706160
Ga 3.28395766 -0.03116201 3.90059563 -1.56180136 0.70684156 1.03378409
Ga 15.57077469 6.09493300 3.93367574 1.89261825 -2.69181106 1.38896149
Ga 3.29424399 3.07304450 3.88536499 0.44484418 1.48179039 -1.48377321
Ga 15.56533903 3.00675449 3.98112377 -2.14734109 1.34730772 0.22129980
Ga 1.86445737 -0.12361069 9.51000653 1.26352316 -0.87533186 -0.08829926
Ga 14.18736909 6.06408231 9.55035397 -0.84077940 -0.71029132 -0.66163092
Ga 1.86899717 3.13347900 9.49460938 -2.34921559 0.01523213 0.52413384
Ga 14.24884227 2.96400227 9.52066874 -1.76690127 0.05951632 -1.64594929
O 1.89128893 6.11061201 0.73296310 -1.09170856 0.13983570 0.95553266
O 14.07321742 6.09941001 0.63342020 -2.01179064 0.74465258 -1.08016483
O 1.89717295 3.09169404 0.60781412 -0.15197809 -0.88664407 0.18666578
O 14.09909633 3.05756987 0.72290541 1.25470057 -0.44578889 -1.92529149
O 0.48918583 0.05141850 6.27364740 -0.76423355 -3.29421600 0.55673421
O 12.81956221 6.05508492 6.33402886 -0.74173713 -0.17871962 1.38203344
O 0.45618131 3.05995165 6.30183589 2.12554642 0.27032562 -0.58949969
O 12.74131182 3.10694086 6.19053537 0.80214037 1.10563175 -1.10822276
O 9.04929298 0.07402977 4.96520702 0.78825574 0.81936333 0.53140205
O 21.54434826 0.01463389 4.94373922 0.68294889 -2.02524394 -0.70321494
O 9.12987631 3.17479993 5.11037373 -0.62926717 0.34801283 1.39350267
O 21.40946381 3.00351766 5.09741860 0.53779272 -1.26439616 -0.44071996
O 7.66485941 6.10916969 10.68224966 -1.07997436 -0.72192911 -1.85225722
O 19.94853297 6.10845843 10.69271420 -0.59152164 0.21137616 -1.77476282
O 7.77084551 3.03158824 10.79061153 -1.36389125 -0.93167933 -0.78092862
O 20.03570462 3.04349640 10.66200604 0.76613210 -2.07670497 1.29348063
O 8.01405861 1.52713495 0.69934644 0.98761657 -2.02456305 2.04825405
O 20.49955133 1.57474547 0.60587535 -0.62433019 -0.63261807 1.61125448
O 8.04471984 4.61005298 0.63460960 -0.52721850 -2.29890386 1.12324133
O 20.39034606 4.63202429 0.68418121 -0.71439596 1.23082960 0.87151536
O 6.68240662 1.55091735 6.28065127 0.50026717 0.02325694 -1.23977531
O 19.00616235 1.47758813 6.20908341 -0.59768778 0.30009506 0.74908673
O 6.69186289 4.62441331 6.27976603 0.71608389 0.71710264 2.22832000
O 19.07386841 4.52535883 6.31757462 -0.09189970 0.29782078 2.02588661
O 2.99337999 1.49926676 5.15137870 -0.66863311 -0.78042881 0.89373078
O 15.30444851 1.56915177 5.03500490 1.32067670 -0.88207616 0.35293552
O 2.98539080 4.65014088 5.06275354 -0.14492266 1.31706278 0.40488256
O 15.26212330 4.58254157 4.97309396 -0.75220806 -0.01330623 1.10884316
O 1.56225256 1.46618576 10.72642479 1.42305245 0.65728890 0.47066213
O 13.95203606 1.40867217 10.67894681 1.27168752 -1.56473965 0.28308676
O 1.63595820 4.55283218 10.69709519 -0.27086736 -2.69934633 0.04438646
O 14.01713718 4.49543668 10.67368929 0.06577585 0.65500403 -0.82268359
O 1.37590900 6.15551820 3.22560164 1.55283055 0.97854017 -0.40943397
O 13.71357799 0.01640018 3.17613846 -0.16466637 -0.77544582 0.11411786
O 1.29921305 3.12126192 3.24171706 -2.29639408 -2.74316046 -0.07826504
O 13.71585047 3.04060673 3.22998602 -0.49276188 -0.94402357 0.10150608
O -0.03028481 -0.06206248 8.87264716 0.57201461 -0.06280552 -0.66373882
O 12.41170947 -0.10482684 8.88292937 0.32179295 -0.00592594 -1.19103698
O -0.06221235 3.16149296 8.88558165 0.31090843 -0.80854731 -0.93103882
O 12.42911092 3.00759863 8.96548999 -0.15570783 2.37847966 0.94679261
O 9.55687261 6.10904708 2.40902581 -1.65805486 0.76107640 -0.96263401
O 21.84017953 6.13950038 2.46761063 -1.20514319 -1.67171449 2.42416515
O 9.49713144 3.01100582 2.43131124 -0.76540025 0.02760297 1.11879856
O 21.86736692 2.97589893 2.37520819 0.39171312 0.93106504 0.76351900
O 8.16536185 0.01958313 8.03518135 -1.54480534 -0.51117811 1.59167171
O 20.59714327 6.10036286 8.21485741 2.05665645 -2.28183785 0.53604824
O 8.14023360 3.15643351 8.14333705 -1.26405049 0.19504699 0.78132123
O 20.49957524 3.12247683 8.14976607 3.17936295 1.95979540 -0.99853672
O 19.85314585 1.53811136 3.18559370 -0.49388542 -1.73062214 -1.26685668
O 7.42654897 4.58963999 3.20237790 -1.17877180 -0.73795988 0.11699924
O 19.82791827 4.56991914 3.21045143 0.51262697 -0.10498475 -0.42180993
O 6.20306423 1.42949373 8.95616831 1.21940988 0.97929405 -1.20291610
O 18.41403275 1.62638467 8.79760507 -0.20142729 0.10439804 -1.34781601
O 6.24526604 4.61746013 8.94838309 2.62480576 -0.58899834 -0.33234887
O 18.42543168 4.51940460 8.76126973 -0.23771264 -1.07871683 0.34643501
O 3.47416463 1.57879242 2.55659206 0.26603590 1.87198292 -1.37684305
O 15.79071267 1.38948502 2.48363126 0.42083908 0.45597278 -1.18259336
O 3.35446578 4.57823781 2.61450200 -0.66336778 0.10926112 -1.78480786
O 15.76766706 4.54463138 2.43864923 0.43633735 0.72993826 0.21459109
O 1.97239530 1.50171265 8.02546230 1.24726740 0.26126980 -0.91804992
O 14.44301208 1.56406359 8.10719637 -1.32561217 -0.27420615 0.98599053
O 2.00103900 4.58408078 8.15418609 1.01617416 -0.24650669 -1.09214210
O 14.46425219 4.58786414 8.16038542 2.06936748 -0.79038319 1.09474429
O 11.96319888 1.58933162 1.43924185 -1.09100746 1.92550715 -0.42947524
O 24.27807671 1.56224435 1.43434594 -0.13788896 0.17609588 1.45733113
O 12.05789154 4.63411463 1.51046230 -0.18860119 -0.57812529 -2.43761443
O 24.27997382 4.61414187 1.46012020 -1.09843440 -0.91106388 -2.15871951
O 10.58698168 1.56711109 7.05261073 1.68851532 1.59201953 0.40114363
O 22.99519703 1.53348820 7.17878942 0.76333459 -0.26711167 -0.04001424
O 10.53532609 4.56935745 7.16661889 -1.74762045 -0.89082100 -0.39846612
O 22.93851773 4.58522854 7.23419045 -2.02107755 -0.20240789 1.64317041
O -0.96946117 1.57604841 4.25043632 -0.77058758 -1.81589090 1.50039250
O 11.38223309 1.45092382 4.23656820 0.88945700 0.21396670 1.21862558
O -0.86612029 4.60981337 4.13122259 -1.13301130 -0.23564575 2.49498039
O 11.33291787 4.60477842 4.21151274 0.18687041 0.40361720 -0.61645172
O -2.34792714 1.54957759 9.90396148 1.12787180 0.79173278 0.80530404
O 10.06139031 1.54919468 9.89321053 -0.03606908 1.11668911 -0.63234982
O -2.39140065 4.59855863 9.83172270 -1.48480337 -0.20823102 -1.76587473
O 10.02501622 4.57069497 9.80366962 0.16285612 -0.89539833 -1.12840559
O 5.93004792 6.13904509 1.52612055 -0.79764293 2.20839493 2.41662581
O 18.20165944 -0.01190683 1.44403727 0.02592034 0.78673646 0.17169883
O 5.84171558 3.04788287 1.49746628 0.30068100 0.57021000 0.37421041
O 18.15066554 2.95788079 1.41140240 3.37994083 0.07996822 -0.24213492
O 4.41867735 6.12389580 7.19871673 1.23466593 -1.42926575 0.39436263
O 16.79756540 -0.04975094 7.07717507 3.03378242 0.19793065 -1.15323555
O 4.36293815 3.04841923 7.04936928 -2.22416234 1.42173569 1.01086767
O 16.79654718 3.03313965 7.12267925 -0.73692700 -0.52595058 -1.62616257
O 5.21195376 6.08385289 4.23870497 -1.07379687 0.83300486 -1.54874416
O 17.57434800 0.03171580 4.12667463 -0.76986190 -0.42066154 -0.17578459
O 5.24103532 3.04401273 4.18215208 0.83439099 0.60198167 -0.43455945
O 17.63640246 3.04422217 4.18226408 1.02256823 -1.45726972 0.37373969
O 3.82310599 6.25002024 9.82261308 -1.12741320 -2.09542352 0.27054821
O 16.10177811 0.01821245 9.93068540 -0.79744593 0.31463553 0.22036826
O 3.88593519 3.12090200 9.98816172 0.91867680 2.39787382 0.32327327
O 16.22307911 3.01587624 9.80540503 -1.61503503 -0.68575335 0.29710920
159
Lattice="24.810872 0.000000 0.000000 0.000000 6.142834 0.000000 -2.767698 0.000000 11.373122" Properties=species:S:1:pos:R:3:force:R:3 Energy=-623.049823 Virial="-55.150174 -0.592710 -1.954500 -0.592710 -43.750022 -6.373375 -1.954500 -6.373375 -40.686208" pbc="T T T"
Ga 0.00308187 -0.08949874 4.45524403 0.60249741 -0.55583192 -0.64445307
Ga 12.35840493 6.10930977 4.48522644 0.90009342 -0.56825677 0.79748553
Ga 0.06107610 2.98496810 4.54963665 -1.25798911 -0.69754554 -0.09112711
Ga 12.45999696 3.07782632 4.47534074 -0.29834174 0.05475515 -3.03449368
Ga -1.28637691 6.15383198 10.23318283 -0.68874518 0.85843386 0.66691101
Ga 11.06466261 6.14344554 10.25033326 -0.65072507 0.72025875 0.43604650
Ga -1.43617763 3.06461215 10.21890262 -1.86586132 -0.19435216 0.83569778
Ga 10.85204154 3.04324332 10.19585383 0.63700646 -0.04534687 -1.96939651
Ga 11.08423370 -0.00288835 1.06402078 0.10456086 2.57056214 -0.59468515
Ga 23.37674037 -0.07787094 1.01392403 -1.44989516 0.30875650 0.28951770
Ga 11.11128414 2.99347522 1.15575042 2.34836235 -0.33460872 0.67672204
Ga 23.41926724 3.04748238 1.01556242 0.98431713 2.41042080 -2.30059906
Ga 9.63015327 6.08423826 6.89041162 -0.09976652 -0.51027511 -0.54412852
Ga 22.12387977 -0.06192871 6.89526496 0.73252527 -2.04036688 -0.51061648
Ga 9.52497193 3.27206444 6.94680285 1.01537212 0.56839037 0.74808682
Ga 21.98203151 3.22550857 6.95546812 -1.27344336 -1.98820264 0.10429582
Ga 6.08393964 1.44533689 4.57974875 -0.91600959 -0.10310030 1.16113282
Ga 18.76062705 1.41822654 4.52356233 0.05863720 -0.34335519 1.07891526
Ga 6.38622298 4.52877061 4.51837743 1.04375690 1.95954079 0.72092560
Ga 18.70595150 4.53324177 4.39303743 -0.22511252 1.36527937 0.87884931
Ga 4.83234802 1.54312014 10.23048859 -0.64286997 -0.56049414 -1.04932686
Ga 17.27147813 1.70297087 10.19151401 0.07226457 1.08994845 1.92810906
Ga 4.97055366 4.66802992 10.25152841 -1.54671559 -0.97312020 -1.49155752
Ga 17.25798759 4.51223378 10.09771387 -0.55744439 -0.54627028 -1.04258311
Ga 4.71798943 1.41560546 1.14735212 1.60566161 0.57985372 -0.08685299
Ga 17.13920185 1.44164458 1.11001897 0.96411217 0.45654002 -0.25647658
Ga 4.88553834 4.57380611 1.20683920 1.04990073 -0.49534701 0.15145716
Ga 17.19775126 4.68413100 1.20794078 -0.39884964 0.18009202 1.23885972
Ga 3.45349528 1.51357864 6.82444534 -1.16889247 -0.69612139 -2.98358402
Ga 15.75815870 1.45874946 6.83983679 -2.85230857 0.51357736 0.84257020
Ga 3.37393350 4.62526812 6.89725130 -2.85115482 0.43751638 2.15107144
Ga 15.91667123 4.53671939 7.05288341 1.63255556 -1.17328972 0.93264323
Ga 1.51422644 1.58806545 1.75848057 1.62722963 -1.21227417 0.17163853
Ga 13.93227850 1.47474166 1.79372092 -0.26635079 -0.12875139 -1.60887614
Ga 1.59985966 4.63752602 1.66567746 0.41444924 -1.12815186 -0.30486040
Ga 13.98103809 4.61972356 1.81037261 0.26536192 -0.29136066 -1.00769469
Ga 0.16108011 1.35175153 7.38934254 -1.04315948 -0.46634781 1.39170484
Ga 12.66104412 1.55390514 7.46532983 -1.37634672 0.01146885 0.33153592
Ga 0.17797964 4.61984720 7.66816176 -1.01167364 -0.29970671 0.02160364
Ga 12.56219104 4.72273886 7.51411813 -0.88318604 -3.39133956 -0.79809388
Ga 9.49788800 1.47420867 3.77853022 0.95010086 -2.01418293 0.88878469
Ga 21.86086626 1.52643430 3.80682770 -0.85060934 1.66314229 -0.65500220
Ga 9.47140515 4.57422468 3.97923623 0.61905578 -0.89344268 -0.16992220
Ga 21.92885972 4.44386165 4.03150026 0.16388758 -0.48225575 -0.48396123
Ga 8.03343798 1.50901951 9.59103399 0.85981078 0.42145387 0.28984438
Ga 20.46800008 1.48370780 9.55487540 0.15048265 0.74676910 -3.21622555
Ga 8.17571457 4.61564846 9.60290436 1.01057302 1.70719862 1.95550519
Ga 20.42411496 4.63602419 9.52327525 1.00974334 1.18499424 0.61849670
Ga 7.72362321 0.08709593 1.87271758 0.10986394 -0.28356572 1.63573721
Ga 20.20910785 0.00330684 1.87852997 1.11394703 1.19669987 -2.29249567
Ga 7.71550085 3.03965642 1.92732915 1.13805544 -0.03100780 1.76505072
Ga 20.21633544 3.05804388 1.68743735 -0.17225923 1.13118988 -0.85679669
Ga 6.46291446 0.04146201 7.53767619 -0.47936572 0.04354198 -1.11471373
Ga 18.66135104 -0.08171147 7.54332287 -0.61331391 0.37706625 -0.60284472
Ga 6.29147451 3.09425807 7.47412834 1.47441984 -0.94279643 1.84067797
Ga 18.83067810 3.01493611 7.42177038 0.69376950 0.20440587 0.13131779
Ga 3.33730289 -0.13257146 3.87806909 1.16410291 -2.68823985 0.81918398
Ga 15.71007829 6.21387194 3.93868158 0.87898561 0.93827843 1.20161392
Ga 3.29533493 3.12458208 3.90291906 0.20302283 0.79524856 -0.12241801
Ga 15.74772217 2.99223561 3.93214363 1.12728666 0.34398354 -0.28051602
Ga 1.92703273 -0.01463105 9.50344451 3.06113976 0.04170054 1.11146931
Ga 14.32366315 6.13171735 9.56909389 -0.17657207 -1.43416667 -2.16098756
Ga 1.96356407 3.07408609 9.55798772 0.56238228 -0.77694496 -1.32963136
Ga 14.23260135 3.00667889 9.64383615 0.30090022 1.25683370 0.29063231
O 1.82710784 6.00931000 0.59978356 -0.67465926 -0.63470611 -1.02078576
O 14.26945303 6.15481414 0.52900274 2.43559503 -0.58684760 1.41290490
O 1.91004530 2.96586209 0.76936800 -0.55336484 -1.42444917 1.08445511
O 14.23585713 3.10670900 0.59133916 -1.19628983 -1.05291491 -0.06736912
O 0.45807275 -0.03896478 6.36113781 0.20863495 0.25741987 1.96052013
O 12.76306244 6.16646818 6.22837642 0.40549927 0.21022542 -0.37117212
O 0.40637259 3.14723124 6.39616361 -0.95084808 2.46246983 -0.52644644
O 12.90154354 3.15268005 6.20536693 -1.28020666 2.21098916 -0.19557558
O 9.16740206 0.02027149 5.24529309 -0.93779206 -2.09916837 -0.27491819
O 21.54510477 0.09371685 5.18963358 -0.82538494 0.92216355 -1.15422921
O 9.22744061 3.01322628 4.81497882 1.68198027 0.61351525 1.49142710
O 21.44197101 2.90802262 5.17003819 0.92476001 0.01229186 -1.35906514
O 7.70899034 6.15631799 10.81454275 1.68019946 1.48783961 -1.92729493
O 20.17953619 6.13156930 10.76143814 1.34150742 0.32320760 1.19876536
O 7.77444168 3.00251866 10.76119518 1.25224434 0.49712269 2.18123413
O 20.11077419 3.08395674 10.84785707 -0.90039621 -1.33359460 -1.26965011
O 7.96492752 1.58170598 0.62245398 1.25526871 -0.53660669 -0.71037833
O 20.43303757 1.64833331 0.62754144 0.25024965 1.65669519 1.48868094
O 7.85917968 4.60056245 0.61746777 0.28903477 -0.54596143 -0.17043155
O 20.48596541 4.62816426 0.64202995 -0.88854775 0.72377878 -0.11965694
O 6.58662473 1.56757435 6.25006828 0.18355165 -0.00676774 -0.10545408
O 19.13182594 1.37772532 6.27628625 1.06734097 0.39833747 1.48971859
O 6.70785190 4.68498946 6.37731879 0.87228663 -0.99643653 -0.25317287
O 19.08428215 4.50887602 6.20646805 -0.16717749 -0.59573932 2.46538556
O 2.98306289 1.53293589 5.19159480 0.43047667 -1.04234185 2.79176236
O 15.46756294 1.39342420 5.16701372 -1.74614469 -0.32807673 -0.16441465
O 3.15019905 4.62067500 5.13024928 -1.50266691 2.69142305 1.00903840
O 15.28803574 4.57651885 5.02762585 0.49424152 0.61596445 0.53688776
O 1.57385882 1.56153750 10.70730578 -0.05483792 -1.53285982 1.78781957
O 14.02042037 1.58323410 10.67789306 1.58257479 0.30218887 0.92589978
O 1.64559297 4.65689915 10.81196802 0.15849781 -1.26662224 0.54657776
O 14.02184069 4.55650198 10.55839418 -0.27391500 -1.32466753 0.56189493
O 1.20690622 6.14567018 3.16049484 1.19243028 -2.45702895 -2.22278000
O 13.88799760 0.08780184 3.38192980 0.44336578 -0.20706944 -1.12670876
O 1.39349750 3.17678164 3.28794534 -0.85833573 -0.60305635 0.01873275
O 13.72258689 2.86426873 3.26955077 1.35222002 0.29321377 1.92905801
O -0.11598553 0.07264673 8.77806932 -0.55804943 -1.22335766 1.27516891
O 12.38323006 0.09738033 8.94936286 -3.20279635 -0.22595681 -0.70812982
O 0.05323356 3.05372502 8.88622988 0.56001613 -1.88428639 0.31092554
O 12.40927501 3.05122277 8.98043582 0.33989229 -0.33853809 -2.02129562
O 9.71108768 6.21421227 2.42994938 2.26791480 0.74185466 -1.14748244
O 22.06572534 6.18926552 2.51627850 -1.86912388 2.10541535 0.91043306
O 9.55277156 3.18617336 2.45592811 -1.37459744 -0.51975256 -0.62179050
O 22.01509376 3.11886602 2.50377811 0.34593351 0.33299519 2.29441743
O 8.27470890 0.14026968 8.23689692 -1.71643081 -0.08523490 1.39014682
O 20.58537531 6.19157587 8.18487868 0.47365612 -0.46497417 -2.13060413
O 8.32422657 3.10627322 8.28979172 -1.34738713 2.76609206 -1.14831404
O 20.62922100 3.05708158 8.15185597 -0.15372379 0.40900523 -2.05590377
O 7.69810328 1.57895729 3.20058656 0.26498685 1.31546617 -0.87092227
O 19.92021121 1.61010445 3.12318389 -0.68301906 0.65309814 0.09635323
O 7.53792999 4.51880487 3.19935540 0.58613627 0.02625477 -0.37264899
O 19.97093045 4.71571585 3.18825646 -1.41059251 0.57132631 -0.28064258
O 6.13443398 1.52759117 8.90142987 -0.94994602 0.21573131 -2.93269698
O 18.64053762 1.55512870 8.85415807 0.09908799 0.88311170 -0.14795354
O 6.23822313 4.61594539 8.92897091 0.40138072 0.89781088 0.59957549
O 18.52310011 4.57227865 8.85615849 -0.68587745 1.25343855 -1.45919436
O 3.35557134 1.51145356 2.54723126 -1.49776794 -0.07586448 -1.71462039
O 15.96325014 1.56288824 2.49778054 -1.43958865 -0.53997513 -0.67009430
O 3.46221321 4.56302705 2.46608774 1.17353372 0.42688495 1.90839358
O 15.66967574 4.72832286 2.49204856 0.84771024 -0.31201227 -0.05600498
O 2.14781240 1.50483653 8.13884371 -0.10099190 -0.37231028 0.42039596
O 14.41396975 1.47557931 8.24605287 1.28015359 0.18424148 -1.03669136
O 2.10703324 4.67562042 8.14119890 1.25548734 2.17022570 -0.85292377
O 14.47457155 4.64265230 8.21069841 -0.44903322 -0.43416684 0.19521916
O 12.01624665 1.64504468 1.55809795 0.95970479 0.92010708 1.00350694
O 24.43248259 1.66718393 1.42414861 -2.86125645 -1.60846086 0.40308684
O 11.98554463 4.61097062 1.45622717 -1.00855159 -0.40612505 1.07398582
O 24.34958958 4.67203991 1.60577751 -1.50411631 0.81360806 0.96943804
O 10.62404178 1.56267529 6.99793456 0.92995680 -1.09844799 0.29045415
O 22.98960056 1.51996239 7.37090714 -0.25465644 -1.40675823 -1.44167466
O 10.62789128 4.64969685 7.26084378 -1.50522786 0.24144710 -0.40361071
O 22.86918484 4.62291643 7.14313803 -0.21220127 -1.07893154 1.82101490
O -0.93661568 1.49813979 4.26232173 -1.01867392 -1.10483990 -1.53820814
O 11.47850778 1.50055029 4.15695441 -0.55380702 0.78878242 0.61500332
O -0.91425752 4.61658416 4.14394367 -1.73678657 -0.37478050 -0.77223122
O 11.40961144 4.57206479 4.20700841 -1.42521375 -0.82219384 -2.68620676
O -2.46230601 1.63742231 9.90314900 -0.43238823 0.15871050 3.92477210
O 10.00781255 1.51975627 9.86435946 0.15716557 1.20190407 -0.60190198
O -2.26420475 4.45917662 9.79281497 0.44019925 0.04446030 -0.39924238
O 10.03779473 4.62500118 10.09227837 -1.76559541 0.85196041 -0.03342171
O 5.85007795 6.06925116 1.44470330 0.59206429 0.07160189 -1.76989072
O 18.21402738 -0.03470715 1.53726548 0.63961786 0.01600515 0.15638318
O 5.85021527 2.98696523 1.48198988 -1.99355379 0.09310168 -1.01898320
O 18.29166829 3.04011088 1.59964102 0.71156527 0.26932157 -1.14960978
O 4.39911685 6.03199847 7.06420587 1.66227871 1.30256029 -0.70524782
O 16.87513328 -0.03654485 7.10826455 0.23831773 -0.57594509 0.54874478
O 4.42585081 3.17149308 7.14948990 0.38274025 1.32610900 0.69843259
O 16.90137077 3.07714856 7.18005915 -0.46610212 -1.03708904 -0.52754007
O 5.18591336 6.18870558 4.25228400 0.44118475 -0.66490733 0.19553276
O 17.60924219 -0.03502738 4.28695643 1.64334722 -1.06786141 -1.59858680
O 5.23116285 2.98747695 4.20056701 0.98754271 0.18381463 0.36440649
O 3.89291958 6.12562124 10.02532688 1.29720559 -1.41570689 2.98140937
O 16.30945656 0.13912388 9.77352551 -1.43557886 0.40710341 0.93077190
O 3.83324412 2.93041821 9.87308961 -0.19038164 0.39173746 0.98543029
O 16.25963061 3.02085922 9.89098533 1.09961117 0.15177718 0.17043432
159
Lattice="25.058502 0.000000 0.000000 0.000000 6.204143 0.000000 -2.795321 0.000000 11.486633" Properties=species:S:1:pos:R:3:force:R:3 Energy=-623.517665 Virial="-49.315482 -0.056935 -2.476354 -0.056935 -40.779656 -1.953411 -2.476354 -1.953411 -44.007027" pbc="T T T"
Ga 0.11717800 0.05588919 4.59554651 0.13422801 -0.31064018 -0.43398099
Ga 12.53046449 6.16030714 4.58777040 -1.61419117 -0.71963016 0.69735417
Ga -0.01344483 3.16473148 4.62984203 -0.49756445 -0.65458758 -0.28350438
Ga 12.57781291 3.13308946 4.50883394 1.53647866 0.07753674 -0.35079252
Ga -1.35186110 6.14867174 10.24781414 2.60524235 -0.37341218 0.70284451
Ga 11.21707485 6.19440033 10.21458855 0.62075911 -0.29422286 -1.01725633
Ga -1.47137216 3.10518441 10.31073014 0.11975358 0.07858739 0.01464463
Ga 11.15613613 3.08514453 10.40023786 1.06090975 -2.19717801 -1.04969862
Ga 11.11741269 -0.04854749 1.13687333 0.95102122 0.16718516 -1.32079115
Ga 23.62453405 0.04204081 1.14939982 0.37258692 1.89842418 -0.40186917
Ga 11.14714095 3.01322783 1.14467435 0.41599809 -0.90612430 0.07159648
Ga 23.65721676 3.07364341 1.14060684 -0.18468885 1.25365343 1.36492055
Ga 9.76851965 6.21179628 6.88890825 -0.41872076 0.26864339 0.51235965
Ga 22.20732565 0.09549229 6.95958572 1.30457952 1.19869042 0.70935606
Ga 9.70264119 3.09706620 6.91752159 -0.78738727 -0.12246549 1.14710700
Ga 22.32406937 3.07570782 6.87317193 -0.32489269 1.45258486 -2.17291458
Ga 6.23093510 1.58720113 4.58378045 -0.09907443 2.10486108 -0.58911334
Ga 18.74100083 1.51421430 4.63560402 1.24930646 -0.72335259 -0.65235519
Ga 6.27531570 4.68742253 4.51555606 0.10855985 -1.37616910 -0.01625120
Ga 18.90113057 4.67639112 4.60997738 -1.02310976 -1.78215512 1.27453458
Ga 4.69597736 1.57515462 10.30637128 -0.09537261 -1.55988330 -2.67056364
Ga 17.52693159 1.49934654 10.44405740 1.50696718 1.00263516 -0.63846522
Ga 4.87449743 4.68772183 10.30171750 -2.45362591 -0.60510381 0.98518888
Ga 17.42571367 4.57696749 10.35072884 -1.62817633 1.62510732 1.31634168
Ga 4.87897219 1.54944833 1.17082336 -0.50066408 0.11237145 1.00188337
Ga 17.20392675 1.49363568 1.04673345 -0.27764083 2.28521701 0.11009797
Ga 4.87645269 4.57906878 1.20841623 -1.46522427 -0.58585278 -1.03639537
Ga 17.40033139 4.71583889 1.21694737 1.06397241 1.26796643 -0.66213119
Ga 3.44016705 1.56169652 6.93040051 -0.83775656 0.00025785 0.50218980
Ga 16.14094442 1.54448979 6.93542347 0.02561278 -1.35430873 1.23685810
Ga 3.48622994 4.61085972 6.88582875 0.45930690 0.50325051 -2.52120464
Ga 16.02080110 4.71068384 6.98470210 1.36644272 -1.18068494 3.23112746
Ga 1.46429234 1.60217119 1.76583784 0.15001393 -1.45991484 0.64598634
Ga 14.10638663 1.54418128 1.80172797 0.97189386 -0.15691445 -1.35983017
Ga 1.51817093 4.71920545 1.85083471 -0.24274137 -1.26369263 -0.02936661
Ga 14.07628347 4.64717961 1.75909931 0.48411264 -1.03023412 1.17465398
Ga 0.11039294 1.61027755 7.51268463 0.64147918 1.37303697 -1.45951585
Ga 12.61734992 1.60444367 7.53438590 0.00709547 -0.37392364 2.01871379
Ga 0.12496380 4.71977782 7.58355268 -1.12501581 -2.00345495 -1.82198713
Ga 12.59541748 4.61160823 7.54223988 -0.37708311 0.34571100 -0.17790215
Ga 9.56911332 1.59375754 3.89671274 0.81555679 -1.03901896 -0.53363131
Ga 22.13292436 1.63103026 3.86878163 -1.62628406 -0.83885610 -1.10816884
Ga 9.64114934 4.63078948 3.87601203 -1.68755869 1.85096006 0.40116402
Ga 22.08425948 4.63771565 3.82325284 -1.44099627 0.59375394 -0.59191179
Ga 8.21374187 1.54578682 9.66615943 0.66077069 1.41673312 -1.42612160
Ga 20.67777703 1.58753310 9.69003703 -0.27533321 -0.29256384 -0.47890160
Ga 8.16444486 4.69612197 9.68076810 -1.44645159 0.34001954 0.46949825
Ga 20.77980799 4.67954178 9.65719845 1.18578937 -0.17945291 1.41526388
Ga 7.79881883 -0.07015493 1.77917453 -0.97413680 0.10487219 -2.97566489
Ga 20.34742591 0.00293712 1.76538459 0.76934192 -0.26793550 0.69728628
Ga 7.82459422 3.11442668 1.78645010 0.68569847 -0.11107626 1.80075143
Ga 20.34314259 3.12423850 1.82186652 -0.83862911 -0.05144419 1.14803327
Ga 6.31064256 -0.11116960 7.49293215 -1.29904802 0.74219722 1.12510893
Ga 18.92305994 -0.01228239 7.52445804 -0.95486367 -2.12674959 -0.65710497
Ga 6.48865326 3.19632031 7.45479697 -2.32789579 -1.06434617 -2.09021355
Ga 19.05246639 3.14525470 7.58584989 0.85639906 -0.90776791 -0.56696501
Ga 3.34015843 -0.00734092 3.94408665 2.41925950 0.90519103 1.14607765
Ga 15.84561276 6.16496168 3.92811790 -0.34527729 1.31855023 -1.88914457
Ga 3.27711353 3.15579957 3.96663423 -0.20208687 -0.13441972 2.19444685
Ga 15.81074773 3.09644684 3.85965216 0.10154954 0.53964577 0.49135113
Ga 1.95353020 0.07002505 9.62488947 0.47951867 -0.99372302 0.38061686
Ga 14.49752818 6.20487790 9.73826285 -0.83916729 -0.06274042 2.20622564
Ga 1.95092538 3.10736952 9.55290322 -0.61697424 0.25144208 0.28228232
Ga 14.45378347 3.08890077 9.62482522 -0.34717654 0.29846573 1.51194595
O 1.87584829 6.19134939 0.62053207 0.51724477 1.07020727 -0.48717927
O 14.39192313 6.15734780 0.60977189 -0.43911599 -0.12630593 -0.13202632
O 1.95107343 3.09432730 0.69293489 0.29290044 0.07423101 0.23143992
O 14.42933169 3.00874114 0.56926482 -0.06293691 -0.76203795 -0.43440904
O 0.60226061 -0.05854657 6.37283555 -0.78559260 0.33438541 2.70556463
O 13.02038291 6.16429332 6.39320027 0.97299556 -0.44136937 -0.05729577
O 0.56156807 3.15306421 6.36166670 2.49608971 -1.78466119 1.57829944
O 13.05217507 3.07880117 6.30386618 -1.29135834 0.61348172 1.26945657
O 9.18229759 0.00060842 5.18939882 0.79169070 -0.96804515 -2.41978115
O 21.92770603 -0.07376049 5.03892214 -0.16617275 0.43121269 -1.41847090
O 9.28209804 3.05215124 5.20092323 -0.50528406 -1.20057812 0.65028443
O 21.79030225 3.15695259 5.21233921 0.46456902 -0.92591146 1.43946626
O 7.84768155 6.28114564 10.82029750 0.87398310 0.69521189 -0.94469021
O 20.45333834 6.18929038 10.86272903 2.46973500 -0.97107853 0.33149517
O 7.77458559 3.20338937 10.88513725 1.52566906 -0.36483100 0.57511123
O 20.43177778 3.09207585 10.82900221 1.40303553 0.68099276 0.80343902
O 8.03692724 1.59128388 0.58619353 -1.60212173 2.51494392 -2.03756125
O 20.67837691 1.53910644 0.64124110 -1.01319132 -1.31275369 1.65240493
O 8.23002648 4.61397435 0.59905455 -0.50756926 0.44790948 -1.41363452
O 20.69949925 4.62035576 0.69549011 0.32034814 -1.63736721 0.28305863
O 6.87229146 1.45487913 6.37890998 -0.49146704 0.58753124 1.22179820
O 19.27212711 1.54616919 6.34126637 0.72545979 0.78938231 -0.31853017
O 6.72449396 4.65173325 6.43974582 0.33652026 0.58342598 -1.24544191
O 19.30704354 4.79259625 6.36589347 -1.40034445 0.42582788 0.77977024
O 3.00191006 1.63283609 5.11821030 -0.68793009 -1.22826624 -0.70810496
O 15.53921791 1.61495734 5.11343425 3.25110658 -1.10823071 1.51449104
O 3.10775027 4.66244833 5.15742123 0.40730953 0.66826863 1.94419749
O 15.49414915 4.70623358 5.02849481 -1.01812855 -1.92229326 1.24296592
O 1.54083935 1.57846375 10.91573236 -0.67709811 -0.86835942 -0.11037368
O 14.12305045 1.61072648 10.94757839 0.66667355 0.23852703 2.18269656
O 1.60728120 4.67320863 11.02205963 0.10719171 -0.57750021 1.46514632
O 14.17117843 4.75218697 10.93211761 -1.14540550 0.31555342 -2.05092056
O 1.39745942 6.12273145 3.20129449 0.05374553 0.91534229 0.25178483
O 13.91882645 -0.01107383 3.31231370 1.61797306 -0.46424693 -0.47977382
O 1.47163939 3.12604218 3.25427096 -0.43299095 -0.67782352 -1.91613790
O 13.84624189 2.96444673 3.33586777 -1.07260119 0.05055986 -1.33201392
O -0.08438752 0.00133047 8.95294223 0.40047720 0.02629242 2.04206534
O 12.50695373 -0.02771241 9.00649447 0.52560548 1.19292898 -0.36823223
O 0.00264040 3.10367072 9.02641199 1.23377176 0.28210535 -0.73535103
O 12.52116065 3.03407924 8.95775265 0.53894985 0.71679502 0.94165421
O 9.77544104 6.13861232 2.44809411 -1.75919243 1.01203002 -0.14558003
O 22.25927327 6.18821561 2.42418464 1.28094918 1.07273791 1.45750814
O 9.69794914 3.13369310 2.47733491 -1.96261680 0.15558190 0.53033236
O 22.40952856 3.09004024 2.46231816 -0.47978372 1.54323455 0.35087273
O 8.36183756 0.00776626 8.25283340 -1.18438796 0.31197209 -0.86696138
O 20.75095791 6.33255247 8.19636044 -0.49764470 -1.88033922 -0.69686378
O 8.37723198 3.13948066 8.25569314 0.68334770 0.39081226 0.41716793
O 20.80501467 3.07851201 8.15601781 -0.40239749 -0.28646017 -0.89685626
O 7.69474918 1.47407375 3.27185017 -0.68273718 -0.41950809 0.73473330
O 20.20875815 1.59705676 3.23564179 -2.35037864 2.35277582 -1.68724981
O 7.70030528 4.64366324 3.21097877 1.52458351 -0.08214071 -1.36258879
O 20.15074040 4.72210772 3.20660903 -0.47436654 0.45018916 -1.02424308
O 6.23614861 1.54526413 9.06796808 -1.06393269 -0.97040557 -2.29716850
O 18.83125688 1.48689908 9.01210718 1.12464526 0.86201052 -0.02270471
O 6.22882257 4.60873174 9.02002469 -1.35336904 -2.04497542 0.49227467
O 18.78974695 4.67515574 9.07366758 -0.69496285 -0.33815326 -1.42952674
O 3.49481247 1.58885108 2.44159162 -0.11189008 0.38740128 -0.20911723
O 16.06332326 1.57010302 2.44931401 -2.12042985 -0.61658541 0.74731834
O 3.50533713 4.66348583 2.51557387 0.40660034 -2.34441880 -0.50895855
O 15.98034941 4.66284323 2.53409620 0.50920102 -0.05103977 -1.72981599
O 1.99624847 1.60173470 8.23041933 0.52747002 0.51950392 -0.97982586
O 14.71836677 1.61604304 8.21543613 1.01979740 2.34515282 0.27239916
O 2.05235402 4.67801865 8.22272554 -1.79913516 -0.95596347 -1.01092475
O 14.61191214 4.65703318 8.29467865 -0.04545970 1.98446045 1.93246174
O 12.08446563 1.54557654 1.58379567 -0.34258785 -1.68282619 0.27467741
O 24.63247865 1.65377666 1.49544873 1.57677015 -1.64695997 -0.66354098
O 12.11171899 4.57149387 1.51847869 0.77672700 0.52903093 1.87672450
O 10.70477808 1.54864147 7.19079797 -0.79694862 -0.57460243 1.79391284
O 23.26546835 1.60283892 7.19647056 -0.40133564 -0.39575337 -1.30061508
O 10.71666170 4.71897223 7.14490997 -0.65214552 -0.18479955 -1.51528827
O 23.31417989 4.77799673 7.21649721 -0.23203461 -0.10233411 -1.24377257
O -0.92379510 1.48246656 4.21932499 1.19436772 1.93924727 1.53635418
O 11.51997408 1.55488829 4.28180755 0.54473651 0.52190284 0.31360076
O -0.95270453 4.68269709 4.20598543 0.27912557 0.53326451 0.70773343
O 11.55615258 4.67279794 4.26684172 -0.50104439 1.83637859 1.00284082
O -2.35651175 1.50425913 9.99949560 0.59171095 -0.28356162 -0.71937487
O 10.14630305 1.58608841 9.97953757 -0.15395325 -1.08539078 1.96255410
O -2.42437518 4.66769541 10.16232719 0.92538291 -0.28482579 -0.39598690
O 10.21395035 4.66243677 9.83784373 0.77335911 1.57439210 -1.62588082
O 5.85805887 6.22379126 1.51629991 0.90149025 0.35214435 1.26919563
O 18.35610465 -0.07492899 1.48275992 -1.19821258 0.73599383 1.77463727
O 5.88083022 3.17018498 1.48782964 0.06238640 -1.20230942 -1.85781858
O 18.33408613 3.13967219 1.46896247 1.09823949 1.67984548 -0.59016847
O 4.56126214 6.07307803 7.20629719 -1.41446549 0.89754818 -0.40288506
O 16.96080771 0.12821003 7.12580270 -0.49626041 0.99905389 0.53959563
O 4.50598186 3.12284434 7.20652310 0.78703785 -0.61818480 -2.06050668
O 16.96680390 3.11198411 7.21852903 0.33497922 0.46036371 -1.93158616
O 5.18760538 6.16868343 4.17219961 -0.72130655 0.28991942 1.50633288
O 17.87786651 0.01984237 4.24415370 1.00968434 -0.40672882 0.92601328
O 5.37319163 3.11710218 4.35009111 -0.18361310 0.71626190 1.93405570
O 17.84613139 3.11576733 4.25310015 0.89563523 0.51630602 1.15887930
O 3.93474888 6.18993473 9.93878371 1.06256622 -1.02513086 -1.86950069
O 16.38057613 -0.01969986 10.02120178 0.61472474 0.69905662 0.52000640
O 3.92394532 3.08519015 10.01323699 -2.67228596 -0.91907406 0.79225634
O 16.35246859 2.93702393 10.15367693 1.59422932 0.14689173 -3.27988386
159
Lattice="25.008569 0.000000 0.000000 0.000000 6.191780 0.000000 -2.789751 0.000000 11.463744" Properties=species:S:1:pos:R:3:force:R:3 Energy=-624.059375 Virial="-57.002165 -0.778823 -2.466015 -0.778823 -44.332550 -3.810022 -2.466015 -3.810022 -41.903482" pbc="T T T"
Ga 0.01640472 -0.02945764 4.55083978 0.00235968 -0.88569807 -1.69553289
Ga 12.52826828 6.22468845 4.59711233 0.23098060 -2.26275374 0.30721473
Ga -0.00197255 3.04688438 4.58691750 -0.41893465 0.08274945 -0.95340460
Ga 12.48351471 3.07909521 4.58265865 0.60432072 -2.04833050 0.49620703
Ga -1.37094202 6.16386829 10.25643020 0.08662762 0.84352550 0.24169698
Ga 11.07691250 6.21168096 10.22712889 -0.51702793 0.55453188 0.45221591
Ga -1.41619575 3.06130746 10.32424391 -0.19936568 0.49384560 0.78463839
Ga 11.08518792 3.12571990 10.22713803 -0.43811146 0.82683088 1.86171530
Ga 11.10710895 -0.03416876 1.15999029 -0.22283705 2.21604259 -0.26320945
Ga 23.61912800 -0.00562253 1.09615474 -1.52273756 -1.29162112 2.46457945
Ga 11.08280844 3.06260716 1.16852249 0.14961217 0.98793104 -0.79384626
Ga 23.62392805 3.12031444 1.23942853 0.46466333 -1.83077612 1.46559784
Ga 9.62816177 6.16799691 6.94100650 -1.97044104 -0.17896413 0.53809695
Ga 22.18396956 0.02300037 6.86319734 -0.40512158 -1.52795773 -0.38668908
Ga 9.70879665 3.08009646 6.94295715 -0.39121244 3.56090666 -1.63571909
Ga 22.14092479 3.08667574 6.89620674 1.00306585 -0.82451477 -0.02774885
Ga 6.24410537 1.53144836 4.59834996 -0.09289352 -0.28021709 0.40300879
Ga 18.76246554 1.47263051 4.56127210 1.31743358 0.75037424 -1.95558505
Ga 6.21902968 4.65562532 4.53857856 -1.81382510 -0.38510370 0.17901614
Ga 18.71457246 4.67979941 4.53847265 -1.20323842 0.00556687 0.51465153
Ga 4.79691999 1.52824471 10.28363477 -1.12772416 -0.12358144 -2.52780568
Ga 17.43072402 1.52229807 10.27950334 -0.85877645 1.98996819 -0.57266617
Ga 4.86394911 4.65327292 10.31051347 -0.42181232 1.54377144 -0.21393355
Ga 17.42017815 4.67420334 10.25749096 0.83397791 -0.10487545 2.85333760
Ga 4.80985071 1.51368717 1.15808782 -0.02965601 -0.94763899 -0.78616691
Ga 17.36983340 1.57351218 1.18338329 2.02062230 -1.09019339 -2.02028248
Ga 4.84113938 4.60604103 1.16785381 0.39569965 -0.23647527 -0.57761966
Ga 17.34007709 4.67863180 1.15297794 1.23818191 -0.05267608 -0.33218593
Ga 3.42565073 1.59631147 6.86567821 -0.23629150 -0.73144146 -3.40355182
Ga 15.90210966 1.53153701 6.92383709 0.59482180 -0.21988198 1.31500983
Ga 3.43432452 4.68753411 6.89086538 -1.29275312 -2.74718422 0.47103724
Ga 16.00747708 4.69764832 6.87000989 1.79088843 -2.16825481 0.50108252
Ga 1.50742755 1.53571489 1.77467421 0.26818213 -2.25041309 1.22359709
Ga 14.07262967 1.53856096 1.77920344 0.28875032 1.15258177 -2.47262860
Ga 1.60601030 4.65710933 1.80688937 0.00777211 3.05504888 -0.76174245
Ga 14.02546057 4.68557845 1.84830238 -0.19716095 -0.88231311 -0.58150462
Ga 0.12525358 1.45827361 7.55459963 2.36578148 0.54768373 1.10129476
Ga 12.67846319 1.58657594 7.51969211 -0.69481106 0.75096081 3.03050367
Ga 0.12843132 4.65339512 7.55097445 -0.61261195 1.65842745 0.59360254
Ga 12.62854194 4.66059270 7.54443149 0.84060029 -2.48595818 0.38073676
Ga 9.59362436 1.56020309 3.91137250 1.00481609 1.80290233 2.63138577
Ga 22.03761236 1.52277067 3.95330007 0.84116653 0.62448280 1.22762149
Ga 9.58639225 4.72437302 3.88654319 -0.53903245 -0.95895370 -1.01669822
Ga 22.15204269 4.58827019 3.94863482 1.31629969 1.06181262 0.54943988
Ga 8.16356314 1.57277752 9.69263823 0.97928224 -2.28760392 1.28741461
Ga 20.69177352 1.56921662 9.64562305 0.03839453 1.54171109 0.91888857
Ga 8.17037657 4.70620644 9.69320683 -0.79840600 0.01694166 -0.68235293
Ga 20.68668903 4.61221864 9.63278064 -0.22032336 -2.22910193 0.44324960
Ga 7.78900206 -0.04430766 1.84910592 -0.24487953 0.86263736 1.40474218
Ga 20.24775785 0.02320360 1.81614616 -0.68409486 -0.98534779 0.07992497
Ga 7.84136950 3.03220705 1.76509303 -0.09560819 -0.32750429 0.07982893
Ga 20.29938047 3.05681659 1.81597184 -0.41878464 -2.26047624 -0.90717237
Ga 6.42240670 0.05769659 7.50385789 -1.42724537 -1.48245114 -0.79284208
Ga 18.95212771 0.01306667 7.60172751 0.73141701 0.45444614 1.49037993
Ga 6.41661401 3.09478544 7.60189395 -0.70116262 0.22225726 1.35651892
Ga 18.92870589 3.09843938 7.46846224 -0.79469790 1.85031977 -1.14173437
Ga 3.28827616 0.02544371 3.96745572 -2.25584870 -0.46657966 -0.77027379
Ga 15.76509456 6.17045836 3.91688718 -1.21376752 0.32646547 -1.23796071
Ga 3.32468547 3.13661290 3.93564667 -0.78609026 -0.12630864 -0.69388038
Ga 15.79370388 3.14653822 3.96204136 -1.00022106 0.93342501 2.02257870
Ga 1.90609101 -0.01243284 9.60352598 0.53892790 -0.30046323 2.24314290
Ga 14.43906651 6.21007053 9.64874818 -3.47792135 -1.64198861 -0.82201204
Ga 1.97931406 3.07492879 9.69062565 0.94274353 -0.01095722 3.49524520
Ga 14.45213544 3.06425397 9.67639263 -0.03409110 -0.15778650 -1.02914703
O 1.85627225 6.24113460 0.59202729 -0.41007174 -1.05512502 -0.76472141
O 14.43553929 6.13699639 0.68590568 1.14097618 0.38033901 -1.82697791
O 1.90304510 3.09368987 0.64352263 -0.48999500 0.19689318 1.09841555
O 14.36095642 3.10389723 0.57925476 0.49338589 0.88732909 0.22837805
O 0.47673126 -0.00034368 6.32205641 1.40054709 -1.06974567 1.26461755
O 12.92455015 6.20328212 6.38673003 0.62454513 2.68338083 0.22632159
O 0.46193340 3.07909384 6.35710930 -0.23546552 -1.27789526 -0.59037741
O 12.96413667 3.09884113 6.32672325 0.88298820 -0.99857080 -0.57723662
O 9.19466750 -0.04535058 5.12162538 0.13506832 0.82918140 -0.57444199
O 21.74760487 0.07489544 5.11710324 -0.13691691 -0.93184535 1.82343134
O 9.28252160 3.08051545 5.15407152 0.23804900 -0.25843568 0.28029016
O 21.70323869 3.10632492 5.08670900 -1.75868354 -0.89680915 -0.57703075
O 7.77554168 6.16305224 10.88471454 -0.67436787 0.37711071 -0.04617932
O 20.37996153 6.19610478 10.73059625 -0.86522383 -0.22334262 -0.68515424
O 7.78885481 3.08244729 10.76708705 -0.15515633 1.34472133 2.93939357
O 20.41910286 3.06574225 10.88428293 -0.77314597 -0.88583361 -0.25203428
O 8.15668526 1.50194688 0.59562959 -1.56770504 -0.67382705 2.92019780
O 20.61958575 1.54634904 0.64262948 -0.51541070 -1.00339065 -2.70747834
O 8.13082574 4.66565241 0.66012293 0.57650880 0.69996049 2.54692975
O 20.55521869 4.55840107 0.57014267 -0.19982115 -2.46585515 3.12067029
O 6.70954772 1.52249214 6.31499382 0.90255015 -1.00975210 -1.80990018
O 19.24976800 1.51980464 6.35201357 -0.56043237 1.85350916 0.40842614
O 6.73505614 4.67240303 6.30797459 -3.12482686 -1.27068971 3.02264665
O 19.28962866 4.62497304 6.35505501 -0.43394233 1.32139608 1.36013698
O 3.01489051 1.51572229 5.14197707 0.66807288 0.22202949 1.00964008
O 15.41585281 1.55978753 5.12359363 -0.50711127 -0.27620935 0.03669440
O 2.99366595 4.61624326 5.08221419 0.45160536 -0.34383431 -0.67138202
O 15.47695830 4.59121613 5.09496412 -0.15523612 0.79717971 -0.82023227
O 1.58140605 1.53561146 10.79546913 -0.48308331 -0.10524968 -2.39120566
O 14.06362428 1.53950528 10.84932241 0.00148267 0.05419219 -1.03052705
O 1.59958711 4.65534914 10.83199039 1.16018580 0.19262015 0.14556307
O 14.10677490 4.61549575 10.86727217 0.97825487 1.96126525 -0.90560915
O 1.35843848 6.19359555 3.22011435 -0.44010298 0.57145946 -1.58948959
O 13.83543926 0.02212512 3.23367354 1.30949382 1.85721959 1.14100857
O 1.36174044 3.03616945 3.24540135 1.14767084 0.86934493 -0.30342289
O 13.88480247 3.10232064 3.22293550 0.81828804 -0.54728847 0.02234283
O 0.02942602 0.04630336 8.91469962 -1.27392589 -0.33638841 -0.71859119
O 12.51874166 -0.00835610 8.99086606 -0.23263664 0.64244141 0.02736724
O 0.00489514 3.09917173 8.98448686 0.60659726 -0.80966571 -1.44924820
O 12.48561882 3.12325071 8.95614074 0.79227606 -0.86967482 2.93696168
O 9.74875727 6.13022096 2.51394101 -0.50875819 -0.82057731 -1.65625565
O 22.23412904 6.10324125 2.52749634 -0.39643519 -0.18189606 -0.56124941
O 9.68433201 3.12261852 2.48198743 -0.15361993 1.59781258 0.37744819
O 22.19739377 3.15431664 2.41026331 1.70619107 -0.77062334 0.49445105
O 8.40577472 -0.01206166 8.17250421 -0.82618233 1.40881765 -0.20991979
O 8.33313353 3.14097220 8.21050358 0.22362618 -2.39714973 -0.73284918
O 20.83117445 3.04040247 8.28097978 0.21745408 -0.01569663 -1.63763205
O 7.59610362 1.54554040 3.23484733 -2.32711769 0.72746408 -1.02357230
O 20.17045676 1.54664048 3.23766268 -0.80906520 1.40452179 -1.16826419
O 7.61257313 4.62371369 3.21550645 1.03165513 -0.45070040 -2.11150323
O 20.12550912 4.70758085 3.25266904 1.29806361 -0.23210317 -0.18839413
O 6.20625809 1.60065860 8.95268736 -0.76514467 1.28437902 -1.76355682
O 18.75926107 1.50838141 9.04237502 0.67901210 1.71014374 -0.87096894
O 6.26999914 4.61068544 8.98600857 -2.93154814 -1.16309090 0.61054292
O 18.82741519 4.63720991 8.96420836 -2.34670968 -1.53995673 -1.02337874
O 3.45040287 1.50065073 2.48041566 0.26691180 0.04031732 0.40529993
O 15.94198733 1.50641180 2.54764958 0.41385259 -1.14146212 -0.59069737
O 3.44545919 4.65507421 2.48335857 -0.35923724 -0.09830557 -2.76701584
O 15.99498574 4.65996842 2.43135223 -1.00127697 0.51127519 -1.97955370
O 2.01145834 1.53661072 8.27480253 -2.20211336 2.62154543 0.81119172
O 14.55530178 1.55215437 8.26885227 -0.81933908 2.36701658 -0.16086544
O 2.14422652 4.62961827 8.23179605 -0.38608268 -1.60112680 -0.84307257
O 14.56723301 4.67004068 8.22385157 -0.15575773 1.60883536 -0.30698359
O 12.08157272 1.51292289 1.51910412 -1.49434263 -0.19968886 0.76786418
O 24.57430426 1.56062539 1.45076268 0.71693471 0.53100336 -0.10263325
O 12.11144956 4.59720238 1.46248768 -1.11982275 1.80797475 0.99526291
O 24.61011038 4.63486837 1.43315311 -0.07573745 -1.51187962 -0.40870132
O 10.73130091 1.65528484 7.19569179 1.28050989 -2.48742853 -1.63139296
O 23.19661860 1.60803240 7.24707158 0.26810006 -0.66552819 -2.15639993
O 10.75500233 4.65243291 7.24896408 1.20420597 0.56049389 -0.63938237
O 23.31625799 4.67000714 7.19256628 0.77692134 1.68784388 0.41015253
O -0.94630244 1.54283727 4.34164713 2.66542839 -0.04766403 -1.17489149
O 11.50524378 1.61480047 4.30008488 1.88114405 -0.84592498 1.34331591
O -1.00152936 4.67339663 4.16924060 -1.87855820 -0.03749754 1.64033944
O 11.58716567 4.66602786 4.20742869 -0.05349573 0.18378105 0.46744409
O -2.30982184 1.55901423 9.94555701 -0.10983264 -0.21086489 -0.83818172
O 10.07855486 1.52526850 10.03314358 3.43436459 0.11058615 -1.88162438
O -2.38897704 4.68296266 9.99717814 0.17271203 -2.31450574 0.85571661
O 10.12588367 4.71080871 9.90033177 -0.80459761 1.57564829 -0.08173643
O 5.88194517 6.20110831 1.47519763 0.99171644 1.08504089 1.81043019
O 18.34593251 -0.04045475 1.46084374 1.63714581 -1.26313401 -0.26304478
O 5.82347320 3.14339379 1.48483142 0.09269409 2.22884830 -0.81172977
O 18.35585293 3.06501585 1.47239919 0.69250966 -1.10436534 0.79926399
O 4.47195646 6.17346896 7.20267387 2.12230405 -1.19708979 -0.04448823
O 17.00439985 -0.01094681 7.17326212 0.89262618 -0.28721869 0.74238555
O 4.55055290 3.09871041 7.19523775 0.89183930 2.29989369 1.32085819
O 17.01049646 3.07811300 7.21060560 -1.59071521 0.47100751 1.20477019
O 5.25421050 6.17612286 4.29287116 -0.13123338 -1.42530144 0.08431270
O 17.74901624 0.04002420 4.24728036 1.43694651 -0.56197061 0.34265317
O 5.25293005 3.13076527 4.23840322 0.84992851 0.81037282 -0.31990776
O 17.70869716 3.06767265 4.26577412 1.15060073 1.50982208 1.13107995
O 3.85916907 6.16641682 10.00156214 -1.88868632 0.94981584 0.62893364
O 16.35640833 0.03343724 10.01221106 1.65847489 -0.38058937 -1.89760230
O 3.83021538 3.09523094 10.00479059 0.14557124 -0.35189863 -0.80425914
O 16.30588614 3.04628646 10.07134130 3.46280944 1.85303170 -0.21350681
159
Lattice="24.827444 0.000000 0.000000 0.000000 6.146936 0.000000 -2.769546 0.000000 11.380718" Properties=species:S:1:pos:R:3:force:R:3 Energy=-623.435039 Virial="-56.127165 -3.835514 -0.090285 -3.835514 -48.308846 -4.288928 -0.090285 -4.288928 -49.467190" pbc="T T T"
Ga 0.00175623 -0.12851635 4.45403794 0.69899105 0.88186708 1.98691472
Ga 12.41725872 6.14598699 4.55781915 -2.70575397 0.03114132 0.28735901
Ga 0.03441767 3.07224202 4.59940964 -0.47491050 0.81763325 -1.57753925
Ga 12.37056262 3.15256205 4.42005834 -1.16693351 -1.94412859 1.20449979
Ga -1.44160315 6.11479707 10.11730432 -1.61760163 -1.12544385 -1.54240885
Ga 11.14834445 6.16516714 10.12283793 2.66940813 -1.52399884 0.14949559
Ga -1.30788106 2.99991433 10.09931395 -0.11726198 -0.57085631 -0.05956112
Ga 11.00009930 3.06768287 10.29449847 -0.25655516 -1.59246298 -1.36886541
Ga 11.11986978 0.02418812 1.18520992 1.96011300 0.90477312 0.42689341
Ga 23.35673520 0.02074828 1.18745687 -0.24269963 -1.52099471 -0.90873709
Ga 10.99483861 3.08806278 1.14745431 -0.77303800 0.12143677 -1.43621651
Ga 23.41179470 3.08633495 1.19661366 2.20566242 1.28892676 1.99165680
Ga 9.57871611 6.19798923 6.81478889 -0.79325034 -0.99918508 0.65413038
Ga 21.93266940 -0.05140448 6.90654626 1.32586876 -2.91072752 1.86047656
Ga 9.67032778 2.88041947 6.88337776 -1.56487105 -1.86847763 0.13997762
Ga 22.05088684 3.01883179 6.95018429 1.17687055 0.12835878 -2.20674740
Ga 6.24345764 1.56179552 4.48252139 -2.26096481 -1.25896217 2.72682763
Ga 18.62108200 1.60644470 4.57138108 -2.02191913 1.29871899 1.76949887
Ga 6.24331336 4.72364336 4.52371829 0.54108279 0.47557215 -0.18867219
Ga 18.49900548 4.53331763 4.51946453 -1.50215594 1.63258766 1.35977690
Ga 4.77956649 1.50529174 10.21990778 -0.01004496 -0.65571952 0.94793030
Ga 17.31961218 1.58643819 10.21523275 -1.78704294 -0.85824624 1.18699631
Ga 4.86815566 4.55602629 10.21830258 1.14104022 -1.34389070 -0.89457738
Ga 17.28709561 4.61568068 10.27288008 0.62222770 -0.11561403 0.34837913
Ga 4.75097960 1.45735379 1.09241108 0.84700703 -1.56950202 -2.10417271
Ga 17.24040781 1.58147564 1.12809393 0.99809162 1.49553026 -0.33417162
Ga 4.83567075 4.54792795 1.17521547 -2.05974496 -0.21693307 -2.28303950
Ga 17.23197722 4.60596372 1.14799686 1.21608869 -0.41099338 0.00057050
Ga 3.39793979 1.49354867 6.81210596 -0.75973389 1.03171063 0.02502881
Ga 15.78388130 1.53698951 6.85445394 0.75904651 -0.56976735 -0.36594936
Ga 3.49871273 4.63456360 6.77561041 -0.10789028 -0.46927818 -0.19744506
Ga 15.83871880 4.68789301 6.87780996 0.11054937 2.88266369 0.44964379
Ga 1.50538489 1.48657303 1.82147557 1.67112079 0.01320464 0.34251008
Ga 13.96751186 1.47403475 1.79567116 1.44639679 2.47254035 0.02689351
Ga 1.56421269 4.52398727 1.66655904 -1.14826874 0.36970864 0.37044815
Ga 13.98583220 4.65679020 1.78184150 1.18263594 -0.38433021 0.26559390
Ga 0.22657326 1.43956217 7.42956471 -0.56714562 -1.39052389 -0.36045650
Ga 12.56658400 1.59085008 7.52174323 1.43226393 -0.39272707 -0.89607467
Ga 0.13616716 4.59609154 7.46059409 -0.34521090 -0.13866836 -0.96621277
Ga 12.53740086 4.57271257 7.48341181 -1.14991664 1.60305726 0.07234645
Ga 9.50011722 1.50213062 3.84001746 1.43687711 -0.19252561 -0.77157319
Ga 21.99637969 1.43101523 3.91101416 -0.81403837 -0.13461573 1.53700307
Ga 9.46174943 4.60117495 3.87668255 0.62008639 2.95760167 -2.08619691
Ga 21.90017145 4.57245597 3.96812368 -1.77408228 -0.38831268 -0.93549067
Ga 8.24201686 1.52012149 9.55681366 -0.62921115 -1.66174699 0.31656239
Ga 20.49139554 1.53781175 9.66120723 0.98844840 1.92190882 0.92243697
Ga 8.19145614 4.65789775 9.61617746 2.32564203 1.11281951 -0.39033909
Ga 20.38293277 4.60368948 9.68454282 -2.60399608 -0.00773454 -1.17948643
Ga 7.70162943 -0.08648325 1.86041354 1.58705374 1.02699299 -1.22096660
Ga 20.18987821 -0.01600824 1.66311792 -0.12864232 0.79729698 -0.59905148
Ga 7.78709273 3.10978069 1.82049614 -0.35814962 0.70650924 -0.64505505
Ga 20.12595029 3.09149983 1.81958943 -0.70322258 1.06172748 -0.09532083
Ga 6.31064150 -0.08174665 7.45710129 -1.07938203 0.58668653 0.69766869
Ga 18.80945671 -0.05323797 7.48615613 -1.23167817 1.22548629 -0.53568510
Ga 6.30678468 3.01860812 7.53538561 -1.71681621 -0.75306289 -1.07481068
Ga 18.73620557 3.10487105 7.66919077 1.50777018 0.28717843 -0.51835527
Ga 3.29649970 -0.07196385 3.89267992 -0.10952782 2.28769393 0.39764443
Ga 15.77101092 6.14596909 3.82332753 -0.76993039 -1.19197865 -2.43884014
Ga 3.21595867 3.13635937 3.96482922 1.63287400 2.19988854 -0.48992877
Ga 15.73264483 3.07207164 3.88825577 1.25984246 -0.32432055 -0.97876655
Ga 1.88858027 0.06695933 9.53883522 1.37803936 0.74378358 -0.21728502
Ga 14.20326713 6.20630054 9.63196951 2.29168942 -0.61698005 2.33204881
Ga 1.88687235 3.08880010 9.59638355 -1.40408953 0.56573223 -0.30835932
Ga 14.39647958 3.06467104 9.60694478 -1.50771591 -0.01458244 -2.49746086
O 1.88588934 6.04432270 0.58286722 -0.57814758 -0.67639524 0.02024240
O 14.37043194 6.07988144 0.62361806 1.14605581 -2.66774678 1.49921350
O 1.98724799 2.98763016 0.59912694 0.24710066 1.05452719 -0.09665658
O 14.30208104 3.09288014 0.61138042 -1.28302452 -2.36813966 -0.56387996
O 0.56818147 -0.06335915 6.17581727 -0.48450992 1.27577887 0.09047953
O 12.96820776 6.13210701 6.30502164 -0.15283650 0.07880095 -1.60924117
O 0.46832780 3.15576388 6.33732563 -0.67569262 0.31541716 1.48427753
O 13.02847061 2.92988000 6.26258543 -0.06747954 -1.51823587 -0.82400359
O 9.11252566 0.00948754 5.10263511 -0.16521691 -1.76040620 1.13500408
O 21.49545011 0.13890515 5.10253417 0.48599913 -1.21484767 0.20353990
O 9.03295130 3.09595359 5.01082561 -0.13977274 -0.84945689 0.22986391
O 21.59494222 3.14524908 5.04153760 -0.63041693 -1.16639732 0.50676512
O 7.86694145 6.10584009 10.72847771 -1.36707343 0.05770637 -1.30241172
O 20.23914110 6.17932451 10.72705834 -0.17122726 -0.17661022 0.02662062
O 7.66503710 3.07265832 10.76104018 1.24187150 -0.88456411 1.29106051
O 20.26067716 2.96518666 10.63547009 -1.54284937 0.68314608 -0.55464027
O 7.99468183 1.54237109 0.54386464 -1.26234125 -0.96303402 1.09531549
O 20.52847785 1.54228275 0.55520948 0.87954888 -0.28594329 1.08881540
O 8.10154457 4.64034777 0.67742481 1.75327247 0.78843474 -0.63211275
O 20.39304301 4.61111120 0.49958960 0.34346239 -1.54755378 1.53766739
O 6.68512237 1.56003654 6.29341404 0.79134982 0.77349184 0.70285594
O 19.07678926 1.44475465 6.36959455 0.24401258 -0.45153649 -0.09736415
O 6.63791723 4.58118438 6.25913943 1.68974807 -1.21578291 0.44973703
O 19.11689125 4.68898870 6.25330746 -2.31498410 -2.00910761 -0.38832474
O 2.93540669 1.49577455 4.95941942 2.77085240 -1.08945732 0.54652651
O 15.40485959 1.52434521 5.08291946 1.40549903 0.54698604 1.18751676
O 2.85678793 4.61334036 5.00931835 1.10713557 2.72691742 -1.44220454
O 15.40257427 4.65798711 5.07933912 1.65237704 -1.42503724 -0.42436927
O 1.61939638 1.45370822 10.76519363 -1.74596791 0.06701560 0.33586026
O 13.97339308 1.68757862 10.64323403 -1.75584513 0.95284583 1.82845723
O 14.07748538 4.55865169 10.81137003 -0.31084978 -0.23406163 -3.25123602
O 1.47629669 6.19452211 3.08782620 -0.88381044 -1.64140925 -0.91061241
O 13.80077113 0.10013421 3.27020222 -1.59942403 0.17578261 -1.78448011
O 1.44120141 3.15764982 3.21417968 -0.12038299 0.11192699 0.11535057
O 13.80967345 3.10282421 3.19685080 -1.74581917 -0.40977510 0.86240904
O -0.02014091 0.00651361 8.91428620 -0.14673959 -0.30635460 -0.65086508
O 12.44443020 0.00622221 8.88560440 -0.83949742 1.61878593 -1.58933702
O 0.04511304 3.16574282 9.11058418 0.79263896 -0.08749934 -1.80258206
O 12.39333831 3.07598981 8.89783988 -0.77616912 1.34443940 -1.08805836
O 9.58282928 6.12511060 2.44767046 2.19646808 -0.79295457 -0.13222740
O 21.96213169 6.10607718 2.43083608 2.29100340 -1.54699938 -0.05433747
O 9.55690699 3.09869033 2.40981939 -1.38029524 -1.18224756 0.97429122
O 22.03684975 2.95553722 2.45609882 -0.44164790 0.94577492 -1.01151162
O 8.33873440 -0.10178066 8.14200277 -0.11263727 1.27960368 -1.07681188
O 20.62741586 6.09297915 8.08294358 0.74207393 2.33758122 -0.15600849
O 8.33112093 3.05089327 8.31223949 -1.57034592 1.18032072 1.37654931
O 20.68960249 3.17235780 8.04965713 0.41657797 0.66783381 0.53040743
O 7.54450962 1.48536852 3.21484753 -1.36226754 -0.74487442 0.86212359
O 19.97179078 1.52904417 3.20665674 1.54554278 0.17968860 -0.37897587
O 7.53000859 4.63379064 3.24042558 0.50289855 -1.54392854 -1.39910850
O 19.96412492 4.64479965 3.24903006 -0.43821010 0.74092153 -1.17555490
O 6.08725224 1.62987309 8.88728234 -0.17841919 -1.08344126 0.31326287
O 18.61529305 1.58948099 8.84822898 1.50127671 0.04652518 2.48242859
O 6.27915193 4.66131571 8.87548840 -0.93736568 1.09538985 -2.18941202
O 18.57041488 4.63385169 8.98485333 -1.04087453 -0.57885183 -0.22717758
O 3.44622245 1.45260524 2.43400341 -0.91630877 2.05508201 -0.33153398
O 15.86952949 1.60096717 2.45876236 -0.66956016 1.36010882 1.97875875
O 3.41300725 4.66860048 2.43916669 -1.03996263 0.87274975 2.64897632
O 15.87515600 4.54808829 2.47049107 0.64455367 -1.02101340 -1.74175606
O 1.96353232 1.44404484 8.15049379 0.28120981 0.70674789 1.12532698
O 14.48041037 1.54409622 8.19106029 -0.85322148 -0.30436134 0.51860331
O 2.11585023 4.54851698 8.19117090 -0.58372662 -2.76217579 2.07035254
O 14.49071831 4.58864924 8.15577796 -3.37020757 -0.08447055 0.94576792
O 12.03064361 1.51713837 1.48624016 0.52930845 -0.82671548 -1.22880354
O 24.40690182 1.56788789 1.49817876 2.36317712 0.74310149 0.68372971
O 11.98104388 4.65850368 1.51258037 1.46439721 0.84030425 1.10840421
O 24.48188374 4.62771785 1.40661697 0.41965739 0.36692670 -0.71490473
O 10.56945566 1.49291773 7.23928033 0.08678490 0.45629573 0.24429523
O 23.09968995 1.44631161 7.13234388 -0.91511885 0.16578615 -0.46604645
O 10.58257593 4.64991913 7.18035414 0.41843993 -0.60311383 -2.12274229
O 23.04330857 4.65173624 7.18092677 1.16858815 -1.10291578 0.50136216
O -0.88429596 1.42254490 4.35513175 -0.34985605 0.83542755 0.17058333
O 11.52034529 1.42802492 4.19208804 0.20745878 0.31742558 0.51217375
O -0.90674992 4.56481609 4.22230876 -0.72304494 0.94265739 -0.08768377
O 11.36100939 4.66385448 4.25721846 0.76833321 -1.43196514 -2.61012921
O -2.29098193 1.52032344 9.81965086 -0.18786142 -0.64458494 0.30898492
O 10.12869007 1.45502842 9.97427800 -1.61813101 1.94239967 -0.93546771
O -2.43024257 4.55464549 9.93978383 -0.23281124 1.60988245 2.33606581
O 10.00038192 4.53427678 10.01340961 0.54441528 0.31673983 0.63015596
O 5.85005838 6.15572152 1.52781307 1.39842902 -0.23918599 0.07061534
O 18.20642534 0.09324142 1.57294780 -1.13674400 1.44524996 -0.23222032
O 5.81483077 3.21317625 1.57746766 0.90946581 -0.95208868 0.01426438
O 18.20926556 3.10126099 1.38971635 1.51567270 -0.44679469 0.44295086
O 4.44621717 6.14139127 7.16174155 0.79171907 1.93411959 2.28673803
O 16.80689464 0.00910739 7.17793714 -0.60417478 -0.22428565 -0.17163838
O 4.39705594 3.10780448 7.11992021 1.82971223 -1.49892913 -0.07070647
O 16.93991631 3.06631154 7.10100620 0.04027397 1.24774311 2.05819690
O 5.21554652 6.03412981 4.24021336 2.11072911 -0.56935285 1.65562177
O 17.59743213 -0.00512324 4.19056437 -1.17583593 0.50417741 1.83522337
O 5.31531791 3.21782762 4.24557799 -0.05627917 -1.96763711 -1.52030156
O 17.62011095 2.94881085 4.23925110 0.33054276 0.08499019 -0.87480977
O 3.86088718 6.10460415 9.79013903 -0.40606729 1.28548815 1.64445092
O 16.49001076 0.05910496 9.96146486 0.58306922 0.08444017 0.32191439
O 3.89385130 3.10597795 9.91169829 -0.17126144 -1.33590441 1.54747118
O 16.19150314 3.00707774 9.99317747 0.31022010 1.46121275 -0.63877314
159
Lattice="24.837665 0.000000 0.000000 0.000000 6.149467 0.000000 -2.770686 0.000000 11.385403" Properties=species:S:1:pos:R:3:force:R:3 Energy=-624.229862 Virial="-57.399571 -2.987407 -1.946498 -2.987407 -46.583239 -5.142831 -1.946498 -5.142831 -39.785414" pbc="T T T"
Ga -0.09373552 0.06590618 4.53328636 2.33141919 -0.47352059 1.34175549
Ga 12.43873688 6.10486428 4.60075289 -0.98650921 -0.21577644 0.49163076
Ga 0.01631404 3.25680012 4.51937859 -0.25266303 -0.48862687 -1.80087652
Ga 12.59381924 3.05669853 4.52319295 0.82233825 0.77760396 -0.36071805
Ga -1.40680707 6.15753852 10.34964509 0.99031322 1.41638119 -0.85685332
Ga 11.13596308 6.14152351 10.29343937 -1.62363973 -0.57703572 -0.67323650
Ga -1.35028643 3.05668227 10.11048124 0.98283331 0.01789329 0.16294211
Ga 11.02408774 3.10300702 10.21156733 -0.72705383 -1.63819415 -1.70662741
Ga 11.08729101 0.06329866 1.08827365 -1.32552636 -1.13582781 -0.61798901
Ga 23.47750617 0.01092779 1.18564231 -0.62091002 -0.01652730 -1.84100907
Ga 11.09689076 3.05650539 1.16108767 -1.54560672 -1.40489249 1.69468308
Ga 23.49221751 3.05660649 1.24454390 1.49297287 0.83268344 0.13985644
Ga 9.64468478 6.10649620 6.79352616 0.08124503 -0.25306461 -0.85548262
Ga 21.98990194 0.15808063 6.87584352 0.28259633 1.01329249 -0.31134109
Ga 9.62344489 3.07247109 6.83061953 0.65818742 1.60698001 -1.40323310
Ga 22.18485685 3.06770451 6.77598020 -0.23433568 -1.20613288 0.47795489
Ga 6.15295784 1.51995248 4.42715581 -0.76717313 0.69811648 -0.05569869
Ga 18.62128521 1.46411202 4.47171784 -1.21049576 0.96701876 0.40263478
Ga 6.19009197 4.65608442 4.54419539 0.36913367 -1.98915046 0.01826585
Ga 18.62568625 4.55303421 4.50906462 0.53403528 0.90577100 -0.92784689
Ga 4.98982378 1.49428130 10.20987717 -0.06841438 -0.38263086 0.85192741
Ga 17.18948270 1.45439040 10.17468701 0.50811064 -0.44920608 0.21748849
Ga 4.92920735 4.71004030 10.24014774 1.01003013 -1.28559057 0.57574593
Ga 17.23113411 4.58032729 10.27870370 -1.31523013 -0.77298520 -0.95944071
Ga 4.74950198 1.55726141 1.23269824 0.12211863 -1.51098399 1.70522924
Ga 17.27609248 1.55642332 1.19971116 0.45381945 1.59592594 -1.43440960
Ga 4.75809844 4.60679161 1.19876339 0.44083006 -2.87093420 -2.34940292
Ga 17.19969113 4.60561145 1.26274641 1.54917334 -3.30667482 2.54472971
Ga 3.52987159 1.48524333 6.86778928 0.54105422 -0.78981771 0.43737493
Ga 15.78955157 1.48404909 6.87260333 0.59026731 2.59063825 0.29209141
Ga 3.36693954 4.64789759 6.78928163 -1.03780054 1.66792271 -0.06000480
Ga 15.89515534 4.56094610 6.88822332 -1.24269805 -0.56088000 -2.04308938
Ga 1.58069248 1.44428422 1.83376879 2.04857414 0.01059607 0.89572282
Ga 13.93111761 1.48222917 1.90203567 0.15073440 -0.12117101 1.55553877
Ga 1.59538064 4.64035437 1.76754651 0.65726056 0.80437492 -0.46232948
Ga 13.99495208 4.59559045 1.65749254 1.19418116 0.85714153 0.39038002
Ga 0.16929671 1.46018223 7.40473541 -1.90139905 -2.05493056 -0.11163970
Ga 12.63174201 1.57751541 7.51537958 0.44876962 1.20000730 -0.23506192
Ga 0.20818657 4.59089092 7.46245290 2.44209053 1.47948974 1.36520887
Ga 12.63222369 4.59364721 7.45032055 0.33985084 2.64520260 2.78590016
Ga 9.55521223 1.58563366 3.85658395 -0.48029284 0.43201502 -0.97317945
Ga 21.96181765 1.61065890 3.89865966 0.58988413 2.68253761 -0.70461687
Ga 9.57761248 4.54646266 3.99635846 0.91005960 1.00085237 0.44182150
Ga 21.94632013 4.62572535 3.83013819 -0.02704116 0.30249332 -0.16821901
Ga 8.08368439 1.56352105 9.58225083 -0.23700855 1.07196398 -0.20482375
Ga 20.47134607 1.43145791 9.52685759 -0.94086932 -0.89411667 2.26293123
Ga 8.18791786 4.65476089 9.69028980 -0.93100899 0.27121030 -1.63747104
Ga 20.45347509 4.57687493 9.64303816 0.08553879 0.75244711 1.26918090
Ga 7.84161291 0.01703078 1.80889502 -3.93375679 0.06118926 1.38001754
Ga 20.11210019 -0.02317745 1.73539182 -0.31678136 1.42331164 -0.40919198
Ga 7.67619108 3.15854047 1.81943817 -0.22746940 2.68547665 1.13142371
Ga 20.13165569 3.02171759 1.82679624 -1.06737747 1.40313655 1.00047965
Ga 6.41126966 0.06740953 7.50900945 -0.36104482 0.45829801 0.64310923
Ga 18.69517141 -0.08617523 7.48830475 -2.91951675 -0.65459860 -0.57431429
Ga 6.37123916 3.09733100 7.45836356 1.05246365 -1.13600985 0.87088296
Ga 18.82580686 3.15286304 7.50274428 -1.28071957 -1.71020287 0.05545354
Ga 3.41694003 -0.03941961 3.89959455 0.69197775 -1.09519283 -0.47055368
Ga 15.67939020 6.05542113 3.92805136 2.11422068 0.11319202 -0.04301913
Ga 3.22314796 3.13606669 3.93602607 -1.19679326 1.23852742 -0.67637172
Ga 15.72246200 3.00324213 3.93224442 -0.98814612 -1.35416419 -1.18124572
Ga 1.96708333 0.03297233 9.54011030 -0.79178302 -0.04875482 -0.55193363
Ga 14.42883649 6.23592129 9.70646473 -0.91067891 -0.29268792 0.02634883
Ga 2.04406277 3.16169991 9.69553450 -0.57330862 -0.32775506 -0.72003992
Ga 14.26728174 3.06235135 9.59478232 -0.17344509 -1.84033098 0.51083366
O 1.73388872 6.08794707 0.63572182 0.11708806 -0.18221651 0.23714885
O 14.36842315 6.13577984 0.58641521 1.51234234 -2.33950300 0.73219628
O 1.87365786 3.08685663 0.65252653 0.76790936 -1.51098738 -0.29045601
O 14.26273352 3.05746258 0.61059312 -1.88311613 0.62654492 1.61289472
O 0.36812162 0.02476916 6.37903083 -1.56925709 0.44520324 -1.79360516
O 12.89636792 6.14375172 6.32600709 0.53926313 0.78217997 0.23717430
O 0.54961084 3.07456284 6.29698648 1.07002094 -0.49331440 1.78799353
O 12.93070862 3.05348889 6.36673766 1.57446027 0.21000449 0.68102923
O 9.18744470 0.02233521 5.03694786 2.21182243 1.03789003 0.17062706
O 21.63649905 0.12971261 5.03131691 -0.81756989 -0.23816142 -1.31067488
O 9.21982440 3.16237700 5.04277417 -0.56348746 0.85560965 -0.73558796
O 21.57655852 3.07106964 5.15259352 -0.32620682 0.07336923 0.58359099
O 7.82335086 6.22898907 10.76181861 1.81289336 0.60507877 -0.93942633
O 20.31733456 6.26931069 10.68016085 -0.14353799 -0.66585867 -0.94372703
O 7.68183147 3.01174712 10.80109668 0.60973287 -0.34135784 -1.39525979
O 20.17367633 3.05407064 10.82505910 1.74236155 -2.41925992 0.45011130
O 8.03297073 1.49974085 0.61540261 -0.14362670 0.24567890 0.13895778
O 20.46475273 1.43810000 0.62992481 -2.75461324 0.89886712 0.13688271
O 8.24294565 4.66738297 0.69918178 1.08555727 -1.66005406 -0.29343327
O 20.50582049 4.57847233 0.56451299 -1.19929761 -0.66116572 -1.43188069
O 6.78287293 1.63077556 6.53041294 -0.92711611 -0.28978566 0.57573443
O 19.02630523 1.60830297 6.44351144 0.77462544 -0.85141598 -0.81981648
O 6.77398753 4.69353432 6.38189628 -1.26164100 0.48604536 0.29444640
O 19.04780534 4.76149621 6.28394982 -0.65559965 -1.38860522 2.26591686
O 3.01253298 1.58698489 5.10683263 -1.79462598 -0.47588497 1.30216769
O 15.37241532 1.67810557 5.10494073 0.40077653 -0.38645477 -0.30723027
O 2.88021890 4.61197213 5.05324213 -0.14007682 -1.40270866 -0.13943713
O 15.31326059 4.62237061 5.04389331 0.27096179 0.54543532 -0.55065372
O 1.60521560 1.47753890 10.65162983 -1.41323889 -1.52061253 -0.80997282
O 14.01952911 1.61442230 10.67388688 1.44126477 1.83989982 0.01396139
O 1.61938263 4.51126506 10.82714016 -2.32729242 1.22595696 -0.50599486
O 13.97287753 4.61492076 10.73801962 -1.50616186 -0.67094415 -0.34257843
O 1.43467875 6.16255792 3.06897032 -0.08233606 2.83638466 0.45534960
O 13.80228912 0.01109366 3.27239209 -1.13325969 -0.06914561 0.62301471
O 1.28997739 3.12430058 3.30158766 1.48025833 0.85303183 -0.72968014
O 13.78081213 3.11769940 3.20296886 0.29435155 -0.69055282 0.71542890
O 0.00982354 -0.15515076 8.95340745 -0.58080452 -0.62026109 0.38928697
O 12.40418885 0.01619995 8.79992312 -1.15861336 0.99409192 2.26312601
O 0.00997755 3.00277180 8.94102932 1.27989911 1.05318469 0.12973038
O 12.39296412 3.04270285 8.85604901 2.92889549 -0.07611527 -0.21051810
O 9.60804516 6.13714739 2.51042417 3.05119281 0.88904785 0.71564178
O 22.08426335 6.19906019 2.50896954 -1.00462771 2.08432271 -1.97160393
O 9.70071280 3.12018614 2.37576922 -0.15519869 0.15208498 -0.48660616
O 22.05759528 3.16755327 2.52721089 0.75297043 2.50879113 -1.04574197
O 8.26960385 0.02217816 8.21048255 1.35823431 1.34532048 -0.51932105
O 20.69912082 6.03632262 8.15258211 -2.11235110 0.61034167 1.29077815
O 8.10189875 3.12016136 8.25845684 0.68404547 -1.78058161 0.83550102
O 20.74988265 3.08039887 8.28376554 -1.59418543 -0.60547254 -1.47985501
O 7.59931338 1.60868676 3.19439287 0.51292009 -1.08291691 1.95887260
O 20.00149520 1.45125788 3.19219031 -0.72311495 -0.73661884 0.09486646
O 7.63566538 4.69119585 3.09912933 0.37820202 0.17942672 2.12196637
O 19.95325128 4.60218491 3.25174431 -0.31110149 -1.39577917 1.41734517
O 6.21599594 1.58281274 8.91250097 -0.43408179 -0.97653447 0.03869968
O 18.66989727 1.43138290 8.85459918 1.68658291 -0.43011446 2.00568997
O 6.13442394 4.56242441 8.93061511 3.02859730 -0.43968584 0.33236557
O 18.58849727 4.56878420 8.88607530 -0.36244864 0.72997651 -1.03463158
O 3.31400971 1.60553001 2.56585257 -0.15999012 -0.49523890 -2.13726376
O 15.88461773 1.58099392 2.49016438 2.59434226 -0.05622710 1.51923652
O 3.53356781 4.65200479 2.50734154 0.44497635 0.35582099 -1.57651233
O 15.78503577 4.69166342 2.44810778 0.98833628 -0.26171459 0.21895065
O 2.16288619 1.53943147 8.17519145 -0.90966985 1.99703565 -0.32300274
O 14.50061793 1.44770460 8.21688747 0.61652848 -1.00070702 -0.87374662
O 1.96278887 4.62315841 8.21525367 -0.12914061 -0.52778951 -1.69274205
O 14.44679358 4.61237619 8.27345965 1.82448699 -0.09919959 0.30286603
O 11.93751561 1.62222070 1.53878389 -0.58710754 -1.44774069 -1.72365693
O 24.42097458 1.57413608 1.51497973 -0.34385994 0.03803229 -2.96633513
O 11.97872426 4.63463595 1.39726251 0.13544419 -0.21637054 -0.55856393
O 24.43567913 4.60213988 1.44507814 -0.59240428 0.22672290 -0.63134692
O 10.69998312 1.52773279 7.18985738 1.39791618 0.25793832 0.21295987
O 23.04026003 1.56753399 7.07104693 -0.50930934 -0.37274093 1.59620112
O 10.64003386 4.62356992 7.24355949 0.88311154 -0.43749411 -1.20773048
O 23.06550015 4.47817208 7.17165118 -0.42385579 -0.74022418 1.32961594
O -1.05930924 1.57766593 4.12918643 -0.76362487 -0.71926099 0.68556834
O 11.37066094 1.51447218 4.29310424 -0.88708738 2.41351782 1.23889745
O -0.93437409 4.47783635 4.31735820 1.58552130 -1.52522598 2.98638368
O 11.41816221 4.62244044 4.16874000 0.16344173 0.64897263 -0.69492840
O -2.28098666 1.63485409 9.86244422 -1.55224834 1.85411760 0.31692982
O 10.01157389 1.47839438 9.88344287 -0.75309674 0.82299462 -0.97722447
O -2.38483002 4.46689163 9.98617756 -1.59163526 -0.26449623 -0.30271900
O 10.14816316 4.67123773 9.95143481 0.59734088 -0.73669753 -1.32101197
O 5.74242566 6.11290494 1.59330906 -1.17515819 0.51713437 0.34423210
O 5.72310355 3.10589793 1.47773992 -0.16323665 -0.06937675 -0.67821724
O 18.11960196 3.12133340 1.41037291 1.63255940 1.37939472 -0.32615574
O 4.50631961 6.21639689 7.07068016 -0.91346923 -1.39525927 -0.38037388
O 16.77819123 -0.04467953 7.19400266 0.50311200 0.01783012 0.39946219
O 4.46159385 3.09713209 7.14766274 -0.31247867 -0.45319607 0.05573702
O 16.77860939 3.01938111 7.06362833 -1.04637079 -0.32819210 1.91069008
O 5.18307047 6.18038654 4.29045229 2.44044202 0.31747272 -1.42046406
O 17.60719814 -0.08171993 4.27566591 1.95286098 0.88140009 0.13801732
O 5.23955941 3.18247483 4.22229224 -0.61359768 0.89445882 0.83883873
O 17.53270640 3.08567279 4.28083826 0.16783109 0.74308164 -0.31756320
O 3.79197406 6.09871081 9.87107337 -1.89126584 -0.71419768 1.09742395
O 16.31611107 -0.02144969 9.94899308 -1.32340978 -1.68963293 -1.69229128
O 3.93292933 3.02665801 9.90570654 0.24237996 -0.33090027 -0.07643442
O 16.25244311 3.14272941 9.93785992 -0.08684213 0.67893539 -0.39280332
159
Lattice="24.823869 0.000000 0.000000 0.000000 6.146051 0.000000 -2.769147 0.000000 11.379079" Properties=species:S:1:pos:R:3:force:R:3 Energy=-623.171554 Virial="-53.363312 0.967703 -1.390649 0.967703 -43.445368 -4.157206 -1.390649 -4.157206 -41.772528" pbc="T T T"
Ga -0.03869735 0.04055102 4.61823926 3.29678984 -0.38227719 0.33148116
Ga 12.39315302 6.14077401 4.49248784 -0.50849028 -1.39388550 -1.43435667
Ga 0.07333817 3.01698529 4.48900057 -2.53082128 0.60556488 0.06151512
Ga 12.33968036 3.07656427 4.60924006 -0.03284532 -1.35779545 -0.11050501
Ga -1.38668425 6.08674869 10.27898681 0.08952911 -0.26275198 -0.45499108
Ga 10.90882963 6.16500479 10.16693888 -0.10478364 0.51229040 -1.40786026
Ga -1.47747527 3.02870502 10.24591146 -1.05665589 0.89425935 2.64067285
Ga 11.03494598 3.15112922 10.20654599 0.28183416 -0.89179602 0.04294619
Ga 11.08709344 0.10681313 1.23337271 -0.00635024 -0.48299310 0.69265738
Ga 23.50211081 -0.01269480 1.28185602 1.19272876 0.50468565 0.84682707
Ga 10.93928936 2.94907273 1.24485241 0.47838508 -0.04605224 -1.81951649
Ga 23.35725892 3.10708040 1.00500485 0.40165726 -0.25020035 -0.84412111
Ga 9.48760719 6.05463455 6.84093230 0.37829588 -1.22385633 -0.24036173
Ga 22.09989371 0.05256017 6.78952317 1.08238036 -0.63727915 0.34351394
Ga 9.75021814 2.96701069 7.00475135 1.15570301 -0.13708630 1.81142802
Ga 22.02747281 3.07442785 6.93501980 -1.86893621 2.22398652 -0.48457902
Ga 6.13592305 1.61841206 4.52890850 -1.40173998 2.68012484 -0.94910132
Ga 18.70487424 1.53519134 4.47458585 -0.89615061 0.75275010 -0.67792928
Ga 6.36765474 4.42731228 4.59437962 -1.48392619 -0.25512456 -1.55456870
Ga 18.59558088 4.65562892 4.57407625 -0.00813211 1.26038580 1.45083417
Ga 4.87090784 1.46789631 10.32299845 0.22582527 1.06965405 0.41231123
Ga 17.21939888 1.49724973 10.03485071 0.45128391 -1.06231112 -1.54007000
Ga 4.96616699 4.50862907 10.20161068 1.90299227 0.69636027 -0.15369158
Ga 17.18875181 4.69619943 10.17272930 -0.10010868 -0.15803428 -0.57754867
Ga 4.91505467 1.72004067 1.21868778 0.74387433 0.03742133 -0.02473745
Ga 17.15164856 1.53612885 1.13567829 1.66265343 3.07353949 0.14867490
Ga 4.93753016 4.66954642 1.02676046 -0.56414940 1.29643810 -0.07158280
Ga 17.25445184 4.64939617 1.15349743 -1.96052374 -0.99279051 1.40359482
Ga 3.37915967 1.44816767 6.90790574 -0.87503949 -1.03945109 1.61875934
Ga 15.91489133 1.48433184 6.95481026 1.82375420 0.99518122 3.17685737
Ga 3.33191384 4.53547512 7.09570009 0.25253608 -0.54348080 -0.19917827
Ga 15.63070257 4.73274149 6.87366058 0.07171164 0.57171042 1.27454019
Ga 1.48695689 1.64914900 1.77875484 -0.99159260 -0.21053675 0.60392971
Ga 14.00756795 1.53362313 1.70991534 0.04471135 -1.37178914 2.29770312
Ga 1.50723033 4.59188430 1.81252821 1.51599048 0.83357533 1.05474888
Ga 13.88468054 4.59803852 1.89577554 1.93532542 -0.52692549 -3.20962834
Ga 0.33398104 1.44909790 7.39569939 -0.94504146 0.37611973 -0.41808972
Ga 12.52656202 1.46069442 7.46028554 -1.55276392 0.54498444 -0.26213882
Ga 0.04744246 4.66343373 7.46746583 -0.38766173 -1.02463919 -0.49314004
Ga 12.60701219 4.65590951 7.54341493 0.92471238 -1.55928351 1.92263346
Ga 9.48525817 1.49862800 3.93858919 -2.34050890 2.12777933 1.46049594
Ga 21.97576429 1.47350978 3.88358992 1.60070270 0.20274920 -1.08875535
Ga 9.55173046 4.59347987 3.84397505 -0.09529879 0.12013532 0.68322179
Ga 21.70930932 4.65260082 4.00030429 1.06510530 -1.19894251 -1.69249794
Ga 8.14609693 1.55029255 9.62285137 -1.61862425 -0.56128635 -0.06501117
Ga 20.49750076 1.46397988 9.45382265 0.86333750 -1.77230817 -0.84629985
Ga 8.15275136 4.57474142 9.71861669 -0.38357136 -0.75202372 -1.01505641
Ga 20.56332864 4.71844925 9.57971677 -1.29993792 -0.30116066 -0.81021174
Ga 7.69712863 -0.09512034 1.77625194 2.41856753 -0.49862245 -2.69465677
Ga 20.11738202 0.07106847 1.93762601 -1.58077326 -0.17361502 1.20641009
Ga 7.70649877 3.14307753 1.71238145 -0.96906483 -0.34056264 0.86540025
Ga 20.10243783 3.15396440 1.87068380 1.68137713 1.19799591 1.84900006
Ga 6.46990850 0.02265536 7.37179665 0.26413612 -0.03627732 -1.88420092
Ga 18.71203289 -0.09711831 7.39125093 1.70512045 0.00524212 -2.51894327
Ga 6.30599204 3.08508467 7.58498811 -0.23967833 -1.02701734 1.02913541
Ga 18.54322246 3.00043744 7.56966379 0.69977282 -0.34858341 -1.51180670
Ga 3.35154922 0.13297569 3.90848162 1.62449569 1.17647295 0.31646712
Ga 15.59845254 6.17237038 4.02511900 0.70985850 1.41471767 -0.04446555
Ga 3.33900423 3.02731681 3.83204938 -0.81938655 0.31042851 1.36414423
Ga 15.73239184 3.04353484 3.80656206 -0.19118128 0.58765578 -0.69927667
Ga 1.92227167 -0.01941116 9.62939947 -0.61403898 1.92148202 0.57801840
Ga 14.46226497 6.12111360 9.58433613 0.19643615 1.72543048 1.25549048
Ga 1.98625850 3.13293838 9.63099866 -2.24285067 0.94605258 -1.79457862
Ga 14.33919295 3.06136733 9.63160760 -0.47860100 -1.42300161 2.45019925
O 1.81927060 6.15551822 0.69727367 0.17401983 0.19452766 -0.69527745
O 14.35889433 6.22533877 0.69366430 -1.06348152 0.51052851 0.31840317
O 1.95727639 2.97453778 0.60477676 -0.00209621 1.94669157 -2.99589091
O 14.15890253 3.17140100 0.49626306 -0.03279540 -1.40376138 -0.66032705
O 0.35812123 0.07309279 6.38540699 1.41493710 1.04109609 -1.49619192
O 12.79786226 6.12901701 6.43030826 0.51899757 -1.79977512 -2.39112355
O 0.41943589 2.96915371 6.31105923 0.46889520 0.80538435 -0.41262607
O 12.91169625 2.98778315 6.29042664 0.70353210 1.32929702 -1.22555771
O 9.17113121 -0.03588631 5.07929650 -0.56243022 1.38250853 -0.55979134
O 21.57880914 -0.04435855 5.11582922 -1.39005548 -0.14499090 -0.27028854
O 9.20511998 2.85326731 5.03198774 0.93856375 0.36723331 -0.12714609
O 21.58176211 3.16486552 5.15694826 1.03103318 1.41389423 0.74821364
O 7.88391253 6.03104922 10.73657118 -0.66164623 1.72208535 -0.22208893
O 20.12102682 6.23110639 10.76318858 0.28643154 -2.33914761 -0.66559273
O 7.75768957 3.03796865 10.87641200 0.06576767 -0.23767208 2.06582943
O 20.06995053 3.05573382 10.82577295 0.59611234 0.69551840 -0.44800015
O 8.08536576 1.55714565 0.62105927 -0.58927165 -0.37784753 0.51193607
O 20.49068743 1.60551546 0.55983446 -0.28519503 -0.23865209 2.67340601
O 8.17967428 4.70969553 0.60666685 0.94743039 0.85071822 1.77731670
O 20.43221750 4.69908259 0.55926815 -1.96396387 -0.39402609 -1.68343085
O 6.58106157 1.41036430 6.30673926 -0.02360443 1.10882816 -0.06310623
O 19.17510789 1.49305939 6.34564872 -0.59033768 0.44288855 -1.07905878
O 6.65090444 4.57223081 6.29947323 -1.67010111 -0.81516956 -2.29843373
O 19.12364345 4.75427469 6.37131647 -1.05294074 -0.47942664 0.09567051
O 3.06062564 1.74656655 5.11485343 2.15330867 -0.44753497 -0.39997279
O 15.33269453 1.47702088 5.08023529 -2.80727195 -0.12282246 -0.83524612
O 2.92421125 4.62726724 5.10217111 2.18576349 -0.58488558 -2.32481646
O 15.43154977 4.64760132 4.98820495 2.75436650 -1.03924594 1.52634196
O 1.55947880 1.49304286 10.86378245 0.12670956 -2.16457874 -2.90163650
O 13.99012227 1.56114090 10.73828167 -1.07525760 -1.17575537 0.47494572
O 1.57897365 4.53895294 10.74981282 0.90008377 -1.36199790 -1.01996956
O 13.80865106 4.48083997 10.62771657 -0.86112434 0.03928078 -0.36769016
O 1.53434131 6.14816923 3.30561180 -1.54098556 0.15322722 1.41487954
O 13.76874970 -0.06605055 3.18123646 -1.37163682 -0.04233430 -1.19384171
O 1.35732210 3.05971020 3.17108262 0.36400308 -1.00518926 -0.92194282
O 13.77792919 3.01290588 3.05204664 2.56454296 0.25930593 1.98802059
O 0.05173052 0.04613166 9.01454624 -0.44113758 0.64813940 2.15247868
O 12.32387442 0.03147935 8.83757862 -3.01959854 1.12582930 0.88123784
O 0.12718689 3.08538803 8.89406663 0.55451033 -1.63109755 -0.80659231
O 12.37308678 3.19232901 8.74332224 -0.11523894 -1.04527766 0.74219568
O 22.02180125 5.99052893 2.47428850 -0.01130144 -1.66992567 1.37678575
O 9.61732143 2.96219051 2.50696540 -0.12139641 -0.67868319 0.59191629
O 22.07802264 2.94360657 2.48370049 0.33376838 0.79209395 -1.06077010
O 8.35252049 0.09297760 8.30624744 -1.64795761 -0.07074772 -0.89061362
O 20.54058302 6.19394314 8.13352059 0.04188861 -2.74917142 -0.37529533
O 8.33109403 3.04831821 8.19525108 -0.76010874 1.52546091 -0.75575345
O 20.70062015 2.90057734 8.10347665 0.90823930 -0.98203789 -0.59249927
O 7.44473413 1.58466608 3.17451059 1.24863211 1.27146999 -0.42399809
O 19.81470996 1.52874184 3.11801449 -0.37445416 -0.61064760 -0.07432029
O 7.52876216 4.49623597 3.21581629 1.27381079 1.58161353 -0.36198199
O 19.91887189 4.68930123 3.09762843 0.37384769 1.05157575 0.99390612
O 6.35629698 1.57699992 8.92819410 -1.62868548 -0.44874884 -0.54842683
O 18.67308556 1.66764886 8.97213861 0.59172498 0.51801900 0.15930921
O 6.14324381 4.66680814 8.85163328 1.81293156 1.40701440 1.86583407
O 18.49245381 4.68523882 9.04348465 0.04525659 1.55864484 -0.20938600
O 3.45575101 1.55583787 2.44055546 1.97498516 -2.61536808 0.43758358
O 15.83574870 1.30503833 2.30879763 -1.00788410 -0.42761760 0.32965069
O 3.41338054 4.67754332 2.65548663 0.99661875 0.65740289 0.86500905
O 15.92794850 4.58847138 2.53532445 1.99529930 -0.53914915 1.14543109
O 1.98040874 1.46973866 8.08762821 0.75254539 -0.76256451 -2.07803550
O 14.38647413 1.43649296 8.22569124 -0.93125828 0.56389318 2.07392941
O 2.02350523 4.62756652 8.17928657 1.27629618 0.76934589 -2.85997829
O 14.42210277 4.54454017 8.17202688 0.50566465 -2.06652688 0.42800790
O 12.00414072 1.50963545 1.45925699 0.51552859 -0.12790009 0.44850926
O 24.47805020 1.48976532 1.42923940 -1.02285115 0.88353518 -1.89170637
O 11.97712405 4.64993077 1.50130018 -1.68462212 -0.36332910 1.12338631
O 24.30040640 4.61878420 1.48245486 0.41495910 0.00406715 -0.45997862
O 10.60353444 1.58444430 7.20922497 2.50975827 0.58297563 -1.90022144
O 22.83946256 1.61859719 7.17594792 0.05677274 1.25952033 0.97871485
O 10.54403902 4.45854413 7.23499328 -0.00762354 -0.76715665 1.50033653
O 23.13605806 4.68943441 7.06965724 -2.44417004 -1.07594349 -0.37052450
O -0.96714127 1.61994730 4.20203387 -1.08861599 0.18793328 2.42660297
O 11.54407258 1.56781898 4.16419472 -1.13479282 -0.62104536 1.16252373
O -1.00324853 4.74280733 4.26692691 -0.61620660 -0.21209507 1.68864107
O 11.44279913 4.53582967 4.21391988 -0.51888014 0.77750858 0.79232930
O -2.31342223 1.37122552 9.95283953 0.82399332 0.31845452 1.02541749
O 10.21457013 1.56115125 9.94920235 0.38576897 0.69848267 1.10079439
O -2.32363701 4.51853061 9.82644072 -0.33778364 -2.75059772 0.62717174
O 9.95809940 4.68484153 9.85229253 -1.33489577 1.38213343 1.11180638
O 5.74112539 6.20749859 1.38623906 -0.59767193 1.41155244 -1.28023943
O 18.17169488 0.00284017 1.50606682 -1.63754555 -0.03696834 -1.14115464
O 6.04491954 3.21594568 1.33403647 2.43048578 1.20107130 0.68887586
O 18.18286992 3.19891499 1.40501960 0.90065289 -0.42628672 1.37065220
O 4.52038587 6.18062065 7.09206513 1.28035791 -0.53805611 -0.91679921
O 16.83746956 0.10853918 7.18611702 0.74031163 1.41758463 0.80874751
O 4.36928250 3.11847180 7.27624771 -1.10486594 -0.21541753 0.37939995
O 16.85824461 3.06031420 7.09352037 -0.02992129 -1.89842938 -1.41621178
O 5.33978814 6.18159929 4.24022316 0.00801035 1.32512428 -0.58514851
O 17.63154027 -0.02124293 4.43996697 1.87623567 -1.51329881 -0.34631000
O 5.23537121 3.03506373 4.26295723 -2.60287055 -1.18565696 0.57081791
O 17.69137457 2.99259754 4.12565618 -1.24116448 -1.92397221 2.96458084
O 3.82387313 6.15960617 9.97016862 -0.56143970 -0.73280415 -1.35410390
O 16.26484108 0.05297634 9.96684692 -4.04674527 0.76032723 -0.45162236
O 3.72456694 3.00014963 9.83882167 1.56636086 -0.34433015 1.51237775
O 16.11962161 3.13607513 9.91460429 0.63381395 0.84044498 -1.10935938
159
Lattice="24.869822 0.000000 0.000000 0.000000 6.157429 0.000000 -2.774274 0.000000 11.400144" Properties=species:S:1:pos:R:3:force:R:3 Energy=-624.576278 Virial="-56.132316 2.120666 -4.776914 2.120666 -45.138911 -6.753130 -4.776914 -6.753130 -45.385329" pbc="T T T"
Ga 0.01196559 -0.02250159 4.52885137 -1.45684072 0.06130834 -0.68205464
Ga 12.45798163 6.13973920 4.51744022 -1.61717316 2.47452244 -0.68113277
Ga 0.06840550 3.05111896 4.50408637 1.03040970 -0.08755551 0.32245524
Ga 12.44387772 3.09387414 4.51169374 0.40233008 1.49130725 -2.56952744
Ga -1.41250569 6.14967348 10.16961888 0.63574641 2.15712008 -0.01949455
Ga 11.09219875 6.11778420 10.26073470 -0.59952016 -0.38930010 -1.85766364
Ga -1.41260748 3.05457152 10.24317680 0.54298051 1.78449663 1.30423277
Ga 11.00747394 3.08840196 10.25795097 0.29729659 -0.48743182 0.55494575
Ga 10.99336834 -0.00390881 1.19017046 -0.64514399 1.43686120 0.19885184
Ga 23.44824100 0.00201624 1.15334953 -2.49493958 0.68248429 -1.29745241
Ga 11.01259012 3.07770320 1.22127332 0.20084167 0.27749601 1.23210768
Ga 23.52908389 3.12917431 1.17747821 1.67237552 -0.94767608 -2.55322103
Ga 9.64813863 6.21107004 6.92066924 -0.66046967 0.47441347 0.07898231
Ga 22.00875416 -0.02237648 6.92180392 -0.04394454 -0.17117260 0.62168265
Ga 9.63179134 3.04403902 6.79437226 -0.86629837 -1.19782764 1.71555966
Ga 22.06084865 3.04156853 6.88098372 1.28109819 0.18499684 -0.81963978
Ga 6.20695862 1.54492537 4.54905938 -1.90975165 -0.53880205 0.06013605
Ga 18.68008368 1.51018818 4.50722459 -0.05143815 -0.73682475 -0.67340262
Ga 6.19158256 4.63210063 4.49973345 0.23785464 -0.43314659 -1.21034412
Ga 18.66316800 4.60896073 4.53822324 -0.76852593 -0.73746212 -1.48204168
Ga 4.82564714 1.53217884 10.23107538 1.63124848 -2.12345047 -0.58348360
Ga 17.26927399 1.57684654 10.21089989 -0.99145000 1.55182889 1.42444098
Ga 4.84909312 4.58328180 10.23970530 0.44044241 -2.19712488 -2.25707503
Ga 17.33465126 4.68108038 10.19878317 0.92285131 0.09043560 -0.10637367
Ga 4.80412668 1.55472889 1.18179595 -1.87131455 -1.54680349 0.35019193
Ga 17.26423758 1.47518507 1.11768799 -0.86567965 -1.24696170 -1.17862684
Ga 4.79777292 4.58188304 1.19119767 1.92239635 -2.22019551 0.44875521
Ga 17.28288972 4.63537937 1.19737853 2.32264484 -1.32119887 0.57610939
Ga 3.43502105 1.52520008 6.87469394 1.36725484 0.41748897 -0.57673170
Ga 15.91930179 1.48682077 6.85370827 -0.42573464 0.07350757 -0.20624361
Ga 3.41416959 4.65597442 6.85860823 0.98207406 -0.68914444 0.67508844
Ga 15.85230659 4.60152773 6.86084547 -0.16549237 0.37283833 -0.63268794
Ga 1.53389079 1.56088266 1.81478267 -2.32881103 -0.32297227 1.83095627
Ga 14.00942212 1.56222054 1.82853600 -0.45263073 3.12172694 1.18459028
Ga 1.52226119 4.64733564 1.78053914 -0.03648317 0.70648162 -0.17307619
Ga 13.98371071 4.69690220 1.76322377 1.38917680 0.47418156 -1.13435438
Ga 0.14651299 1.51184595 7.53110430 -1.04758102 -1.21488919 0.09776429
Ga 12.58885964 1.51342431 7.43435290 -0.07271814 1.05769068 -1.56862519
Ga 0.14692002 4.61441616 7.46217057 0.95790915 0.21946471 2.27671959
Ga 12.65363999 4.60957764 7.53772381 -0.33067950 1.43413570 -0.03538384
Ga 9.46764394 1.51405892 3.89841635 0.00653710 -0.96445944 1.78913149
Ga 21.93530834 1.56556464 3.90371123 -1.81353717 -0.15610224 1.26715119
Ga 9.45016891 4.61438450 3.92262446 2.53173128 0.45337565 0.12056164
Ga 21.96828770 4.63280145 3.94318359 -0.10413970 1.29544380 -0.98173150
Ga 8.13972426 1.59023046 9.59079062 1.51731682 -0.39116056 0.07682821
Ga 20.54063610 1.55274239 9.62143812 0.81026982 -1.99934732 -2.74719361
Ga 8.14157417 4.63590081 9.63105319 -0.41600329 -0.50652808 -0.90639154
Ga 20.52335789 4.57653839 9.67757456 -2.46093523 0.30384797 0.17158637
Ga 7.77444102 -0.01317099 1.81871627 -1.18100026 0.66847241 0.89441049
Ga 20.16265590 0.01276095 1.77904880 -1.49445942 0.80563979 -0.70655213
Ga 7.78284691 3.05083305 1.78381019 -1.08175660 -0.38198828 -0.66061082
Ga 20.17736517 3.07026803 1.81052311 -0.12172717 0.76795867 0.51705059
Ga 6.39493151 0.03222496 7.44625783 -0.08306843 -1.90914901 -0.08919125
Ga 18.78583538 0.02206945 7.47999759 -0.81176283 -0.91630648 -0.48169267
Ga 6.33401613 3.03075335 7.48794423 0.64430515 0.25524812 -1.39483975
Ga 18.77738807 3.05359685 7.48397990 2.45247452 -1.32169235 -1.04900376
Ga 3.25909896 0.03095968 3.93699841 0.92097827 1.43660423 -0.97466651
Ga 15.69054555 6.09370763 3.86281369 -1.31638183 -0.63800731 1.02130406
Ga 3.33646247 3.09884706 3.92845695 1.12686367 -1.10251980 -1.06270465
Ga 15.72748693 3.11091962 3.88935514 -0.14790584 -1.11730204 -1.31394472
Ga 1.91432486 -0.00049501 9.60303599 0.97742012 0.04332460 1.28328221
Ga 14.40134642 6.17609279 9.62179733 -0.17150807 1.70253655 -1.13976467
Ga 1.96587211 3.06929421 9.57946950 0.80337628 -1.80198011 1.04572194
Ga 14.28547583 3.03373354 9.57121759 -0.12198538 -0.12954042 2.38748932
O 1.85276202 6.16703359 0.58740949 -0.49825751 0.31910050 0.62622079
O 1.86135786 3.07703953 0.62297797 -0.73932348 -1.60014474 1.25766181
O 14.29542974 3.11451388 0.63000649 -0.64132104 -1.41266979 0.76098485
O 0.51215829 0.04360263 6.29660006 -1.13233570 -0.79843889 -0.75870818
O 12.91942286 6.18692491 6.31876155 0.34219754 1.40145538 0.26899384
O 0.50363920 3.12029291 6.28401611 -0.29980344 -0.37281241 1.93173288
O 12.87976050 3.08774622 6.33469729 0.42189752 -0.22846695 0.12469572
O 9.17898859 -0.00360543 5.04260036 0.52231296 0.50169679 0.55797329
O 21.60676295 -0.00006194 5.02779253 -0.90176388 0.99257733 -0.45193914
O 9.16451970 3.06919985 5.08202479 -0.33418361 0.36058936 0.59218815
O 21.57135103 3.06174379 5.06621986 0.40085685 -1.66439343 -2.16781120
O 7.77710435 6.14290807 10.79256936 0.43026874 0.31619797 -1.65209735
O 20.23114657 6.12935826 10.76307348 2.12778364 -1.30321664 -0.29052261
O 7.80264603 3.08250371 10.80866851 -4.00024845 -0.81425258 1.06058909
O 20.15432569 3.06243929 10.77592268 -0.32748026 1.83406726 -0.94669942
O 8.10941565 1.55501549 0.62255987 0.63660459 -0.72802054 -1.83289518
O 20.54065590 1.52631773 0.60915770 -0.74557323 -0.62051411 1.52855405
O 8.07634386 4.63179292 0.64067566 0.45999799 0.60770672 -0.25921142
O 20.56468103 4.57467010 0.61562932 -0.78372818 1.09548321 0.94669744
O 6.71892115 1.51661951 6.30851450 -1.89125111 0.97267990 1.53174490
O 19.15110967 1.54596381 6.31025139 -0.79747882 -0.52506842 -0.71073632
O 6.72105642 4.61053739 6.35410641 3.48653649 0.07806570 0.70904342
O 19.09705508 4.58567696 6.33695405 2.39788868 -0.71096562 -1.63268336
O 2.94653265 1.52039611 5.05498603 -0.92025455 -0.94912008 1.06822110
O 15.38672087 1.56000339 5.08780222 0.71771075 -0.06367153 -1.39871332
O 2.92190215 4.54369183 5.07610563 -0.90064109 -2.00308577 0.41443326
O 15.40243479 4.64751648 5.06116497 2.53400256 0.62901419 3.80100899
O 1.58476861 1.54023410 10.74844219 0.11318503 1.30287775 1.10272090
O 13.97886729 1.59440402 10.76608339 -0.52604043 1.58558120 -0.55194847
O 1.60928021 4.61453645 10.78062344 0.53831776 -2.72189408 1.47268048
O 14.02668284 4.61657641 10.80618369 -0.15513086 -0.51965648 0.65623294
O 1.32582285 6.16183607 3.24202710 -0.01646755 0.80247706 0.34633403
O 13.84678979 -0.06593559 3.21869570 0.35250593 1.54664162 -1.71168254
O 1.39528645 3.06169719 3.22673821 -0.29971951 1.31614197 0.46608453
O 13.91727050 3.07703803 3.17552475 0.84310138 -1.36784443 1.10415545
O -0.01821911 -0.04823751 8.95651374 -0.60486431 -1.43777311 -0.34923606
O 12.39278962 -0.03357428 8.87342559 -1.88498725 -1.07314998 0.07945355
O -0.01616180 3.03697901 8.88984006 1.37234303 0.13508835 -0.90637693
O 12.46393967 3.05534203 8.89480943 -0.00616459 1.45120800 0.27601491
O 9.68813866 6.10158738 2.42885069 1.21537017 0.21837140 -1.07413553
O 22.05866361 6.16083741 2.47188963 0.61769616 2.54896337 -0.62147844
O 9.64861297 3.07298877 2.48053773 -0.24718730 0.18309843 1.61807982
O 22.09886262 3.12264087 2.48263596 -1.25025625 -1.18856062 0.77333684
O 8.30444047 0.01972831 8.20695512 0.22634169 0.19645947 -0.04951088
O 20.74131751 6.20907960 8.20323639 -1.56779224 0.87996514 1.32622905
O 8.31036669 3.14032315 8.18943782 0.68776438 -0.25843291 2.75953385
O 20.69753206 3.05852609 8.17458804 0.80696965 -0.99224112 -1.07075419
O 7.56313511 1.51350678 3.21446016 1.41451316 0.49835859 0.32369587
O 20.05742928 1.57140432 3.24402902 -1.82820120 3.14555441 -0.30121388
O 7.58383518 4.60357478 3.18349144 -0.31870072 -0.55569328 0.17460116
O 20.01717130 4.62538653 3.20192885 -0.38462202 1.77230365 2.96715730
O 6.22527351 1.54441791 8.88565546 -1.57755235 -0.18285768 -1.74786703
O 18.63003543 1.53433056 8.90468620 -3.78563570 0.19552093 -0.33527364
O 6.22907194 4.60782798 8.96609872 0.06934624 1.44374113 0.08472707
O 18.62838366 4.60335664 8.96592413 2.02355564 -0.65389770 1.02535041
O 3.48040244 1.55280999 2.50698361 -1.74279124 -0.58469840 -0.07790436
O 15.93522382 1.51854993 2.51476623 -0.63663119 -1.84485993 -0.85872780
O 3.41451372 4.54746451 2.43106613 0.83154879 -2.47852851 0.98786693
O 15.88943168 4.66525900 2.47719027 1.44125611 3.23298329 1.11508962
O 2.05707598 1.60107833 8.15583514 -0.96034720 0.56405386 -1.38725843
O 14.49496065 1.56018016 8.19856161 -0.75318009 -0.13995963 -0.63833170
O 2.04589546 4.57381749 8.14706814 0.66860975 0.19222777 0.53134167
O 14.51935735 4.61897976 8.15661557 -0.68166890 0.61845976 -1.64575460
O 12.00239162 1.50137608 1.44169274 1.83441052 -0.29189555 -0.22508887
O 24.47255448 1.57781788 1.48702888 0.52928681 0.00497345 1.92904860
O 12.03680377 4.62631943 1.45502811 -1.40205930 0.00430481 -0.41551268
O 24.44681965 4.53611145 1.48584490 2.01075052 1.02380000 -0.07251542
O 10.60390069 1.51268621 7.14506328 0.98540980 -1.41388168 -0.00205068
O 23.06453858 1.53782885 7.14965076 0.51378511 1.21213761 2.32679703
O 10.60880487 4.55108894 7.21386437 1.38120359 -1.50232918 -1.71543764
O 23.07191820 4.56616217 7.16331888 -1.76425308 -0.80108483 0.99719066
O -0.97115396 1.54886422 4.23579490 0.48457437 0.08442595 -3.20400822
O 11.44865292 1.54138020 4.27555197 -0.71721498 0.09541075 -1.00398460
O -1.04887041 4.58157205 4.22429069 -0.71749123 -0.60395001 0.05214792
O 11.43562956 4.62975904 4.22153120 1.14660709 1.44931489 -0.28435893
O -2.41653803 1.53294118 9.96375597 -0.57378803 -0.07533497 0.01400272
O 10.08815633 1.58802640 9.95897181 0.21742729 -0.04563326 1.41834327
O -2.35673917 4.58569961 9.94011894 0.25851489 -1.88019228 -0.89242880
O 10.06108281 4.61501814 9.92279944 0.26019340 1.39590997 0.52648032
O 5.81952582 6.15240790 1.44589493 0.56810660 1.89472843 2.00943828
O 18.26491479 0.02896537 1.44883241 0.87383011 -0.13024022 0.72800382
O 5.81257676 3.08223648 1.39521461 -0.23879567 -0.24754707 -0.85282394
O 18.26962252 3.06992185 1.46673843 -2.06153922 -0.59108598 0.22050315
O 4.50364006 6.11645678 7.18985597 1.02545591 0.38833366 0.13861057
O 16.87128699 0.01084021 7.12694266 1.50628361 -1.03671583 1.26721901
O 4.37905222 3.03611395 7.16202028 0.22477095 -0.81306692 0.85294750
O 16.85654055 3.09338216 7.18292990 0.76652993 0.18277749 -0.37527721
O 5.24695666 6.15944303 4.20729643 -0.30234633 -2.91073024 -0.67424158
O 17.64734119 0.00858859 4.27489575 0.58478119 -0.18183371 -1.07097336
O 5.22412022 3.09997432 4.23121260 1.28322923 1.72107883 -0.47925809
O 17.65018717 3.01983054 4.22758944 -0.60235598 1.48640925 0.73780462
O 3.85035424 6.11127184 9.93102041 -0.34008330 0.11322104 0.60647617
O 16.33326181 -0.00523842 9.94104762 -0.51880553 0.01630864 -1.44343082
O 3.85878374 3.09309497 10.01865355 -0.37108786 1.57771222 -0.91552688
O 16.27405117 3.12855873 9.95074761 0.59635900 0.39963719 -0.86121751
159
Lattice="24.696822 0.000000 0.000000 0.000000 6.114596 0.000000 -2.754975 0.000000 11.320842" Properties=species:S:1:pos:R:3:force:R:3 Energy=-623.089612 Virial="-60.714209 0.469076 -2.953799 0.469076 -45.661550 -1.565620 -2.953799 -1.565620 -42.663320" pbc="T T T"
Ga 0.07504845 -0.04472448 4.52891569 -0.80835997 1.92701155 0.48096271
Ga 12.29181302 6.03504847 4.47107167 0.00976679 -0.12571911 -0.36866958
Ga 0.04220912 3.12205715 4.46780386 -0.06710909 0.08926653 0.48414125
Ga 12.36510483 3.13745255 4.51751803 -1.23965436 -0.05343947 -0.32500698
Ga -1.34969988 6.16652637 10.15205742 -0.97206661 -2.81541512 -0.06927627
Ga 10.96753800 6.07560233 10.27332679 1.02114083 -1.37982301 -0.35917616
Ga -1.33165350 3.20816096 10.23569226 0.39839295 -0.07165402 0.44203040
Ga 11.06835419 3.12713477 10.15121177 -0.93932863 -0.00945997 -0.74358638
Ga 10.96389348 0.01196253 1.19766859 -1.55057675 1.52018261 0.89276299
Ga 23.32075407 0.07730208 1.21514825 -1.14444080 0.26299413 1.45025087
Ga 11.12927950 3.08844196 1.28615098 0.85984732 -0.71470717 0.09129243
Ga 23.32094615 2.99620284 1.06770268 1.49448267 -0.48164167 0.45415408
Ga 9.62356209 6.22054367 6.81378835 -1.53542800 0.31855850 -0.11641829
Ga 22.00268203 0.07192224 6.74417435 -0.53415441 0.30098454 -0.99952205
Ga 9.55905254 3.15247559 6.73660175 -2.24940326 -0.36247790 -0.57064015
Ga 22.03659580 3.02573249 6.96495269 2.22040516 0.95819416 -1.11634306
Ga 6.27279975 1.45439164 4.56494564 0.53426554 -0.41269438 -0.70060378
Ga 18.56763132 1.59807246 4.45192749 0.62094064 0.54279342 1.49500750
Ga 6.22135645 4.71138422 4.50266370 -1.65778739 -0.56725382 1.09800325
Ga 18.69045101 4.58264519 4.50494573 -0.63187709 1.09869173 -0.31493097
Ga 4.79590052 1.57151186 10.18047079 -1.59332359 -0.19679212 -0.25960317
Ga 17.07385701 1.66514003 10.18146646 1.01209246 0.68915589 -0.64960747
Ga 4.83304800 4.61976937 10.18942217 -0.35203321 1.40820633 0.51468073
Ga 17.11667285 4.58008676 10.25486492 1.64642355 1.23412397 -2.23924201
Ga 4.71632125 1.50117498 1.12123913 1.18514234 0.79409730 1.51477160
Ga 17.13265435 1.59246668 1.13120171 0.84950849 -1.26068730 -0.13148298
Ga 4.75949090 4.67191547 1.11097035 -0.98076870 -2.06668654 -0.60131715
Ga 17.28418060 4.64151817 1.29218018 -4.17215790 -2.11737343 0.92647243
Ga 3.34185693 1.46598532 6.73120412 0.90100264 -0.65508126 -0.21768658
Ga 15.72247125 1.54204441 6.81778513 -0.25595671 0.32962616 2.54558685
Ga 3.47866814 4.54425459 6.63886806 0.14080158 1.88383761 0.38820262
Ga 15.80472058 4.58447642 6.85953321 0.53350839 -0.89718801 -0.18610779
Ga 1.61758520 1.49539206 1.92739183 0.72952865 1.77566641 -0.00944246
Ga 13.82167908 1.48722773 1.68576105 0.66031983 -0.65677211 -0.60713341
Ga 1.49183699 4.59432674 1.76645747 1.17804805 1.06129623 0.62436111
Ga 13.84505580 4.62153854 1.78327517 0.79815943 0.22858398 1.30556365
Ga 0.04119619 1.55883228 7.47110986 -0.89314214 0.14241154 0.14055345
Ga 12.60883770 1.44938417 7.54690617 -0.64335164 1.47921038 -1.47546333
Ga 0.19600311 4.49284769 7.48551534 0.93808851 -0.87606806 -1.45892277
Ga 12.48487653 4.69446474 7.39829072 -0.35015686 0.73670442 0.74824355
Ga 9.53592273 1.51488600 3.87708310 -1.12977286 -0.98660360 1.31863969
Ga 21.79051260 1.54546100 3.86794684 0.36763949 -1.02023818 0.75661842
Ga 9.50719707 4.55488714 3.92276129 -2.07985786 -0.55721197 0.02182966
Ga 21.73356307 4.69246609 3.92743075 0.86567876 0.22601930 1.54935168
Ga 8.22636126 1.57539699 9.66310604 1.56240251 -0.10784431 0.34763064
Ga 20.51420546 1.55067938 9.57358574 1.18789000 0.05866602 0.26146550
Ga 8.24093125 4.50639974 9.57413815 0.48937976 0.57314077 0.30675397
Ga 20.39351810 4.66002736 9.50904266 2.52520084 1.04191613 -0.29236293
Ga 7.75477576 -0.04194022 1.77785775 -0.40199964 0.82298253 -2.54923009
Ga 19.95861938 -0.05406594 1.84497352 -0.78477868 -0.98484638 -1.34125505
Ga 7.56875795 3.11353947 1.83136806 -1.48071622 0.38990332 -0.04310633
Ga 20.08758189 3.04042155 1.69039280 1.01383698 -0.56614583 0.54319246
Ga 6.26581843 -0.02288815 7.40981906 0.32714729 2.02955669 0.51889008
Ga 18.71349053 0.06978385 7.34522344 2.41840032 -0.63750303 1.65794660
Ga 6.35746999 3.10609901 7.37233476 1.66977005 0.82495351 -1.34257559
Ga 18.63547993 2.91953128 7.30973235 -0.05750057 -2.32802888 0.92659992
Ga 3.25040215 0.03136881 3.85083302 -0.70287341 -1.14319956 -1.97591449
Ga 15.43197259 6.16542275 3.90733714 1.46605222 0.44492344 -2.45358600
Ga 3.19236389 3.16998024 3.86119768 -0.01714840 1.21556651 -2.28254970
Ga 15.59255911 3.09099455 3.99074738 -0.08500144 3.90747674 -0.04143221
Ga 2.00109966 -0.03799262 9.59561722 -0.18820946 0.20603183 0.44354242
Ga 14.29751675 6.23255882 9.63012781 1.00955941 -0.21152510 0.40985990
Ga 2.00974874 3.03309043 9.51075278 2.33461536 0.82676049 0.49113830
Ga 14.23353847 3.02966099 9.48774319 -0.57767649 1.87385490 -2.62444616
O 1.74532459 6.09803354 0.66898721 -1.28263195 0.61578954 -2.71231897
O 14.32328071 6.06860643 0.63950016 1.60393541 0.33763094 1.49365792
O 1.83614991 2.99859380 0.74555610 0.63882503 0.71521251 -1.03211611
O 14.15954243 3.04740660 0.66461360 0.71364872 -0.63658017 0.20299263
O 0.43363130 -0.00092679 6.37951966 -1.24511843 -0.09288983 -0.34124981
O 12.79048939 6.17327802 6.40935875 -2.06777979 -1.22828276 -0.44187157
O 0.53867130 3.08978290 6.24213471 -0.86965078 -0.47144214 -1.60527256
O 12.78525993 3.08696368 6.24172587 -1.03909251 -0.20597946 -0.33900166
O 21.46738472 0.08386229 5.16471108 -0.53024570 1.49168030 -0.73493478
O 9.04520346 2.97150983 5.05501211 1.45703813 0.16254667 -1.48709592
O 21.35871445 3.02524302 5.07648454 -0.14625228 -0.47295942 -0.26169028
O 7.73346652 6.01778949 10.66647718 0.50717847 0.68935894 -1.23323481
O 19.96087953 6.08396167 10.78059979 0.01815170 -0.89471545 1.47546740
O 7.84643960 2.97301580 10.67837793 -1.14528685 -1.85838932 -1.28490946
O 20.14012625 3.08511392 10.78484205 1.79090565 -1.52312830 -0.44311457
O 7.97608181 1.57581961 0.68664333 -0.19431172 -1.89030174 0.32001380
O 20.37570978 1.56544371 0.77301345 -1.00082601 -1.10768016 0.74413601
O 8.00540280 4.56944804 0.57323744 -1.48602801 0.03342123 0.01983722
O 20.32100909 4.56079443 0.66136348 -0.95129025 -1.76640429 1.29724255
O 6.60660569 1.52123096 6.32500661 -1.22065287 1.73429734 -0.96971138
O 18.98122008 1.50856594 6.33378449 0.57926832 1.40816230 1.05423095
O 6.59973367 4.52436598 6.21446059 0.50999891 0.51998875 1.42788815
O 18.92125315 4.55587496 6.32072749 0.29214522 -1.93030263 -1.85047299
O 2.93929571 1.49331495 5.10618848 1.08504262 0.94277846 -1.15177742
O 15.28428161 1.48747098 5.09048313 0.94015777 0.02442447 0.27536313
O 2.96215731 4.60384229 5.11027330 -1.65139315 -2.31939943 4.16363389
O 15.31253911 4.64537409 4.96255831 1.92940034 -0.36119336 -0.70973646
O 1.55713349 1.58934648 10.66393910 -0.58940906 -1.72127624 -1.78147711
O 13.90281516 1.51496978 10.69991690 -1.01766751 -0.39547083 0.71661892
O 1.59604187 4.79340021 10.83310770 0.12486141 -0.16067998 1.98342076
O 13.89606982 4.62843364 10.76346416 -1.46956387 2.14939380 0.02332909
O 1.31602862 6.16429231 3.23961888 -2.59094854 -1.40371378 -0.11716821
O 13.74263551 -0.04449398 3.29812581 -0.48694952 0.83725702 1.17385273
O 1.33193618 3.04639419 3.17759172 0.79326188 2.33909583 0.21941232
O 13.75374761 3.13163185 3.15656959 -1.20114501 -1.75515470 2.76077067
O -0.10940822 -0.17552436 8.92805620 -1.99998942 0.60470076 -0.90812372
O 12.34326050 -0.05834286 8.86505156 0.29917067 1.62196242 1.14102823
O -0.02475809 2.90839149 8.73865328 -0.90773496 -0.29942341 -0.84476417
O 12.31739226 3.10332812 8.89606148 -1.17120054 1.63432480 0.02252969
O 9.47918544 6.01071548 2.38010524 0.86409516 -0.19347305 -1.45514335
O 21.97049273 6.11349796 2.48223485 -1.80716906 -0.59048017 1.05171622
O 9.67035533 3.05299044 2.50977616 -0.38809099 1.11770018 -0.88032599
O 21.79889249 2.96030118 2.47721106 0.12367366 0.68924866 1.80086846
O 8.13108962 0.15878827 8.28668239 0.18691587 -1.27832305 0.31758234
O 20.62257627 6.02329651 8.12923890 1.50688625 -0.19037787 0.43276255
O 8.12951384 2.96737651 8.03413519 -0.31095398 0.13016521 -0.46925240
O 20.64754544 3.07547184 8.13260837 2.00986260 2.28305748 1.69184708
O 7.61770384 1.38786292 3.20798225 0.48585048 -0.27287190 1.44510650
O 19.89386579 1.47043281 3.19296399 2.02483763 0.69039168 -0.20618520
O 7.49241685 4.54104046 3.27849473 1.70777963 1.52934375 -1.34738693
O 19.86537768 4.66434535 3.21731078 1.21558192 -0.69551402 1.31713181
O 6.16945570 1.58680125 8.90380258 0.19182509 0.64807988 -1.95240019
O 18.49819503 1.35145378 8.98005458 0.48689411 1.92124470 1.17796816
O 6.22328954 4.73356270 8.84944040 0.37781351 -0.26418858 -0.48881110
O 18.62192669 4.64410952 8.89386740 -1.48914180 1.56887859 -1.04629103
O 3.47666967 1.47063702 2.46060799 -0.87394348 1.98538631 -1.11021081
O 15.76521958 1.59231378 2.49179282 -1.55555462 1.46902462 -2.07009102
O 3.37307191 4.60697832 2.49794067 1.78055302 -1.55878275 2.10601577
O 15.70970885 4.52620857 2.42604068 0.98267910 -0.62466028 -2.19815061
O 2.06614989 1.46359124 8.02309080 -1.02539119 0.72343356 1.55423235
O 14.32286222 1.33996226 8.04640274 -0.53675927 1.62464159 1.24973691
O 2.11198596 4.68053446 8.18012393 1.04945967 -2.83740743 1.91273244
O 14.32268374 4.61634826 8.15445898 -0.05742989 0.17527281 0.31560565
O 11.89744055 1.60670690 1.38249912 -0.68192228 1.80651370 -0.77693573
O 24.21888840 1.59347037 1.41519166 0.28885804 -1.41060010 -0.23159949
O 11.91806108 4.52004792 1.44075234 2.92940389 -2.35398451 1.67908129
O 24.35209804 4.53478835 1.55194277 -0.96468102 -0.60809796 -1.18408191
O 10.49768771 1.42147849 7.15274130 1.48556908 -0.37524006 -0.12472635
O 22.95137230 1.46861780 7.05916288 -0.08126312 -0.19134134 -1.48454953
O 10.62256822 4.50633893 7.16178659 -2.14187877 -0.29447635 0.13198968
O 22.78428859 4.77546889 7.15058272 -1.12368826 0.76407503 0.22821743
O -1.01891015 1.44925328 4.24297172 -0.55306523 -0.02203272 -1.20320533
O 11.45213283 1.53494476 4.27312140 -0.72861839 0.41207762 1.27870371
O -0.94696511 4.62440547 4.18431614 2.32556703 -1.20885685 -0.19299287
O 11.27651554 4.61463891 4.27639888 2.04859396 -1.75946450 -0.52230301
O -2.30761555 1.56403005 9.75066860 -0.50048637 0.11693966 -1.00780486
O 10.08570951 1.58506366 9.79420975 1.64476273 -0.14823232 0.39011552
O -2.25382438 4.73965774 9.93702749 -1.12352403 -2.12863558 -0.56184752
O 10.02986868 4.65792913 9.76377281 -0.53767009 -0.44622060 1.76449506
O 5.73019977 6.05962508 1.47918081 -1.39966274 -1.50353291 -0.27922382
O 18.20609969 -0.04297645 1.45554460 0.35127376 0.86725999 -0.73548477
O 5.66784025 2.96341410 1.29929648 -0.45399753 -1.38977576 0.34105786
O 18.16419786 3.05072793 1.44314471 -0.52087282 -0.52047949 -0.25083346
O 4.36546400 6.07894790 7.03104633 0.32503621 0.26646939 0.09649302
O 16.73792152 0.01748021 7.01738875 0.96150554 -0.38365651 0.57205358
O 4.46564914 2.90509122 7.04900544 0.11569470 1.72436633 0.22300259
O 16.68763677 3.08776165 7.07856453 -0.82476666 -0.45717016 -1.04700324
O 5.22191106 6.07514371 4.21063804 0.00419890 -0.60757423 0.36539826
O 17.66810560 0.10087006 4.07939785 0.27681152 2.02516771 -1.23323816
O 5.13340947 3.13182341 4.29600906 -1.64585913 -1.75968295 -1.23928117
O 17.56647631 2.93705351 4.34311018 -0.23469879 0.36458543 1.57027337
O 3.80415941 6.01336066 9.96045974 0.14230660 -1.02965954 0.51858250
O 16.17806869 0.08656924 9.81624275 1.32692550 -2.07902757 1.25798229
O 3.89231485 2.99364969 9.89374788 -0.21645001 -0.67775415 0.57140119
O 16.17581459 3.08174693 9.84059226 0.64567616 0.63232440 0.98796283
159
Lattice="24.995131 0.000000 0.000000 0.000000 6.188453 0.000000 -2.788252 0.000000 11.457584" Properties=species:S:1:pos:R:3:force:R:3 Energy=-624.138019 Virial="-50.467609 0.787861 -2.973028 0.787861 -45.387995 -7.120463 -2.973028 -7.120463 -42.380651" pbc="T T T"
Ga -0.02165909 -0.07783081 4.58913082 -1.12580137 1.00388176 -1.02192920
Ga 12.50878926 6.20912015 4.58919221 0.29158987 -1.91310331 0.78216243
Ga 0.03448144 3.11523921 4.55054875 -0.21320452 -1.34431724 2.73265669
Ga 12.58389174 3.09373934 4.49668035 1.98827309 -1.32207061 -0.50944623
Ga -1.41867838 6.19586379 10.22347421 2.04267239 -0.72327989 -0.30932646
Ga 11.06550779 6.23189169 10.36241530 -0.04285239 -0.18622736 -0.20157503
Ga -1.38874981 3.08286145 10.29267312 -0.43780800 0.91629755 -0.45384014
Ga 11.10442997 3.12818457 10.28290360 2.63754437 0.64886857 0.34936542
Ga 10.99568986 0.01235650 1.17401046 -0.71165658 0.23252983 1.77075729
Ga 23.61128440 0.00409128 1.15255598 1.56987841 0.75544025 0.53797035
Ga 11.13422578 3.08647679 1.16353804 0.13940491 -0.18715765 0.48245539
Ga 23.53864598 3.13349133 1.17113262 -0.48890264 0.90576717 -0.63169799
Ga 9.68051992 6.15715111 6.89368172 -0.12887986 1.58796880 -0.29211118
Ga 22.19638801 -0.02701377 6.87726705 0.87618210 -0.75979364 0.53916253
Ga 9.69709034 3.11479292 6.88402791 -0.67214779 0.92275560 -0.49958306
Ga 22.19713560 3.11810872 6.96064455 -1.25232201 -0.36756160 -2.28264226
Ga 6.25293696 1.53764184 4.58040687 -0.79443885 -0.27549043 2.15522042
Ga 18.79055549 1.56496059 4.58982808 1.35008322 0.44903629 1.26651251
Ga 6.24328865 4.57142290 4.57218824 0.68949012 1.49223143 -1.76591788
Ga 18.73004920 4.61735330 4.51953957 0.92374097 -0.69539386 -0.93682031
Ga 4.93317276 1.46300957 10.34015692 -0.95453668 1.63708286 -0.48574404
Ga 17.39401328 1.56688591 10.21266711 0.11259272 1.11658276 1.20181479
Ga 4.89674307 4.64000692 10.29939091 -0.19208559 -0.66713408 -0.38975807
Ga 17.34900830 4.60475029 10.29221669 1.90187783 0.46255466 -1.62473995
Ga 4.86142027 1.55831816 1.18017473 -0.54467908 -2.29159269 1.06015200
Ga 17.35095756 1.54834265 1.12452340 0.88094029 0.44838194 -0.16997350
Ga 4.78904643 4.68229548 1.13941678 -0.31678345 0.07750665 -0.19036141
Ga 17.28729422 4.67338489 1.16738755 -0.42328709 0.39587314 1.58782772
Ga 3.45395423 1.50414504 6.89424418 -0.19953837 0.83347825 1.88528656
Ga 15.97063582 1.53595057 6.86059446 -0.62544939 0.02810739 1.43714141
Ga 3.47395685 4.63061186 6.88479624 -0.63934112 -1.67919226 1.99886833
Ga 15.96684881 4.65609634 6.90693125 -0.35279926 1.08390524 -0.07308475
Ga 1.51942225 1.56486081 1.83950536 -2.02244504 0.12571275 0.63580737
Ga 13.99188470 1.62476428 1.78717914 -1.09661710 0.77834890 -2.22955031
Ga 1.56989425 4.59835747 1.80076733 -0.29952959 0.57835193 0.73000644
Ga 14.06731170 4.60298239 1.81930445 0.33800999 0.37860142 -0.48784792
Ga 0.08401883 1.58126093 7.53009986 1.01675713 -1.78956983 1.93710909
Ga 12.69524886 1.56380202 7.56789008 1.75070819 0.31402687 -0.81889947
Ga 0.10615108 4.53907025 7.55965931 -0.45957598 0.41597390 0.43888949
Ga 12.67840979 4.63275406 7.55188005 0.96460267 -1.51953710 1.52010671
Ga 9.56003808 1.61952444 3.90978943 1.25186301 0.00590988 1.95383539
Ga 22.06498483 1.56974289 3.84538314 -0.27419605 -0.43343865 -1.90721924
Ga 9.60918914 4.67182674 3.93572587 -0.25663876 -0.35717807 0.43624418
Ga 22.08460981 4.68796677 3.81868480 0.93410386 -2.41106217 -0.55907175
Ga 8.17548082 1.50354088 9.67867076 0.92018575 -0.43249639 -1.04555323
Ga 20.70733540 1.52096737 9.64022974 1.25711074 1.65375270 -0.88860760
Ga 8.18714896 4.71025309 9.75400745 2.14511736 -0.54574530 0.72757717
Ga 20.71133143 4.65680536 9.57950181 -0.99843698 -0.15391680 -0.35939646
Ga 7.74821509 0.05726690 1.79609260 -0.71943331 -0.25275599 -1.22368467
Ga 20.27252643 0.04988898 1.86223045 3.68821021 1.74614034 0.64787082
Ga 7.77731969 3.09381043 1.74820815 1.23871443 -2.25897392 1.67902874
Ga 20.25423200 3.05558858 1.81472279 -0.33879199 1.32319930 -0.30621415
Ga 6.32143937 -0.00360633 7.53435391 1.02588606 -1.56246197 -0.70779106
Ga 18.85509738 -0.03660967 7.52471750 -1.22077963 0.85601568 1.20588034
Ga 6.46359598 3.08624482 7.56368268 -1.70396079 0.38269349 -2.01064114
Ga 18.86476157 3.09398489 7.53116006 0.30927355 -2.05740847 -0.32693359
Ga 3.28585534 -0.01293071 3.97927864 0.62297226 -0.99837313 -1.63344559
Ga 15.79408216 6.20385500 3.90049901 1.34907126 1.20288858 1.35688913
Ga 3.25525358 3.09353409 3.94858337 0.01556912 1.67448200 -1.78797344
Ga 15.82245337 3.03911463 3.88217870 -1.46571960 -2.73287377 -0.09262249
Ga 1.91188151 -0.00895304 9.60857707 1.39297610 0.60023772 0.68774597
Ga 14.48616405 6.19728742 9.65758031 1.57797015 0.21610347 -0.71843031
Ga 1.89889242 3.06542252 9.68804148 0.29492432 3.13529394 -0.32870039
Ga 14.40223738 3.08238325 9.66714213 -0.02553921 -1.36415377 -0.30424158
O 14.40337811 6.21386608 0.57987768 1.47297520 0.04234095 -0.26356445
O 1.92623802 3.17984544 0.62832597 -1.54609975 0.23956301 0.64715061
O 14.34115922 3.07745418 0.64165320 -1.16484242 -0.19470655 1.65329867
O 0.49865028 -0.01834716 6.28271696 1.44073524 -2.03527999 -0.29927221
O 12.94776330 6.15398037 6.33056252 -0.92826862 1.99822487 -1.32815647
O 0.48610990 3.07327381 6.40024441 -1.19039294 0.97933863 -0.60450176
O 12.95953073 3.06770420 6.37395471 -0.85094725 -0.81734131 -0.50451441
O 9.19630558 0.00396404 5.07955771 -0.15257027 0.17240598 -0.61781028
O 21.74116873 -0.01345105 5.15075453 0.46048065 0.31909082 2.45325011
O 9.20001966 3.08715803 5.13782981 -1.28020846 0.99511735 -0.51107195
O 21.70476315 3.02134237 5.10894180 0.29868058 0.49856868 -1.27348158
O 7.82896349 6.16534789 10.79849352 0.60672893 0.43052451 0.45037983
O 20.32484202 6.18156802 10.81062007 1.15452557 -0.89694153 -1.86145792
O 7.82748884 3.03505887 10.90148102 -1.47928991 -1.91244848 0.69319533
O 20.33703524 3.07984168 10.87959228 1.26321267 0.62267448 -0.40126440
O 8.07465297 1.49801537 0.57577180 -2.20925645 1.16205113 -0.95792161
O 20.66992055 1.55822995 0.64872226 0.36976966 -1.56980910 -0.62399461
O 8.16787839 4.70673240 0.63752764 0.86547387 0.07397093 -0.17985084
O 20.60748357 4.58044125 0.60482362 0.42558550 -0.50999360 0.99622674
O 6.71226042 1.54629688 6.30591430 -0.70823102 -2.25402303 0.42716238
O 19.29480251 1.53298988 6.34037963 -0.95601530 -1.11408803 -0.83177020
O 6.72989405 4.60917467 6.31805377 0.43459667 -1.69572129 -0.37121371
O 19.22983405 4.58686224 6.38011316 0.42937837 2.21117047 -0.22209983
O 3.00030727 1.53696478 5.06791685 -1.18662641 -0.22881670 1.13950087
O 15.42345154 1.58808721 5.14033287 -0.39973988 0.04195416 -0.17363558
O 2.96334968 4.65823802 5.10534127 0.13229230 -0.64598878 -1.29658441
O 15.44582033 4.65464123 5.11805733 -0.67060270 -1.25478075 1.05784113
O 1.60241456 1.51348013 10.82340627 2.24354474 -1.67079862 0.27640776
O 14.04126428 1.55557108 10.81943600 0.60516928 -0.42573319 0.81580765
O 1.57708242 4.62046742 10.84370128 -0.67851833 -1.80769869 1.70806775
O 14.08805548 4.67690051 10.83306314 0.28370996 -0.18204967 0.36475891
O 1.38793659 6.17153722 3.29370728 -0.71278340 -0.22215302 0.87303329
O 13.87245005 0.00856526 3.27116005 -0.12639439 -1.82147634 -0.39578744
O 1.40734543 3.05240145 3.28502678 -0.39390528 2.08574766 -1.36498547
O 13.85063367 3.10104782 3.26096323 -0.53900312 -1.03342923 0.52797309
O -0.05624332 0.05040915 8.93216154 -1.13938445 0.19137916 -1.56986152
O 12.54651137 0.04332439 8.97020979 0.02177172 0.06290563 -1.00633866
O -0.01491503 3.06257687 8.97673726 -0.38760637 0.46041662 -0.71867176
O 12.49646036 3.10452870 8.90356895 -0.18612504 -0.34034080 -1.04977081
O 9.72177615 6.14242704 2.49655595 -0.82600241 -0.23290449 0.69444404
O 22.17324012 6.18144497 2.46303845 -1.29392835 -0.36331393 1.36777958
O 9.73365482 3.06212392 2.51060783 1.57784335 0.20198092 -1.18676705
O 22.25110840 3.06701916 2.47447981 0.71361382 -0.74911117 -0.37689855
O 8.30455833 -0.00633005 8.16893981 1.00537815 -1.57743869 -1.39455710
O 20.81809774 6.19316705 8.19497090 0.57929001 1.01054132 0.10857797
O 8.31438644 3.13279668 8.22682769 0.02557430 1.31068863 -0.58851036
O 20.84370473 3.10336954 8.18932236 -0.07078223 1.03754207 -0.46053164
O 7.63349150 1.59825820 3.21321318 1.56910454 2.20172921 0.68387350
O 20.12311453 1.52353527 3.24013480 -0.82793861 -0.03603203 -1.71418882
O 7.63360390 4.56299105 3.26509302 0.14041098 1.61179269 2.05675133
O 20.18321560 4.64706360 3.21448272 -2.84206466 0.88931093 -0.42425658
O 6.20420182 1.52971787 8.95932738 -0.06219982 1.75576319 -0.20053213
O 18.78051656 1.50139214 8.93997973 -0.74664169 -0.70525363 -2.33037878
O 6.19603357 4.66685247 9.01596757 -0.65158914 1.86002397 3.03292086
O 18.74944543 4.61583058 8.97740766 0.95544096 2.01899574 -0.44698188
O 3.46375426 1.54464809 2.45825369 -0.45381143 -1.35466707 1.35759308
O 15.91384079 1.50783420 2.54349896 0.71249274 -0.22152342 0.24103871
O 3.48560778 4.56274561 2.56879342 -0.32453744 0.46278549 -0.31099825
O 15.96216716 4.64482445 2.56347521 0.80987656 -0.34770328 -0.70286192
O 2.10358705 1.54340232 8.24150564 -0.11609126 1.34332566 0.71163728
O 14.58730198 1.60969690 8.20375278 -2.09662266 -0.27746725 -0.81050772
O 2.08636488 4.71366053 8.22805941 -0.27374476 -1.57290112 -1.38126337
O 14.62416920 4.59936732 8.24431218 -1.35820031 0.99881014 -1.82013362
O 12.08966634 1.48218765 1.50316460 -0.62005827 1.13508333 -0.48353801
O 24.54040563 1.51940531 1.39831037 -0.37046408 0.51213458 0.49623670
O 12.13070627 4.62958447 1.47416664 -1.02074601 -0.57452508 1.43954596
O 24.60402949 4.61811293 1.49695159 0.90107274 0.57110571 -0.13134368
O 10.70663756 1.53493518 7.16970099 -2.60033260 0.75708474 0.31962066
O 23.22886341 1.52685815 7.16072327 0.08828465 -1.64948180 -0.85262545
O 10.72373807 4.62866997 7.18980595 -0.56154483 0.79033737 0.89083085
O 23.18349002 4.58186738 7.26109768 0.30790965 0.49405787 0.36852464
O -0.96435183 1.56990309 4.24703971 1.72237214 2.16081505 -0.35689371
O 11.50711028 1.49579665 4.24450732 0.69799807 -0.55614223 1.60534768
O -1.01132145 4.61962400 4.26733358 -0.31378171 0.30040040 1.99690842
O 11.50755319 4.67137285 4.27358599 0.86934246 -2.42132351 -0.29101634
O -2.44739995 1.49038369 9.93583197 -1.87979294 1.01398154 1.21132959
O 10.13424149 1.55221134 9.96560385 -0.61481480 0.25497382 -0.33101366
O -2.37576659 4.62044702 9.95199723 -3.71278870 -0.79775824 0.98181902
O 10.13016156 4.63975427 10.06598011 -0.63852755 -0.71079643 -0.08161677
O 5.87256457 6.17244101 1.49550340 1.22099247 1.12316923 -1.29943195
O 18.33106875 0.04446977 1.46281104 -0.17927312 -0.54984355 -1.42289505
O 5.88492769 3.12019500 1.50311342 1.34238728 -0.21860439 0.39839363
O 18.37054830 3.18292193 1.40990697 -1.16965932 -0.40759528 1.68711856
O 4.42616066 6.22524364 7.18172797 -0.87911879 0.47582897 -0.35153679
O 16.95627634 0.01220128 7.24680741 -0.38909447 -0.12162590 1.71297566
O 4.42146814 3.13750461 7.22464715 2.48722347 0.91575193 -1.15685530
O 16.93946683 3.09445989 7.12250557 -0.28927415 0.62303961 -1.20265764
O 5.29060771 6.13460684 4.32320644 -1.29889696 0.51393665 0.62010241
O 17.74549045 -0.00686261 4.16900344 -1.04053257 -1.28639642 -0.71346253
O 5.23233156 3.14786919 4.25408332 1.08431015 0.06810405 1.01807014
O 17.74631671 3.04559147 4.30190434 0.18016981 1.97989437 -2.43541753
O 3.85319766 6.21200829 9.96105977 0.44106738 -1.61814354 1.50876521
O 16.35992082 0.00112384 9.97788343 1.61400159 -1.84422336 -0.84502221
O 3.90752538 3.09502835 10.04776573 -1.14560351 0.09873277 -0.56571869
O 16.29806903 3.09307085 9.93792648 -0.49963572 0.64550443 0.33476653
159
Lattice="25.066742 0.000000 0.000000 0.000000 6.206183 0.000000 -2.796240 0.000000 11.490410" Properties=species:S:1:pos:R:3:force:R:3 Energy=-624.424428 Virial="-57.673668 -0.887319 -3.695103 -0.887319 -40.868455 -3.099874 -3.695103 -3.099874 -46.066100" pbc="T T T"
Ga 0.00769381 -0.11463668 4.47633736 1.14333733 3.53595747 -0.41550544
Ga 12.58277534 6.22165299 4.55230017 1.43389655 -0.43872847 0.97377205
Ga 0.04879136 3.28542566 4.43238231 0.03591347 0.61353559 -0.58353710
Ga 12.55712935 3.13691679 4.55711487 -0.41215642 -0.55680224 -1.36762137
Ga -1.38814415 6.20088691 10.32158932 1.27750250 0.38998647 -0.50948224
Ga 11.09722915 6.22022039 10.40864386 1.57553883 -0.96959144 2.01213982
Ga -1.36052644 3.09381583 10.30315885 -0.16727969 -1.75384214 1.89636587
Ga 11.16541380 3.20720467 10.37130053 1.41291180 -0.16832193 1.02534347
Ga 11.13900363 0.11066860 1.11506536 -1.00757634 -0.68557193 -0.32939398
Ga 23.74959377 0.00674439 1.24830382 0.39847916 -0.03400812 1.34707997
Ga 11.23839815 3.15705028 1.29986437 -3.41120485 -0.87864849 -0.54345975
Ga 23.51205529 3.09782559 1.03249570 0.42863412 -1.07056704 0.51385690
Ga 9.94392371 6.25318422 6.74849706 -0.10269756 -0.59276656 -2.08855022
Ga 22.23416486 0.11159905 6.94625444 0.46552014 1.25815470 -0.11031722
Ga 9.75323583 3.01477071 6.91286879 -0.31568600 0.16923843 -0.12419877
Ga 22.22242486 2.99963926 6.87893590 0.29352176 0.30182975 1.52492426
Ga 6.48205471 1.45302422 4.61024040 -1.31048886 -1.94665962 0.01974856
Ga 18.86902716 1.64608816 4.46885718 1.68251292 -0.82785944 -0.59000623
Ga 6.24193744 4.67086944 4.47970573 -2.39802105 0.47671742 1.09309253
Ga 18.78605860 4.75888808 4.67495911 0.26416275 -1.89013218 -0.26338202
Ga 4.89712318 1.59507472 10.27563225 0.36823869 0.53603708 0.03643367
Ga 17.54270285 1.53890866 10.31650631 -2.39458410 -1.18152853 0.86070019
Ga 4.98287668 4.65072586 10.29756518 0.35820189 -0.52347093 1.31243262
Ga 17.53582946 4.67170369 10.35539170 0.14837751 -2.46566192 0.06400725
Ga 5.00646626 1.45698177 1.29017631 0.15804096 0.95643171 -0.08268925
Ga 17.55350833 1.62514087 1.18580924 -2.57771009 0.46270216 0.21187221
Ga 4.80630160 4.77428947 1.08724449 0.30738199 0.06582951 0.41659805
Ga 17.23675825 4.65866162 1.26324880 0.28189100 0.22039922 -0.05772944
Ga 3.28536145 1.59531417 7.04210434 1.44009271 -1.21797179 -0.17571061
Ga 16.04870724 1.47320135 7.00289690 -2.18792085 -1.38973403 -1.53171041
Ga 3.45313371 4.75994636 6.97014779 -0.07628517 -0.61608086 1.61620243
Ga 15.90112297 4.60694455 6.94968449 -1.59517029 -2.33708374 2.43497640
Ga 1.55539571 1.62318712 1.83729299 -0.10086045 1.39450513 0.30496265
Ga 14.10000190 1.56516142 1.90055125 0.13369781 0.12238394 0.73969762
Ga 1.55786041 4.50203576 1.95957556 0.96040416 -0.70479785 0.43658286
Ga 14.01151825 4.68977639 1.91769729 -0.62487595 0.63840983 0.72662048
Ga 0.31519823 1.44230113 7.51619679 -0.52906669 -0.23643139 0.99651215
Ga 12.67677906 1.68167580 7.55108752 0.11769524 1.90819656 -0.76777620
Ga 0.20670654 4.68625517 7.52863428 0.12260891 -0.22069764 0.89670093
Ga 12.65754684 4.57239036 7.59322539 -0.08829407 2.05869961 0.63968245
Ga 9.57975427 1.54240321 3.90951494 -1.22007382 -1.64786028 -0.37861698
Ga 22.08729140 1.69353682 3.81288967 0.24599056 1.20865079 0.43400270
Ga 9.73744953 4.68041989 3.94816691 0.48397111 1.09572152 0.20563280
Ga 22.14699270 4.69079181 3.94707263 -2.18878840 1.46350244 1.05569943
Ga 8.00456165 1.59824875 9.75364558 0.16673638 -0.67465958 0.10882189
Ga 20.71145284 1.53298520 9.77554208 -0.06407582 0.14664896 -1.05813197
Ga 8.14523675 4.66084082 9.60138186 -0.65979204 -0.17961215 -0.94420440
Ga 20.64091644 4.57960764 9.65678064 -1.14743846 0.99238735 -0.51250813
Ga 7.83385884 -0.06740167 1.64555746 1.38586326 0.36102192 -0.54338719
Ga 20.33502199 0.06535081 1.68443876 -0.07854967 -0.45528625 0.21182293
Ga 7.83069371 3.03033236 1.78184536 1.24054014 0.53402952 0.34508804
Ga 20.25056988 3.19101583 1.79175290 0.17888084 -1.40106621 -1.30130704
Ga 6.33479429 0.05740690 7.53006365 2.36631550 0.04541712 -1.97052381
Ga 19.01372264 -0.07747311 7.52778066 0.53717284 -0.82684884 0.78046036
Ga 6.49049360 3.05872356 7.54085933 -0.12625112 -0.43684690 0.78293638
Ga 18.92723026 3.04809276 7.66510972 1.13104464 0.20474047 -0.59596942
Ga 3.26076996 -0.09317764 4.03033327 -1.21747393 -0.24743400 -0.47532147
Ga 15.67509460 6.06817172 3.95882891 0.20314949 2.57593846 0.92791126
Ga 3.51520240 3.01027460 3.89127180 1.14024835 1.58190480 1.76630716
Ga 15.78473463 3.19700418 3.92634298 -0.06576738 -2.14820299 0.59171400
Ga 1.87950288 -0.07908987 9.59682594 -1.94116372 -1.15087163 0.00288616
Ga 14.41298779 6.21835122 9.67698844 0.52213186 -0.02350505 -0.40552261
Ga 1.90125258 3.08954488 9.67946053 -1.75831582 -1.83179833 0.40995391
Ga 14.43674467 3.13388876 9.71023975 2.21609197 -1.46023687 -0.87267315
O 1.87713393 6.31910373 0.56341008 1.09519126 -0.33531958 0.06112495
O 14.38388198 6.27282311 0.64567588 0.01366153 -1.16361209 -1.19187997
O 1.85967473 3.11314644 0.63285134 0.55933773 1.81123251 0.91714201
O 14.31439854 3.07199923 0.73483215 0.76324154 -1.75399009 0.76336592
O 0.58259154 0.02602139 6.50015113 0.32089546 -1.06159522 -0.40249624
O 12.87653296 6.16452942 6.38744792 0.91760761 1.50876769 0.41290780
O 0.52589020 3.19442335 6.48321667 -0.23539709 0.32684752 0.38888383
O 13.13467877 3.21121523 6.31196302 1.66168501 -0.19333998 -1.82559215
O 9.24257443 -0.00944372 5.12219595 2.17103057 0.35784601 2.04482067
O 21.72406230 0.13908294 5.05237083 -1.02641229 0.02466307 -0.29971320
O 9.27947354 3.03304083 5.13155194 -1.50151155 -0.67897496 -1.03923126
O 21.70806332 3.18220952 5.11596508 -1.44126912 -0.23031093 1.18092596
O 7.93177532 6.09216480 10.97102374 -1.06387676 2.56783446 2.55467744
O 20.30288666 6.12091617 10.91849035 -2.58427196 0.08263717 0.41231404
O 7.69872262 2.96892293 10.74587198 1.27439399 2.76031755 0.81828486
O 20.38195556 3.30324558 10.91875307 -2.16623698 -1.70632592 -1.11992469
O 8.17542798 1.46739773 0.70662988 -0.40465944 0.74765553 -1.49469738
O 20.75777611 1.59981483 0.60325435 1.85009894 -0.76218371 1.43734845
O 8.08050340 4.61370107 0.59511018 -0.83071493 -0.39837323 0.17508996
O 20.67122577 4.73924433 0.62776383 0.58811655 2.37210498 0.88260499
O 6.76285129 1.57941925 6.31974809 1.27389222 -2.00906878 0.25141597
O 19.33881862 1.57044103 6.45323880 0.39776087 -1.09502173 -1.97949154
O 6.71467311 4.73987024 6.33564019 3.14071855 0.16084161 -0.69965580
O 19.36877731 4.85237704 6.43874771 -0.69256078 0.69570850 0.29160974
O 2.87518179 1.54428359 5.10674481 0.07921767 -1.23910300 2.36317904
O 15.36815572 1.58535559 5.05995479 -0.29238142 -0.36300003 -0.48253694
O 2.93485827 4.53547616 5.02831391 2.38029932 1.13260678 1.49003891
O 15.59377089 4.62966452 5.12641205 -0.01735435 -0.36204674 -0.26335609
O 1.68383480 1.51127125 10.78900483 2.24460594 0.47443392 0.21842837
O 14.06922576 1.54475070 10.91115945 -0.57614644 0.86368847 -1.05903190
O 1.59769091 4.64152774 10.86567591 -0.27546301 0.51374693 -1.00089289
O 13.99632680 4.59200892 10.95100565 -2.24707557 -0.48337872 -1.20792510
O 1.34100212 6.20431533 3.16888304 1.46653322 -0.08459545 1.69963704
O 13.96133023 0.04621620 3.31050474 -0.80999585 0.25582656 0.16275735
O 1.27291673 3.14523857 3.21518003 0.52973637 0.06631022 -1.31186512
O 13.86554569 3.09496555 3.31196321 1.24558223 -0.54453238 1.17855865
O -0.08386879 0.05494065 8.83283856 -0.86402179 -1.23384398 0.82731929
O 12.60237807 0.05467149 8.81960077 1.68374313 0.72319933 -1.08824246
O 0.08003993 3.11333525 9.04860031 0.42947485 2.30412500 0.25860073
O 12.50245789 3.06413527 9.06697207 -0.60761196 -0.90226890 0.48897788
O 9.79075001 6.13650074 2.44197530 -1.13800771 0.87968208 -0.14318529
O 22.25952356 6.31303271 2.49562391 -0.96434265 1.28588110 -0.50333079
O 9.55969038 3.20998322 2.56908598 -0.38456186 -0.78237340 -0.24190770
O 22.32146680 3.07759059 2.57108963 0.78626034 -1.60616786 -0.41102541
O 8.44363977 -0.00839847 8.26034091 -1.04844506 -0.36855662 1.54676832
O 20.85185793 6.12145612 8.23853949 0.39670410 -0.83535439 -0.33851091
O 8.20418240 3.08085554 8.22321742 1.66611740 -0.68403349 -3.13557283
O 20.89257120 3.09941607 8.23446624 1.94965020 0.22360878 -0.09218077
O 7.64841663 1.47068870 3.24102773 0.71181843 0.20438804 0.47992208
O 7.62722357 4.60122546 3.20460831 0.39533921 2.40475524 -1.21306449
O 20.22264080 4.62969324 3.33403354 0.96692108 -2.22209835 -1.99633859
O 6.18343640 1.60552527 9.02089750 -2.80606920 -0.80972931 -0.00271628
O 18.77745200 1.55749211 9.03449807 -0.45762540 0.22017958 -1.83900770
O 6.28126224 4.66310317 9.06001286 -2.30035063 0.41919005 0.88131180
O 18.84321033 4.67162640 8.96215974 -0.69275947 2.50725995 1.27203966
O 3.49930147 1.44103756 2.67755599 3.07696589 -1.23929503 -1.64690104
O 15.87219826 1.49092312 2.41961888 0.28427876 -1.61262612 0.35039879
O 3.42040515 4.62333955 2.50315139 0.04650300 -1.81551756 -0.53839750
O 16.01785912 4.71595706 2.43626640 -0.54901414 -0.77319273 -0.62675414
O 2.07018499 1.67192334 8.34042207 0.05038874 1.59785758 1.38551559
O 14.54552171 1.64172678 8.18271630 -0.13533508 -0.36038461 -0.69324797
O 1.85603958 4.72161177 8.24924417 0.13622351 1.29405104 -1.98246117
O 14.52542261 4.60471050 8.16259035 0.81738406 -0.50761037 -1.95296373
O 12.09070728 1.51679306 1.52711455 -0.56882154 0.99121141 -1.03168574
O 24.64494497 1.59183919 1.46145119 0.32030551 -0.29200523 -0.44316025
O 12.19828970 4.73103361 1.49459910 0.42983454 1.42267695 1.74305173
O 24.74389398 4.60345673 1.57294259 -0.23227386 3.39865203 0.50553458
O 10.66405753 1.45338720 7.24840495 -1.21507540 1.61861054 -0.97151688
O 23.26895888 1.63712794 7.27187319 0.78767078 -0.04228062 -1.18662146
O 10.74005089 4.59921640 7.21169077 -0.97018035 -0.29147797 -0.17918452
O 23.21996735 4.66365131 7.30854959 1.64711217 -0.07211287 -1.19723628
O -0.97368053 1.55710740 4.33134893 -0.84389287 1.44992326 -0.82081385
O 11.63167451 1.45585478 4.15395079 1.67244203 1.66945141 1.40289621
O -0.95448226 4.78457577 4.20825273 -0.55850159 0.89150725 0.59170405
O 11.60304144 4.52384131 4.26486979 -0.26816615 -2.30416178 2.07935739
O -2.65109814 1.55651963 9.94079293 -0.92120796 -0.31381611 0.19157839
O 10.09026335 1.53675784 10.02038215 0.74367300 0.38448268 0.01986592
O -2.42292309 4.66386315 10.06587492 -2.21717040 -0.52586062 1.90139569
O 10.12738190 4.74511140 9.96808313 -0.81320758 -1.69628979 0.48284666
O 5.92353827 6.14983620 1.35251082 -2.34561645 2.54743224 -0.34847628
O 18.26218503 0.14391169 1.54997693 2.87876937 -2.84244779 0.75375955
O 5.91237169 3.00207418 1.51544367 -0.03573041 -1.62643835 0.43877428
O 18.29451311 3.13193214 1.44797382 0.13963959 -0.81065878 -0.41739971
O 4.58501769 5.99095535 7.19844554 -1.16607907 -0.58130617 -2.91409722
O 16.96938277 -0.01548072 7.15890470 1.89464674 0.70527240 -1.27510030
O 4.45383351 3.18161415 7.23786430 1.56543732 -0.17957083 -0.96811978
O 16.92530346 2.94335157 7.27626437 -0.14146083 -0.55076051 -0.25901618
O 5.44045634 6.38687275 4.32414718 -0.41533658 1.18986710 -0.19365185
O 17.79816064 0.03547217 4.25924812 -2.72766594 -0.59037517 1.32540662
O 5.41294645 3.15272517 4.37837649 -0.55291320 0.69639793 1.58403588
O 17.87480953 3.17397095 4.30426578 0.50554422 1.10848118 0.31135244
O 3.84765013 6.21482550 10.11273145 -0.72694905 -0.97577424 -2.05680479
O 16.24999800 0.02582343 10.02584133 -0.80245866 2.19208378 -1.36459213
O 3.68701603 3.20292287 10.04166201 -0.52853357 0.78981486 -2.98517191
O 16.45425887 3.15696303 10.16162517 -0.65087108 1.94225923 0.78491265
159
Lattice="24.956533 0.000000 0.000000 0.000000 6.178897 0.000000 -2.783946 0.000000 11.439891" Properties=species:S:1:pos:R:3:force:R:3 Energy=-623.015313 Virial="-56.885563 -3.475106 -1.678362 -3.475106 -44.277008 -2.066121 -1.678362 -2.066121 -44.007236" pbc="T T T"
Ga 0.07142196 0.01041305 4.57399357 0.64017715 -0.84716895 0.00229517
Ga 12.51276364 6.17451976 4.60408504 -0.96949078 0.15316706 -0.80858012
Ga 0.02181371 3.11119544 4.49944791 0.61966185 0.39919671 1.33912042
Ga 12.50409740 3.12126223 4.57949152 1.62207162 1.14834711 1.06009271
Ga -1.40511838 6.20053466 10.22992255 0.97463174 0.84687663 -0.32885811
Ga 11.09551619 6.15757869 10.19871407 -1.34793282 -0.15708474 0.30554920
Ga -1.43228820 3.15099570 10.25906418 -0.33015447 -1.33660349 2.63928381
Ga 11.04925312 3.07401300 10.20905728 0.08754987 0.78702362 0.32241618
Ga 11.08519639 -0.02126725 1.18689422 0.88635543 1.07294396 -1.08722077
Ga 23.59727361 -0.02976829 1.13535997 -0.48761615 0.94426347 1.04603998
Ga 11.01086128 3.06126327 1.11133861 -0.55352505 1.39247389 0.97966190
Ga 23.63585853 3.05010526 1.15124417 -0.28371104 1.75681354 2.68029038
Ga 9.68438959 6.18634095 6.96947450 -1.51818314 -1.01936774 0.49489114
Ga 22.15994202 0.02432065 6.89048771 -3.14968186 0.50958962 -0.52644904
Ga 9.70321575 3.06162433 6.91718779 0.86512980 -0.88412283 0.51322488
Ga 22.14152402 3.12760365 6.86064752 -1.21339500 1.63909259 1.12640395
Ga 6.18228113 1.59220946 4.48832490 -0.20897597 -0.04301066 -1.56388378
Ga 18.70827217 1.54866441 4.56841116 0.24003609 -0.40793889 1.00923274
Ga 6.27029602 4.64175613 4.46706311 0.53355775 -1.80770017 -0.70497199
Ga 18.78279092 4.60819260 4.54452837 -2.27428385 0.98799716 1.35462589
Ga 4.93865246 1.49662848 10.26205686 1.01907710 -0.83967158 -0.18552249
Ga 17.34377974 1.53537367 10.24284790 -0.57249586 -0.50202729 -0.57409331
Ga 4.87297862 4.61218775 10.26563084 0.35891157 -0.75456580 -0.32417386
Ga 17.37266005 4.57511715 10.32571724 -0.97603605 -0.08111315 -1.01084725
Ga 4.85149825 1.49594212 1.14656177 0.37351767 1.68444449 -1.28686552
Ga 17.24063064 1.49239519 1.17202280 0.21189535 -1.83033356 -0.25103688
Ga 4.83081285 4.69126938 1.16101998 -0.31394291 -2.31519048 -1.27723072
Ga 17.36024746 4.56760994 1.19859915 1.64308192 0.55453405 -1.63856017
Ga 3.38925785 1.54379612 6.86057271 -0.11238065 -0.04738568 0.30493600
Ga 15.91083361 1.54525096 6.92004295 -0.40112199 1.01695342 0.22427955
Ga 3.45191709 4.62576517 6.85187796 -2.22502556 -1.08092579 0.79876674
Ga 15.89434302 4.65941911 6.82903733 -2.31699943 -0.86992021 1.41919665
Ga 1.57521021 1.57703117 1.75492314 -3.20940812 1.13962774 1.21186117
Ga 14.04612718 1.52848382 1.79627794 1.36093289 0.41388329 0.18498613
Ga 1.58507756 4.60666550 1.78926442 2.07620762 0.73979801 -1.45285951
Ga 14.00388606 4.62225712 1.81638564 -1.72542280 -1.51801649 1.57871672
Ga 0.16251891 1.47634129 7.53493708 -0.88071211 -1.05181390 -1.65019744
Ga 12.65004456 1.52118504 7.47970362 -0.32179301 -1.35238300 -0.55794225
Ga 0.11436204 4.65298968 7.50834589 1.65498508 -2.73872076 -1.32724179
Ga 12.63064776 4.67075006 7.57622738 0.36309053 -0.60716467 0.83577997
Ga 9.58496014 1.49824012 3.91544320 -0.15615600 0.17282275 -0.08092835
Ga 22.01455578 1.53374707 3.88256625 -0.67999918 -0.29658278 -1.05250792
Ga 9.58684970 4.66146367 3.88608083 -1.93340367 -0.46574035 0.94732128
Ga 22.03402498 4.64320845 4.00338477 2.12485327 0.33187649 -0.55288791
Ga 8.13208684 1.47639701 9.61029704 0.07084866 0.72573842 -1.51648869
Ga 20.62994762 1.54264480 9.65711987 1.09943337 -1.01695165 -1.65707577
Ga 8.14960411 4.60677905 9.60158408 2.10658875 -2.57530976 -1.03435320
Ga 20.65480222 4.69477074 9.69694688 0.02118242 0.25574862 -0.38292301
Ga 7.78635743 -0.03755958 1.77131329 0.32705958 -0.72085030 -1.55439447
Ga 20.21852481 -0.01215231 1.72794595 0.27191297 -1.49363435 -0.55939759
Ga 7.79090672 3.09917828 1.81630441 1.30266746 0.85622385 0.75233518
Ga 20.22394464 3.06576734 1.75006113 1.38295661 0.29994859 0.07329968
Ga 6.41151487 0.05321317 7.57110305 0.11538189 0.30598159 -0.32943338
Ga 18.82914018 -0.00690154 7.53901705 -0.62632853 -0.11226596 0.51725069
Ga 6.40313628 3.12441598 7.54395124 -0.08521622 2.94247281 -1.35154960
Ga 18.89902307 3.05759912 7.48053732 -1.66657727 0.63064827 -2.54609641
Ga 3.26810123 -0.03392605 3.90129857 -0.59330360 1.49178488 -0.20807428
Ga 15.78888337 6.24529335 3.99877165 -2.62937296 -0.26832331 0.29723373
Ga 3.33605098 3.09121848 3.97026028 0.93021012 -1.60082787 -0.59108571
Ga 15.80101135 3.11705271 3.88509577 -1.78627935 0.04219186 0.79198235
Ga 1.89564748 0.04216050 9.65204069 -0.18180794 0.93397884 0.00347500
Ga 14.31836109 6.12594460 9.57444711 0.47102544 -1.48374519 0.79877655
Ga 1.95341074 3.09760485 9.59674294 2.23583191 -1.63481058 2.53487275
Ga 14.39233789 3.09704105 9.62358533 0.27938862 -2.08529025 0.08042996
O 1.90644437 6.17464090 0.61870444 -0.07051676 0.83891080 -0.20274961
O 14.35739304 6.19020603 0.67296421 -0.79179469 0.20124071 0.20927663
O 1.87056688 3.11416559 0.64930517 0.87236474 2.07339800 -0.79361131
O 14.25118725 3.09885070 0.61520491 -1.64262192 -1.03003543 0.49536492
O 0.53389711 -0.02819979 6.32715995 0.47414144 -0.37060769 0.23691166
O 13.02142410 6.19856174 6.33325805 0.13255796 -0.34224444 -1.08533711
O 0.49644628 3.12674325 6.35229901 -0.44995709 1.43167486 1.71544398
O 13.00663968 3.17066148 6.35031742 -0.87978028 -0.01136992 1.19300278
O 9.18225515 0.00752686 5.11930284 -0.67555738 0.85015851 -1.41233785
O 21.68447949 -0.03479417 5.14911733 -0.42864520 -1.02990643 -1.21802434
O 9.15295383 3.06551018 5.10670668 1.04039097 -0.18205332 1.93471706
O 21.75438564 3.03373729 5.02231621 2.42535755 -1.59791736 -0.26683202
O 7.84687351 6.15844437 10.91102874 -1.77394538 -0.47443416 1.90287734
O 20.24539710 6.14816877 10.84841662 -0.13723498 0.29811138 -0.98871900
O 7.83043604 3.05980028 10.82403359 0.68676810 0.79297850 -1.58306260
O 20.26419746 3.12741166 10.83588845 -0.33200274 -0.09153808 -0.55744460
O 8.12930812 1.55746199 0.62088447 -0.44745649 0.76446145 0.38475557
O 20.59268185 1.64098248 0.67009858 -0.82928400 -1.49499736 0.25927546
O 8.17274284 4.70769512 0.60250890 -1.78036232 0.25065934 0.57520263
O 6.73863863 1.58237043 6.28104699 1.28204092 0.06148835 1.17702274
O 19.23708568 1.57024088 6.38028282 -0.74767120 -0.83053596 0.95764397
O 6.72657492 4.66751211 6.33393927 0.22670033 -0.18152427 1.52583670
O 19.24220309 4.62044540 6.36060148 1.03730455 1.08588773 -1.12150102
O 3.00643467 1.50986598 5.06826969 2.54780755 1.11474908 1.81932572
O 15.50170310 1.59682459 5.04951949 -0.81462327 2.30396335 1.33759425
O 2.95353808 4.56909649 5.09570911 -0.39694985 -1.87445604 0.72936671
O 15.39215682 4.63180746 5.08955281 -1.75357356 -0.02527261 0.26634043
O 1.56706004 1.58835730 10.79055818 0.57650435 0.24074270 1.12707527
O 14.07109692 1.59865308 10.84081132 -0.24635851 0.47994461 1.00777032
O 1.54858191 4.56739300 10.72625140 1.75206754 -0.78836885 0.57500898
O 14.09546987 4.68166538 10.80568583 -1.44701236 1.89113002 0.88561494
O 1.26660571 6.16262947 3.25650879 -0.40871270 0.80940142 -0.68751598
O 13.82598602 0.03297889 3.23597833 2.98053794 1.94731600 1.02700100
O 1.41698000 3.10970703 3.19877660 -0.93162144 0.70264050 -0.09792131
O 13.89129105 3.07830575 3.22618264 3.59388775 -0.33637988 1.46491333
O -0.02270605 -0.00640693 8.94459271 1.01875165 0.90229087 1.50702556
O 12.49191876 -0.01323656 8.97305361 -0.67593343 -1.42403693 -0.72070722
O 0.05536451 3.11386555 8.99735462 -0.03063850 1.15335381 -0.96848850
O 12.46288743 3.15891965 8.96944917 0.02176707 0.23814087 -1.34999035
O 9.68201489 6.17261933 2.40155316 2.66600839 1.04389820 1.01555017
O 22.12566758 6.17744684 2.46129638 1.37117409 -0.79762463 0.39451400
O 9.68762628 3.09106477 2.45798083 1.78264182 -2.41263506 -0.77513470
O 22.21119233 3.09263228 2.47655086 -2.23558799 0.50080887 -0.86012193
O 8.28038536 0.00080382 8.20740393 0.63104912 -1.94408274 0.75245945
O 20.85744437 6.16015153 8.19811636 1.31702445 1.39092136 -2.32155974
O 8.32082680 3.07543564 8.18893172 0.61218510 1.00881999 -0.48151515
O 20.78831768 3.12187160 8.19965710 0.82339542 0.34032128 2.22513175
O 7.61915791 1.45744955 3.22821600 0.89757157 -0.45074565 1.66040906
O 20.10429014 1.51475042 3.28603118 -1.73905219 0.01476640 1.05261921
O 7.62146362 4.64000246 3.22877712 0.39462734 1.31002515 -1.28228992
O 20.13365866 4.63361740 3.17008471 1.65053429 0.71452140 -1.25240838
O 6.23657663 1.61354661 8.90399864 1.46972895 0.73735687 -1.72544716
O 18.75629413 1.62721938 8.98471997 -0.00722640 2.82592251 1.40412557
O 6.18138261 4.65696028 8.91035987 1.68569704 1.30232663 0.97115460
O 18.67668386 4.62596718 8.93049529 -1.26449383 -0.53265431 -0.09975667
O 3.50894860 1.55097866 2.44697908 -2.70410327 0.18235737 -0.20589013
O 15.97647182 1.46396584 2.58077192 -1.04068968 -1.54137378 0.32722807
O 3.51570966 4.68692495 2.43007810 -0.83287104 -0.63651197 -1.20067988
O 15.98044808 4.60172421 2.40833168 1.86362372 -0.86059104 -0.44756993
O 2.07409265 1.52483507 8.27436660 -0.55465296 -0.71270302 -0.24969343
O 14.54681640 1.59829885 8.27413360 0.72640687 0.85054134 -2.23877633
O 2.07101248 4.56383338 8.16748637 -0.45690879 1.59933354 0.96959015
O 14.57482624 4.57251405 8.22422280 0.62369517 0.39618580 -0.06260294
O 12.14767037 1.52565478 1.42118522 0.07259593 -0.86319590 -0.92992899
O 24.56594668 1.57637907 1.42927923 1.05052210 -1.03290189 -2.03072027
O 12.12957981 4.55274239 1.46898536 0.23535266 -1.40364515 -1.20125361
O 24.52612246 4.64420271 1.40530913 -1.19124719 -0.13495350 0.56568552
O 10.72659391 1.60270130 7.18106677 -2.08320611 0.83530950 0.71376862
O 23.20341588 1.52070794 7.14775219 0.15775877 1.31274060 -0.41900759
O 10.73379072 4.64520378 7.14467480 0.48824198 0.68850241 -0.17752238
O 23.07664474 4.60997124 7.17326927 -1.35535608 0.20801100 -0.62119976
O -1.01575049 1.49382263 4.29696820 1.08785749 -0.22759014 -0.91780093
O 11.56775302 1.53512184 4.25789448 0.14649728 -0.36463538 0.76734306
O -1.04578372 4.57759111 4.24343167 1.71621717 -0.71417156 -1.43420332
O 11.46466133 4.68497606 4.27274115 -1.16335827 -0.21068649 -0.38384509
O -2.32805043 1.48168301 9.97891612 -0.02371636 -0.95813171 0.37972921
O 10.13825661 1.53506840 9.97403639 0.38201184 1.32390460 -1.09488224
O -2.34745579 4.57453677 9.95536420 -0.23405167 -0.51666551 1.48591340
O 10.05852695 4.58516893 9.93273622 0.80075840 -0.40756490 -0.34781966
O 5.78124333 6.23485091 1.49242078 -0.95501181 0.86473861 0.63653648
O 18.28962344 -0.03109794 1.44103335 -1.19708919 -0.66928162 -1.21181180
O 5.73139898 3.06586070 1.55520171 0.12709787 0.08856679 -0.17698753
O 18.39207396 3.15114547 1.43767621 0.86063925 1.51480098 1.97700964
O 4.44408040 6.14799466 7.17716119 -0.63985750 -0.43321457 -2.30266085
O 16.85791144 0.00622405 7.12937065 -0.10870331 -0.30920012 0.07443427
O 4.52107582 3.16819403 7.19738977 -0.20694781 -1.59868786 0.35676997
O 16.90924158 3.06928120 7.20820206 0.23170602 -0.57452985 -0.47630117
O 5.22506992 6.27635122 4.28165979 -1.98452430 -1.13710787 1.05577204
O 17.78366318 0.07420458 4.26439907 1.27737592 0.98489865 -1.38060861
O 5.27539248 3.15991395 4.28221182 -0.41562625 -0.89122256 1.29697227
O 17.72279936 3.03864937 4.34545711 -0.38934633 0.68070200 -1.12138247
O 3.84335291 6.17435518 9.95165259 -0.71876485 -1.72119524 -0.52847951
O 16.33518235 0.09125467 9.95680307 1.59197042 0.38020804 0.18437404
O 3.79911512 3.14478657 9.95973964 -0.04722681 0.81684887 0.88445224
O 16.27601973 3.16798712 10.06851683 -0.70852154 1.46332000 -0.70670300
159
Lattice="24.862876 0.000000 0.000000 0.000000 6.155709 0.000000 -2.773499 0.000000 11.396960" Properties=species:S:1:pos:R:3:force:R:3 Energy=-623.460086 Virial="-55.147995 -3.069598 -6.610757 -3.069598 -43.775703 -4.941228 -6.610757 -4.941228 -48.527304" pbc="T T T"
Ga -0.00423632 0.01991028 4.58637790 0.48440107 -0.75380599 0.48097043
Ga 12.41286420 6.15054821 4.35256613 -1.82095026 0.47283424 -0.04570531
Ga 0.07268144 3.10538398 4.50065113 -0.94565894 1.20668496 -0.98139855
Ga 12.35250400 3.15207043 4.55656642 2.48243584 1.25693308 0.52730227
Ga -1.36384563 6.19137511 10.18002981 0.17570155 -0.28340594 0.41172785
Ga 11.02479384 6.16598670 10.26330381 -1.11087857 -1.07957534 1.03568388
Ga -1.42046284 2.91103389 10.19027165 2.89730784 0.79637094 -0.52584293
Ga 10.96954576 3.05853079 10.22655877 -0.36920434 1.50826902 0.22661173
Ga 11.05081774 -0.05719362 1.09819998 -0.41540076 1.90259786 -0.63516699
Ga 23.44674916 0.00408272 1.18507974 1.66584976 0.76326469 -0.02837850
Ga 10.98018209 3.03595718 1.13914910 0.83035080 0.27651182 -0.68977219
Ga 23.51944870 3.08426067 1.21716651 1.84827419 -1.09614425 -0.10164949
Ga 9.62207915 6.14955080 6.79209265 -0.97398329 -0.95629540 -0.91876586
Ga 22.04795122 0.02073571 6.95484692 0.93965317 -0.73019352 1.56320492
Ga 9.66667378 3.08643807 6.88809935 -1.98066486 -0.89046655 0.17373557
Ga 21.99324735 2.99440313 6.80892228 -1.86812980 -0.09418111 1.39684948
Ga 6.18360883 1.52061555 4.53383407 1.22666674 0.86191713 -1.85227581
Ga 18.67786177 1.57049808 4.54074570 -1.30080517 -0.44053477 1.12981116
Ga 6.19102390 4.61436801 4.50730768 -1.52619806 2.75425536 -1.58588187
Ga 18.71026074 4.58494031 4.53116962 -1.93540023 -0.49303167 0.69017038
Ga 4.77559806 1.53128209 10.24102616 2.56652379 -0.52488755 -2.11764951
Ga 17.24887227 1.50507768 10.21986265 1.17287193 -0.91254535 0.53218725
Ga 4.81770256 4.63164022 10.18366865 -0.91630333 -2.45480834 1.22508088
Ga 17.29309208 4.54959740 10.17352013 1.97511768 0.64877371 -0.84360218
Ga 4.81104209 1.55901466 1.19104625 0.57988505 -0.10108273 0.50972535
Ga 17.22331461 1.48149790 1.17386729 0.86986519 -1.53936510 -1.94770601
Ga 4.83756506 4.54631689 1.22091323 -0.67706320 -1.13385642 1.39623997
Ga 17.22273838 4.59795695 1.22447556 -2.06351673 -1.30066295 0.98105785
Ga 3.46588317 1.50356843 6.83159198 0.85635632 -0.97279415 0.88886316
Ga 15.82596742 1.58802087 6.82602986 2.24505912 2.63322904 0.72549829
Ga 3.39793401 4.59246783 6.76529218 -1.69581087 3.01083393 -1.60700996
Ga 15.82583445 4.67707466 6.84318728 -0.06164390 -0.97876924 0.98027088
Ga 1.48941981 1.56915412 1.77107742 -1.31793127 -2.21703963 -1.02027893
Ga 13.95444686 1.50533015 1.79131589 0.51579807 1.08377419 -0.64593434
Ga 1.51014641 4.64085300 1.81299858 0.99691980 -0.14186824 1.24509376
Ga 13.91238611 4.64227901 1.79714371 -0.32134522 1.56903647 -0.05738483
Ga 0.12728468 1.48271603 7.48602704 -0.52536461 3.22715744 0.16335655
Ga 12.51844170 1.51816924 7.40696271 -0.85523903 -0.66347535 1.66156057
Ga 0.20233070 4.63014350 7.43582355 -1.05505516 0.97235313 0.47610681
Ga 12.60962007 4.60330236 7.53337529 -2.02778119 1.53302365 0.02913030
Ga 9.46986194 1.52818232 3.87905163 1.09964328 -2.16234656 -1.63849858
Ga 22.03397729 1.58573410 3.84659647 0.24334472 -0.50155216 0.90698271
Ga 9.59133089 4.47883624 3.87536346 1.13104420 0.64672366 1.29853641
Ga 21.97753257 4.69369946 3.85019158 0.10868578 -0.02717347 2.75517440
Ga 8.07380759 1.48619748 9.63937540 -0.24303841 -0.38138123 1.25461808
Ga 20.55217825 1.45209259 9.59211993 -0.89281687 -1.82145872 -0.13518195
Ga 7.97794337 4.62852664 9.55935732 -0.03300633 2.65029594 -0.76891047
Ga 20.49193571 4.73611365 9.62707544 0.69619017 1.60009477 2.50658489
Ga 7.76749177 0.03641156 1.78321719 -1.36472741 -0.68370577 1.04741660
Ga 20.21541410 0.01926363 1.74633224 0.86787525 -1.13169856 -2.31421757
Ga 7.66484845 3.08478471 1.58588308 -1.18253341 0.59573792 0.84976757
Ga 20.16026212 3.08905287 1.75893610 0.83095537 -0.57196335 0.52048210
Ga 6.44125017 0.05395862 7.50358800 -0.81146678 0.78340090 0.09538556
Ga 18.82604786 -0.00538870 7.42473094 1.10804578 0.97899215 2.01907144
Ga 6.40692817 3.04499648 7.43700909 1.54097458 1.44565603 -0.61663543
Ga 18.87113814 3.05975256 7.37026374 1.14518085 -1.61871790 0.17753724
Ga 3.39055084 -0.06591924 3.94285987 -0.63221252 0.15664987 -1.04765575
Ga 15.63590607 6.20656135 4.01014789 -0.12450890 -0.04579497 -0.93381541
Ga 3.36029296 3.06078572 3.88512323 -1.05118800 0.59263367 1.19616762
Ga 15.74370260 3.18760115 3.85859851 0.01388624 0.27285208 -0.87862773
Ga 1.92142300 0.05501898 9.58611277 0.52249116 1.89962856 0.47822885
Ga 14.40018919 6.18784794 9.63717657 -0.46611893 1.05736474 0.75889247
Ga 1.84721728 3.03143583 9.52228064 2.54664843 0.35797645 -1.53560719
Ga 14.35515953 3.08518385 9.62309527 1.73042817 0.32797331 -0.91245491
O 1.87892904 6.17084307 0.65056956 0.23808774 -0.52696405 0.91867858
O 14.36556477 6.06557232 0.49181048 -1.76731110 -0.91755358 -0.52183649
O 1.90238743 3.05505123 0.65572453 0.93862690 1.12959382 0.40492774
O 14.30276686 3.15588468 0.61947320 0.64696530 -0.16274669 -0.24841131
O 0.52503848 -0.09625267 6.37738821 -0.63807811 0.31998195 0.43986236
O 12.97121616 6.09593152 6.27567220 1.45782878 1.18652553 -1.03560347
O 0.39535609 3.21657615 6.33770039 -0.98945512 0.28895774 -0.76198367
O 12.93991122 3.07326302 6.35885533 -0.32446493 -0.02154988 -2.01234961
O 9.11056795 0.07466350 5.03676102 0.41201997 0.44162554 -0.21078509
O 21.49161941 -0.00893381 4.97308206 -0.12914064 -0.06747675 -1.26288471
O 9.19096976 3.10107868 4.94660360 1.32464116 -0.36439593 -2.31723796
O 21.54179930 3.04514871 5.18399783 -1.22428039 0.30508747 2.75766294
O 7.84789012 6.14258366 10.75420648 -0.86281068 0.95000044 -0.03102166
O 20.17298876 6.19979230 10.80086163 1.19602938 -0.24111993 -0.81980220
O 7.72908837 2.98431976 10.73531155 -0.91411548 0.54401112 -1.27309926
O 20.25027279 3.01619207 10.73885713 -0.49176360 -1.53381078 -1.55579464
O 8.11300943 1.48076862 0.59066554 -1.74327213 1.47300386 -0.45918684
O 20.63301679 1.57380522 0.67368723 0.53133672 -1.89011546 -0.54278751
O 8.16576239 4.59537631 0.62400640 -0.69246873 0.34390494 0.71852285
O 20.48523731 4.61950512 0.54921630 -0.10873040 1.41357128 -1.11676386
O 6.66570321 1.60561861 6.28184533 1.78367338 -1.48821632 -0.24380332
O 19.11969342 1.53688910 6.28402649 -0.19091038 0.57163872 0.29087799
O 6.70757098 4.58060841 6.35270855 1.47528504 -1.18580305 1.49371625
O 19.18314478 4.54476921 6.34781091 2.54076630 0.79793922 2.49675503
O 3.00774350 1.47815466 5.13114275 -0.51804720 -1.20686046 0.06976203
O 15.41294431 1.64923900 5.10011474 -1.66309855 -0.10427188 -1.30430705
O 2.81741140 4.60476400 5.06549824 -0.84795322 -0.10170419 -0.82900516
O 15.49941553 4.67379704 5.06311441 -1.89288756 -3.42971292 0.66645257
O 1.57935369 1.56549969 10.79250189 -1.33189786 -0.24685985 -0.17489937
O 14.04556262 1.55134264 10.74617434 -0.71440861 -0.68629692 1.39377934
O 1.53855368 4.63302903 10.78522624 0.21195711 0.27778581 -1.63229928
O 14.12565918 4.72572596 10.71168253 0.07034366 -1.94440530 -0.51567333
O 1.38671659 6.20277195 3.29719333 -1.45586794 -2.51586464 -0.01288345
O 13.81217153 0.04905631 3.23378836 -1.06413581 0.84831655 0.90928717
O 1.35878280 3.10781349 3.21426954 0.47725333 0.06254266 -1.82729781
O 13.80740478 3.10119928 3.22094903 0.82329068 1.16020372 0.29821524
O -0.01454989 -0.04841796 8.88069532 -0.72701738 -0.89229681 -0.48858695
O 12.43277428 -0.08183234 8.96726173 -0.26540827 -2.28515835 0.05464617
O -0.09451482 3.05040605 8.91717095 -0.78368339 1.30452211 -1.26668165
O 12.37290781 3.04862575 8.89088947 -1.94947750 -0.74159242 -0.51327930
O 9.68668648 6.21094127 2.47505933 0.23766751 -1.05770409 0.99412480
O 22.14985513 6.07170334 2.50708973 -0.95990502 -0.62850041 -0.82959997
O 9.66398019 3.21772939 2.55395704 -0.39050854 -0.22521362 0.05886841
O 22.18755772 3.01743017 2.58308773 -0.25112808 1.21960833 -0.63849893
O 8.22357869 0.00152386 8.04982076 -0.66484247 -0.33011777 0.67302051
O 20.70632706 6.24861723 8.04644364 3.65884829 -1.73035833 0.32242556
O 8.26962091 3.13889858 8.17632767 0.32087177 2.04907942 -1.29965768
O 7.68476410 1.55081218 3.15000861 -1.57449953 -1.37850387 -0.27209607
O 20.04415313 1.54270585 3.24417293 -1.73072284 -1.74145322 0.20868805
O 7.55544578 4.50221041 3.20457438 -1.06811032 -0.42247587 1.42759450
O 19.93910314 4.69940018 3.17198266 -0.35591385 0.37898898 1.18659516
O 6.19667641 1.49856346 8.95154738 0.06077418 1.42376906 1.58113893
O 18.75444508 1.55412636 8.84181616 -0.68333737 -1.90129521 -0.81993393
O 6.20555224 4.59183737 8.89166620 0.39298954 0.24138640 -1.15657659
O 18.57299675 4.53952316 8.92831331 1.57846313 0.33492019 1.39025753
O 3.48380976 1.53077258 2.47460402 1.23368254 0.45236103 -0.31519659
O 15.85522549 1.57909687 2.58374731 -1.58626373 -1.37800283 0.29721598
O 3.48201933 4.60962876 2.43172426 0.14833406 -2.45196439 -1.92866139
O 15.91321993 4.67237213 2.32819515 0.25520342 1.05741093 -1.70548082
O 2.07010544 1.49657261 8.19837739 0.51411343 -0.02003556 2.07840299
O 14.58342905 1.51562735 8.31461145 0.33313865 1.22771583 0.37961645
O 2.11104832 4.79036497 8.13985347 0.09563031 2.12651895 0.46668602
O 14.40452721 4.53890068 8.15942345 1.71897537 2.19999441 1.80246844
O 12.06248736 1.60160375 1.44255338 0.41801482 -1.56081733 -0.31395468
O 24.41614859 1.56365248 1.39882905 -0.55151987 -0.89904639 -1.22511251
O 12.02645832 4.63593546 1.41870429 0.22886572 1.07065792 2.08527900
O 24.40684272 4.69657257 1.52107865 -0.22038466 0.22536822 -1.51503264
O 10.64999676 1.61041202 7.10028741 -0.01474066 -1.59039339 -0.36224996
O 23.02328596 1.53429239 7.18422614 -1.06870779 -0.88223078 -0.83142739
O 10.68291992 4.49032847 7.13669474 1.29617973 -0.99633483 1.50297589
O 23.05636669 4.62745240 7.15441720 0.45460216 0.46167722 -1.93953608
O -1.00690952 1.49512486 4.24386339 -1.74022844 -1.13179464 0.72378170
O 11.56374669 1.68420540 4.13899163 -0.78723829 -0.87760207 1.66284374
O -0.93672605 4.59604033 4.16389814 -1.35480297 -0.41345339 -1.19895640
O 11.33293209 4.66045736 4.37944648 -0.33160145 0.42986776 0.86651461
O -2.36419451 1.53710219 9.94835672 1.69837836 -0.42892822 0.78398982
O 10.13418632 1.65113787 9.92001047 0.77110412 1.60857961 -0.23356772
O -2.37129845 4.72840860 9.94503352 -0.92111093 -0.46197121 -2.23137442
O 10.06720508 4.61780130 9.97788115 0.86167072 -1.75333901 1.59405921
O 5.79466848 6.07917277 1.43191604 -0.74067943 -0.47534972 1.68659025
O 18.23009842 0.09856214 1.51674059 -0.49990195 2.20295723 -0.41318119
O 5.71828217 3.24495683 1.48476378 -1.67924741 -0.17640498 0.80821572
O 18.18053110 3.05708276 1.42849649 0.65998631 -0.25416201 1.98133538
O 4.39945936 6.22148617 7.14830963 1.08993689 1.50599611 0.39788960
O 16.87051395 -0.01033734 7.19808100 0.09843992 0.20908770 -0.85922605
O 4.38872806 3.01693790 7.19433424 -2.09493192 0.23577923 -2.30643798
O 16.95025481 3.05166865 7.19539477 0.79124377 -0.23985498 1.48014437
O 5.21022350 6.17034636 4.18134103 -0.66090134 1.69406373 0.34316269
O 17.67585947 -0.02346303 4.23302918 0.14944694 0.72483089 -0.03750581
O 5.23960386 3.00484991 4.25609854 -0.41770483 -0.50890344 -0.45072994
O 17.68229071 3.11709224 4.22648133 0.95667498 -0.11755031 -2.24210035
O 3.79349184 6.18463148 9.88656897 1.98551399 -0.12870010 0.25645346
O 16.31925035 0.00494249 10.00023154 2.43540270 0.13328421 -1.81417131
O 3.77313964 3.03829542 9.92317505 1.19401358 -0.89000336 0.27425321
O 16.23208633 3.08822075 9.95001616 0.52486076 1.83490715 -0.23828384
159
Lattice="25.127160 0.000000 0.000000 0.000000 6.221142 0.000000 -2.802980 0.000000 11.518106" Properties=species:S:1:pos:R:3:force:R:3 Energy=-622.794052 Virial="-57.694993 0.385673 -3.022183 0.385673 -44.813267 -4.658506 -3.022183 -4.658506 -42.772502" pbc="T T T"
Ga -0.01823093 -0.09761387 4.53081763 -1.31760251 -0.46629881 0.91472977
Ga 12.53338141 6.30168159 4.66755201 -1.47098522 -0.73213652 1.66120636
Ga 0.05044458 3.01848710 4.65987641 2.20849587 -0.35177396 -0.34804585
Ga 12.55178226 3.20406790 4.47954646 0.34041956 -0.25297712 1.55824638
Ga -1.29968322 6.37280115 10.36001421 -0.58393156 1.26304121 1.03935033
Ga 11.13638477 6.26856980 10.24881134 -0.26232694 0.26264775 1.24470026
Ga -1.29739711 3.12632886 10.43567880 -0.01626645 1.44177446 0.01847081
Ga 11.12030202 3.12184050 10.31713056 -1.45161201 -0.58523198 -1.77543440
Ga 11.03956268 0.01544972 1.24109753 0.33160106 -0.67802253 1.68860150
Ga 23.66343338 -0.18230569 1.26273127 1.18604088 0.44343867 0.20014911
Ga 11.01664503 3.24828833 1.18592507 0.48201831 1.62732013 -0.11495321
Ga 23.77720766 3.17167835 1.15642849 2.19643139 0.39112051 -0.44279426
Ga 9.66601579 6.44993129 6.87029576 -1.13607412 -1.20860107 -1.42508666
Ga 22.32804585 0.06474490 6.94758728 0.56666257 0.73243534 0.85873350
Ga 9.75324219 3.06562180 6.89380492 -0.34387621 -0.36010192 0.34852999
Ga 22.20740167 3.10480667 6.98194952 0.32070131 -0.30592997 1.77255126
Ga 6.43106683 1.70836285 4.67621611 -1.61371681 -1.70953751 0.10312164
Ga 18.78268616 1.57156320 4.46813905 0.79462777 1.33212102 2.33812240
Ga 6.16670721 4.51979473 4.55685326 -1.82238582 -1.12808998 0.78760204
Ga 18.82807930 4.55433439 4.51867218 -1.50827346 -0.37280291 -0.15937611
Ga 4.93970548 1.47571686 10.15002833 -1.19601722 0.08289298 1.63529343
Ga 17.34192906 1.59360668 10.32406295 1.29564454 0.52090398 0.09184955
Ga 4.92665008 4.62036316 10.18007642 2.00300584 -0.70324371 0.13734577
Ga 17.49131222 4.81503391 10.35435368 1.19927935 -1.05760256 0.02526648
Ga 4.85507945 1.58806651 1.14724108 0.16936959 1.98859237 -0.55104695
Ga 17.33892507 1.56837234 1.08016630 0.62972370 -1.61133416 1.09157170
Ga 4.96586452 4.76034970 1.11367803 -2.54165931 1.99329539 -0.35006344
Ga 17.47907852 4.67189501 1.23215862 0.31386026 0.35665981 -2.41088725
Ga 3.49506620 1.53111267 6.81149195 -1.73208663 -0.76454632 1.23994478
Ga 15.96738708 1.48632546 6.93349308 1.58168423 1.52205212 -1.29205730
Ga 3.37237072 4.74151424 6.97168214 -0.77274848 -2.75109052 -0.31887260
Ga 15.97200823 4.78378948 6.93544583 0.18938373 -2.03382372 1.58341425
Ga 1.49096077 1.59632106 1.72298639 1.07707945 -0.48480738 0.63714894
Ga 14.19593643 1.56884119 1.86648583 -0.00661108 0.84095517 -1.40146444
Ga 1.54674262 4.79209910 1.75794787 1.14072911 0.84161732 0.93741212
Ga 14.15141274 4.69636506 1.97994092 0.52436404 -0.76857236 0.29249084
Ga 0.08412141 1.56664187 7.54431110 0.65094706 2.54272706 0.25266651
Ga 12.82525991 1.52678289 7.58156392 0.06933326 -1.18987791 -0.42863268
Ga 0.21657762 4.68497362 7.71618068 -1.11877538 -0.35901944 0.09929306
Ga 12.74294832 4.60204086 7.61487808 -0.05974519 -1.58452477 -2.58350402
Ga 9.62866402 1.46203003 4.00804441 0.26628061 -1.78709669 1.02856224
Ga 22.10703540 1.55308346 3.80076325 0.89401527 -0.54299122 2.21870573
Ga 9.63311891 4.61292588 3.92941984 0.28899584 1.05527007 0.27836681
Ga 22.24970982 4.82333803 3.94758689 1.24926792 1.42168694 -2.00936316
Ga 8.21250831 1.58547385 9.84022224 -2.15450694 0.31189455 2.71650082
Ga 20.70836228 1.57386235 9.64439915 1.22134576 0.04253287 -0.19643479
Ga 8.17890551 4.61924676 9.69797300 1.02861548 1.85672498 -0.02646642
Ga 20.75143669 4.63649122 9.67255509 -2.56703481 -1.99125957 -0.84014677
Ga 7.88085427 0.09105047 1.86797077 0.17671379 0.67950435 -0.45374367
Ga 20.43631810 -0.00037794 1.75160262 2.27157459 -0.74287283 1.57256900
Ga 7.83557582 3.16878336 1.87399080 -1.38741051 -3.03094438 -0.39911069
Ga 20.49543309 3.11648671 1.84464850 1.26543805 -0.81069231 0.49348209
Ga 6.52567239 0.03881608 7.58244709 -0.01845692 -0.99847548 0.24163201
Ga 19.02328434 0.01489169 7.52221972 1.91240399 -0.24352185 -0.17644412
Ga 6.42270845 3.07027687 7.55504807 -0.56044972 -0.18041416 0.16567306
Ga 18.84974565 3.17784739 7.54267675 -0.34006397 0.58234267 -0.72572007
Ga 3.36341833 -0.03422812 3.84563376 1.34630558 -0.85732500 -0.22132588
Ga 15.89950506 6.19068869 3.93099545 1.68404024 -0.20041972 1.07886071
Ga 3.26676181 3.17346990 3.99272931 1.98027542 -1.67221932 -1.63184577
Ga 15.78050772 3.19238164 3.81471399 -0.63178362 2.65488830 0.37986755
Ga 1.80306699 -0.00698189 9.72106831 -1.38472331 -1.27771766 -1.63052790
Ga 14.53042627 6.13175430 9.74848899 -2.70079656 0.88284876 0.66577744
Ga 1.96887185 3.14032013 9.81832686 0.91232724 1.52932181 -2.33677163
Ga 14.52345122 3.06064146 9.64517559 1.71543423 0.14484593 -0.89986044
O 1.94217629 6.14608758 0.56631376 -1.93972057 0.47802414 -1.59931702
O 14.45246878 6.26920784 0.62136138 -0.04331751 0.23009641 -0.57176924
O 1.87594811 3.18824602 0.65180242 1.13859288 0.10520832 -1.51539346
O 14.48560571 3.21870091 0.58483255 0.03946308 -0.73821791 0.75884779
O 0.47444603 -0.02716096 6.46814368 -0.28213039 0.98649588 -0.32211729
O 12.98817618 6.16271405 6.37367579 -1.10415346 0.30873651 -1.06102615
O 0.52956224 3.10777908 6.41729004 -0.06142954 0.04896564 -0.27939568
O 13.00862068 3.05410082 6.31160118 0.81743917 0.41625917 0.98435261
O 9.31987103 -0.04828471 5.18324085 -1.23370785 0.92742032 1.59951228
O 21.75019842 -0.05882898 5.18619446 -0.22755614 -1.63189347 -0.28599841
O 9.26054233 3.11454499 5.21515246 2.05863175 -2.19383901 0.54812609
O 21.96696794 3.07604952 5.11931188 -0.59939674 -1.97822543 1.63628374
O 7.74003749 6.25956246 10.84189104 2.34411241 0.37444894 0.16795325
O 20.45459340 6.27596393 10.82452914 -0.35253641 -1.22779032 1.02283515
O 7.90118235 3.13116125 10.86058582 0.62585137 0.16892191 -0.93502502
O 20.29782685 3.01514205 10.84645856 0.54209803 0.63841552 0.16283988
O 8.26365330 1.54159149 0.68244247 0.59741632 0.00589602 0.25564318
O 20.69231535 1.57229507 0.68649014 -0.59625710 -1.41479525 -0.79888119
O 8.27912635 4.75893173 0.52798212 0.90138556 0.44952611 -0.21887471
O 20.71660872 4.56688924 0.59402064 1.05776425 -0.52341710 -0.32953782
O 6.88497110 1.55410317 6.30419300 0.98061962 -0.58232714 0.36105961
O 19.33543036 1.56378637 6.50058014 0.16681790 1.57614647 -0.99042713
O 6.66261674 4.76450734 6.40878618 -0.16569247 -1.48477510 -0.98612986
O 19.41833576 4.51749293 6.39592636 1.71603961 1.21021637 -0.00079185
O 3.01512667 1.51653910 5.05430666 -0.01749413 -0.80081083 0.26163301
O 15.50984185 1.62509726 4.99873159 -1.79897455 -1.67901752 1.02594975
O 2.83848288 4.53891509 5.08828427 0.18403755 1.16915755 -1.15675763
O 15.64758891 4.53643120 5.23804401 0.02997650 0.76399140 -1.29580050
O 1.64569180 1.53629380 10.75851627 0.26033065 0.92750575 0.62763910
O 14.17930329 1.58121158 10.96290781 1.72560634 0.96306826 1.33677536
O 1.56649093 4.70872937 10.78393515 -1.46636256 1.64709877 -0.58482798
O 14.08585577 4.68168346 10.84514760 0.95321166 1.03183293 0.98232635
O 1.54193317 6.32367891 3.25407348 0.13493890 -2.36123490 -0.43175496
O 14.02593372 -0.08774600 3.24711382 0.11025386 0.31548332 -0.61384496
O 1.34868117 3.15989888 3.22130653 0.09361246 0.86038945 -0.25285742
O 13.96788576 3.21189108 3.22397662 0.68074963 0.16290544 -0.36824809
O -0.04044540 0.04401304 9.01048852 -2.78719253 0.04845215 -0.00706894
O 12.35250796 0.10749751 8.98295785 0.24182291 1.22714480 0.00670892
O 0.04523778 3.05708365 8.91780948 0.29500395 -1.99908039 -1.89554186
O 12.55409371 3.12616961 9.13119400 -0.88804564 -0.28039538 -0.04459948
O 9.71144246 6.08085674 2.50828144 -0.25910588 -1.00707083 1.94277734
O 22.38956968 6.29771500 2.47635767 -0.46461150 -0.43504932 0.88035023
O 9.78508336 2.99535093 2.43578903 -0.39585618 1.22871270 0.03023138
O 22.20028809 3.15992354 2.45722326 1.07626002 1.87948164 1.98595151
O 8.30823745 0.04776698 8.22362809 1.20213947 2.72827161 1.61943355
O 20.83636359 6.24497500 8.19134046 0.49008032 -0.36299688 -0.08146892
O 8.30658754 3.22066838 8.32679847 -0.64451068 0.74687780 1.93062844
O 20.88623544 3.16164249 8.28704764 -1.77675593 -0.06707413 0.01489517
O 7.68004574 1.48065716 3.22943344 -0.45769943 1.76888008 0.01343308
O 20.17494158 1.64604160 3.16349461 -1.33213815 -0.62779623 0.15858735
O 7.59876379 4.65807092 3.28508770 -0.99319674 -1.77358259 0.55791018
O 20.19327420 4.82119642 3.07148507 0.79473044 -0.36273384 -3.27418154
O 6.17605230 1.56197854 9.06777296 0.97567437 1.71595069 -0.45667413
O 18.93442479 1.56222954 8.97991665 2.51717829 1.73199230 0.99697750
O 6.26623311 4.60428485 9.14089824 -1.23458867 -1.75409661 -0.16050013
O 18.91595323 4.60538993 9.01420321 -0.84611311 -2.10068265 0.86162047
O 3.52988911 1.66216556 2.47401809 -2.54171373 -0.22854019 -0.03355959
O 16.14773718 1.46631571 2.59989866 -1.58054972 -1.82287161 -0.75025886
O 3.50295500 4.76072483 2.47634848 0.73659576 0.08611336 -3.29228069
O 16.10691939 4.59289919 2.61005642 0.14242350 -0.72176902 0.22757761
O 2.25363494 1.52539430 8.28347810 -1.80044124 1.58296210 0.48483328
O 14.66057207 1.51941968 8.18108483 -0.55972140 2.01123430 -1.29858330
O 2.08391878 4.67022211 8.23626705 -0.80746720 -0.37321873 0.73491973
O 14.63369172 4.71864738 8.20649824 -0.81448612 2.29318014 -0.00189559
O 12.15064472 1.57924667 1.47253895 0.46294399 0.45229316 -0.22450430
O 24.78601891 1.62406950 1.45578059 -0.48274610 -0.30118629 -2.32345653
O 12.31382953 4.57200411 1.39413538 1.25194047 1.05356393 0.85846670
O 24.81396169 4.63749878 1.32869815 -1.11418023 -0.30055263 0.43762944
O 10.66180745 1.64836707 7.17411771 -0.55602622 1.63584555 1.40165424
O 10.71777189 4.62736068 7.19436103 -0.03716950 -0.19878314 0.51216956
O 23.17802527 4.61736938 7.23181020 1.87896494 -1.74645887 -0.50025863
O -0.94573725 1.52271039 4.16306620 -0.44434458 -1.05097019 -1.48338169
O 11.66830566 1.55793974 4.29364914 0.05224329 -0.56710971 -1.34179802
O -0.95492403 4.62913714 4.33984890 -2.07862722 1.77920352 0.50845936
O 11.54324765 4.67954260 4.32453343 0.01748071 0.77592847 -0.85723410
O -2.31564057 1.54079774 9.96593531 -0.00800994 -0.53439270 0.37560737
O 10.12956124 1.47440058 9.99746358 -0.42636346 -0.94010068 0.61471106
O -2.33301631 4.68885766 10.08161699 -0.38399953 0.69148238 -0.23704467
O 10.19631378 4.70871663 9.99384910 -1.98800223 0.19033061 -0.97853793
O 5.91991743 6.26094835 1.53641668 -0.98369038 2.07712787 -1.63462438
O 18.37279304 -0.00580266 1.59396226 -0.22552129 -0.03271490 -1.93642328
O 5.83356260 3.12048507 1.48314528 1.28556876 0.39401164 -0.98622185
O 18.45071643 3.03450833 1.39506042 -1.48701026 -1.46644618 -2.90885546
O 4.52966970 6.27701085 7.21575105 -0.11295072 0.53835782 -0.74864783
O 17.10602975 0.00656026 7.25002769 1.39646246 0.60751777 0.63380651
O 4.53247596 2.92529043 7.16825299 2.26784076 1.61380047 -0.00199305
O 17.17320816 3.11272303 7.29017590 -2.34940193 -1.11684480 0.18010338
O 5.23079726 6.31340001 4.22460221 1.80330800 0.79654415 2.25611953
O 17.82137820 0.03994526 4.33221729 0.27072133 -0.31044151 0.45769707
O 5.26438892 3.13007439 4.36321742 -0.40776072 -0.18492592 1.14447952
O 17.88958112 3.16767341 4.30103590 -0.69629104 0.67233565 -0.97149656
O 3.85301798 6.32017015 10.00466220 -0.91083135 -0.41347927 0.82613346
O 16.55819160 -0.03367125 10.04351509 2.10076607 -0.61424616 -2.25027653
O 3.86341878 3.07455987 10.10370200 0.02072182 -0.85429406 2.08341908
O 16.44989354 3.02468096 10.06201664 -0.45848736 -0.47711713 0.56324526
159
Lattice="25.105672 0.000000 0.000000 0.000000 6.215822 0.000000 -2.800583 0.000000 11.508256" Properties=species:S:1:pos:R:3:force:R:3 Energy=-622.230666 Virial="-52.642961 -0.745192 -2.831655 -0.745192 -46.268164 0.233185 -2.831655 0.233185 -41.454440" pbc="T T T"
Ga -0.03488478 -0.03891849 4.69742289 -0.05620176 -0.75440497 -0.99482637
Ga 12.59813557 6.26808836 4.58720593 0.00393555 0.46981474 -0.68898997
Ga 0.02727782 2.97653788 4.55297164 0.80588584 1.35344174 -0.62171412
Ga 12.58278245 3.02108713 4.58948703 -0.41641195 -1.67058682 3.21075479
Ga -1.38186331 6.33126649 10.44055570 -0.63846358 0.32297673 -0.19433300
Ga 11.11068300 6.09884194 10.30229377 0.04725896 -0.86459719 -0.39189143
Ga -1.34352570 3.02366337 10.24682762 -0.92038257 0.06876389 -2.16282012
Ga 11.21786871 3.28322944 10.36996722 0.95447691 1.71910150 0.08052866
Ga 11.07654017 0.05029864 1.19025761 -2.33539594 1.22165084 -0.01503315
Ga 23.71995190 -0.01166255 1.11778973 -0.93355048 1.35765740 -1.01219615
Ga 10.97221219 3.13594702 1.18069927 0.06804198 -0.84368014 2.43615545
Ga 23.78942998 3.02044024 1.18018841 -0.23051948 -0.51552718 1.31080385
Ga 9.57834638 6.21296835 6.84552701 0.28448040 -3.08072258 1.60881035
Ga 22.34297977 -0.00888021 7.00287223 0.56373996 -0.40980224 1.80177892
Ga 9.72081742 3.18455221 6.89731336 -0.63663972 1.42113129 -0.36182966
Ga 22.31237567 3.01319060 6.79676020 0.70652977 0.01107836 2.55949976
Ga 6.30689154 1.57006424 4.68769754 -1.30748528 1.20478434 -1.35099638
Ga 18.79447993 1.43261893 4.66239295 0.37906920 -0.27152550 0.26393006
Ga 6.42210629 4.82104322 4.62790461 2.31370584 0.30175421 -0.04054530
Ga 18.84146890 4.56864803 4.60967971 -0.38497158 0.08183657 0.90450682
Ga 4.82278869 1.46733263 10.40425677 -0.43112817 -0.38285753 -1.49619470
Ga 17.44501495 1.45161410 10.36343801 0.67569902 1.23961423 -1.15089926
Ga 4.87491276 4.74169646 10.34377520 -0.90586935 -1.91075092 1.48055880
Ga 17.55089574 4.68594025 10.34307091 -0.62180832 -0.50972205 0.68508617
Ga 4.87602512 1.52715898 1.08347181 0.43910936 1.22142419 -0.92188377
Ga 17.38967011 1.47153284 1.19188783 0.14584365 0.64385474 1.19018628
Ga 4.87575910 4.57715888 1.14220881 -2.01927689 -0.67194136 0.52867512
Ga 17.53340922 4.71170144 1.12044768 -0.46061590 1.52111013 1.40266701
Ga 3.52865584 1.55315990 6.89451027 -1.33449827 1.13183336 -0.77797693
Ga 15.93500526 1.51685641 7.01123410 0.67553295 0.43059026 -1.05065428
Ga 3.46977994 4.61245195 6.97199189 -0.48204288 1.85906160 0.07932399
Ga 16.01073087 4.67963055 6.92053604 -2.32741763 -3.17711516 -0.61590045
Ga 1.58569257 1.63618264 1.91935888 -1.00045384 1.27718505 1.02069229
Ga 14.16398755 1.58829244 1.63793836 1.20563340 -0.07693422 0.88012346
Ga 1.57709172 4.63187811 1.87089388 1.23293786 1.32689695 0.69903311
Ga 14.05602654 4.64816931 1.74483253 -1.72968065 -0.20652663 1.49242604
Ga 0.05005304 1.44826999 7.56609358 0.67286599 0.27077724 1.79723080
Ga 12.83037751 1.46587425 7.63755074 0.01599300 -1.50327335 -1.56603118
Ga 0.14012312 4.54605342 7.44125722 -0.20737227 -0.28725386 0.24488713
Ga 12.69161239 4.67108498 7.56008940 1.02536480 0.44244713 -1.72545188
Ga 9.73343057 1.58870815 3.91800242 -0.64408408 -1.01309420 0.83555456
Ga 22.13480540 1.56082144 3.92074081 1.04470926 -1.28278595 0.60339286
Ga 9.64221819 4.66529588 3.93867268 0.66787320 -0.35918943 -0.13122912
Ga 22.10801826 4.64225075 4.01825352 -0.14251368 1.06302536 -0.01593643
Ga 8.24089366 1.56361641 9.71740077 -0.33136358 0.48522580 0.79946927
Ga 20.74813251 1.68436083 9.62920955 0.74888641 0.11882807 -1.65711310
Ga 8.22414140 4.79027572 9.74915790 0.40870543 -0.65252716 -2.46698713
Ga 20.88436447 4.60708893 9.66374849 -0.75252525 0.03904965 -1.05641506
Ga 7.74392666 0.06696641 1.80080857 -1.68168886 1.01798947 -1.55773941
Ga 20.39695077 0.06552689 1.81619476 0.63022557 0.69005736 1.81396570
Ga 7.90927522 3.07377451 1.87972057 0.10241903 0.96642917 0.83442339
Ga 20.37785404 3.10683696 1.85368697 1.98322035 1.67499209 0.59166225
Ga 6.36964229 -0.05127919 7.53020098 1.66323743 0.04406598 -1.22431830
Ga 18.96265391 0.11465702 7.57458559 -0.03157474 -0.81251363 1.55050862
Ga 6.47185938 3.10932095 7.63695072 1.05355308 -0.27691884 -1.87863882
Ga 18.82401865 3.16987976 7.62835593 0.51969893 0.53172884 -0.61546849
Ga 3.34567271 0.12083407 3.84727980 0.78912906 0.51622761 -0.78432512
Ga 15.93370291 6.10619474 4.00854656 -2.50402421 1.06693437 1.05897802
Ga 3.34345905 3.19310018 3.94155543 0.03860255 -1.74683222 -3.17072323
Ga 15.77678279 3.05899560 4.00460779 -2.54920678 0.44793625 0.26541889
Ga 1.95472516 0.04828255 9.67272992 -0.74906998 0.17660882 -1.49384529
Ga 14.59895287 6.20935514 9.66494533 1.44962447 -1.03181701 0.57282368
Ga 1.90937859 2.84384543 9.62845165 1.80531214 -0.69696584 1.41920986
Ga 14.46684358 3.03857046 9.74349505 -0.99181995 -1.10276382 -0.97851543
O 1.91890014 6.22483295 0.68502576 -0.12381128 0.69729051 1.90933027
O 14.45447794 6.25129832 0.67477291 1.16674681 -0.58969288 -0.06346897
O 1.95187180 3.13784542 0.61323403 0.96055651 0.51280847 -1.23356021
O 14.51655115 3.13833973 0.58858823 1.55231045 -1.07303594 0.22206094
O 0.44655453 0.05470331 6.48630605 1.24854916 -1.32353993 0.03888492
O 13.04391061 6.22363672 6.38318820 -1.07063534 -0.10314573 -0.05632635
O 0.44584239 3.16330942 6.34351094 0.20618912 -0.67123549 -1.53165979
O 13.04530091 3.16766463 6.41267002 0.60241618 -1.17023786 -0.01841431
O 9.43474374 0.07442323 5.14764642 -1.46382858 -0.28445480 0.44294080
O 21.64920633 0.00589215 5.02392000 -0.40197285 0.05140014 0.03173331
O 9.29103906 3.18406290 5.09369553 -0.99737720 -0.43793048 -0.40651600
O 21.73700936 3.17852567 5.22619361 0.65268081 -0.83545807 0.57195205
O 7.90644911 6.13272277 10.96596770 -0.94020264 0.89078583 -0.50325939
O 20.44409782 6.22658243 10.92987030 2.07035183 -0.77590553 1.07679058
O 7.83556198 3.12952976 10.96916902 0.99095952 -0.50505607 -1.47084930
O 20.51492543 3.23314782 10.98560579 -1.05557108 2.12518506 -1.89263196
O 8.18738492 1.54503949 0.57054522 -2.73274657 0.93036451 0.37551621
O 20.73082317 1.62388027 0.60266620 0.28049166 -0.40642580 -0.76116859
O 8.22209442 4.65508266 0.64196893 1.15305218 -1.63897352 0.91549608
O 20.75888224 4.56845110 0.59704870 1.99078362 2.48260209 -1.59139707
O 6.88358901 1.51254584 6.35634985 -0.20254015 0.79063933 0.93171993
O 19.28757056 1.49215746 6.46904142 -0.86206377 0.39671652 -1.28742895
O 6.67188280 4.63112544 6.42901178 -0.72572890 0.32888213 -0.28658680
O 19.25627984 4.68685689 6.42307754 -0.77526007 0.44865700 0.05411925
O 2.92362192 1.53035482 5.17359236 0.21954509 -0.03783109 -0.83440743
O 15.52481290 1.52231875 5.12948239 -0.30433360 0.11817030 0.01655429
O 2.89110438 4.66412203 5.10950088 -0.14462950 0.77761544 1.76163352
O 15.57261678 4.72799584 5.10290938 -1.22513568 -0.43801219 0.17904392
O 1.50869339 1.47125832 10.94683857 0.11229357 -0.64657927 1.41977283
O 14.13428832 1.56803330 10.78166890 -0.54406623 -1.79478771 1.28716799
O 1.46935093 4.69725288 10.85399918 -1.45556619 -0.60740736 0.07018163
O 14.15097207 4.67991797 10.85240639 1.32746476 -2.30751869 -0.69144731
O 1.45057848 6.24601492 3.27953686 -0.35167164 -1.07653328 1.92106212
O 14.01762770 0.06137248 3.26242610 0.95887321 0.07076099 0.51754654
O 1.46730991 3.09622643 3.30774487 -1.26492843 -0.01163390 1.72819920
O 13.87675392 3.12424447 3.25838319 -0.85693558 1.78628899 1.89340140
O -0.08147754 -0.04145551 9.09770433 1.48672469 -0.23901084 0.86642554
O 12.54266185 0.04503030 8.91820825 -1.22076565 0.35249779 0.31854521
O -0.12190108 3.04646703 9.03015417 -1.99065168 -0.02154398 0.08300926
O 12.47139990 2.99823694 9.04983490 3.20577528 1.13942328 -1.49333580
O 9.70439207 6.12730989 2.49182340 -0.68528916 -0.87818496 0.62445650
O 22.20858339 6.23784719 2.51702142 3.62710468 -0.08596360 1.20485296
O 9.66984836 3.17494520 2.51401997 -0.31127665 0.19107928 -1.58332416
O 22.39143396 3.24542368 2.39718560 -0.80047047 -1.09315533 0.68067875
O 8.38921618 -0.00478325 8.29222127 0.78527587 0.53136631 0.10694103
O 20.93029002 6.15823501 8.09352780 -0.92189800 -1.29098448 0.41436523
O 8.41163500 3.19128794 8.31352148 -2.38807657 1.96124172 0.92641053
O 20.87606893 3.15368114 8.12108217 1.32446191 -1.59531980 0.42362666
O 7.64006028 1.59223855 3.25172360 -1.71813614 -1.54433616 -2.02749414
O 20.23206523 1.68369459 3.20941988 0.03322100 -0.03564687 0.54142863
O 7.72294619 4.69131573 3.25219890 0.89476293 0.41432581 -1.09780669
O 20.23786694 4.72714894 3.13185046 -0.46814959 0.88033039 2.19017109
O 6.32449935 1.45345733 9.02446351 -0.27684052 0.68985893 -0.69742527
O 18.90281111 1.52330278 9.04267627 -0.18900142 1.71207292 -0.63774830
O 6.26456457 4.67558660 8.91016529 -1.40941949 1.31061422 0.73079349
O 18.80010084 4.52632302 9.01010585 0.75459316 -1.08775835 -1.13304641
O 3.56516089 1.58642556 2.55332542 0.23878859 0.43070941 -0.19070491
O 16.06992577 1.51683571 2.52701151 1.87955429 -0.46423435 0.64949477
O 3.41988416 4.77514409 2.55514687 1.20508594 -0.20073832 -1.74529534
O 15.96250933 4.62454450 2.52869293 -0.63291174 0.90998852 0.91939142
O 14.64119242 1.47426222 8.28389996 2.08983615 2.32343883 2.63884681
O 2.06903818 4.69267511 8.21299899 1.02136364 0.03576043 -0.86596337
O 14.64460080 4.67371160 8.18306745 -1.90594273 -0.29433570 0.01049404
O 12.09383078 1.49788883 1.48928469 -0.99479216 0.33075938 0.96894427
O 24.56893868 1.53920151 1.58874055 2.17430799 -1.03758270 -0.24018810
O 12.07148078 4.70538598 1.46492352 -1.63013976 0.14259023 -2.50136654
O 24.69035036 4.76503541 1.41862141 1.48869015 4.16534688 -1.70138745
O 10.72840068 1.56809150 7.28699743 -1.16850357 0.94256769 -0.80121773
O 23.21643017 1.57616015 7.28012110 2.36801112 0.02494151 0.05355413
O 10.76374207 4.53310662 7.08496991 0.73435661 0.48634947 0.26607689
O 23.28581497 4.63603055 7.16419893 0.34502958 -0.58768052 0.61531622
O -1.04031976 1.65625026 4.25334376 0.15267379 -0.45711568 -0.70161158
O 11.56388159 1.58674930 4.08101751 -1.38929778 -0.36751899 0.12508232
O -1.08486721 4.55584704 4.27323320 0.16289065 -0.83511159 -1.34599595
O 11.62666947 4.74000370 4.27045221 1.56188373 1.51576749 -0.19516109
O -2.48556002 1.49444057 10.03840882 1.12945906 -0.00411467 0.78688535
O 10.19248415 1.48605895 10.02695843 -1.54014275 -0.66766676 -0.59535179
O -2.39666368 4.64203798 9.88789378 -0.53054003 1.59298413 1.17951416
O 10.21640542 4.72327225 9.83844366 2.58607677 0.73733582 -0.50696363
O 5.84253612 6.18296346 1.37442629 1.25298501 -1.18602570 -0.41969912
O 18.45613793 0.00865349 1.49613318 -0.01216044 3.70853939 -2.10875449
O 5.89056830 3.13557630 1.48167834 0.03633447 -0.69703544 -0.03957288
O 18.44449385 3.07869371 1.47172040 0.37586881 0.08077200 -1.28123592
O 4.40145225 6.18724896 7.27783559 -0.14898328 -2.67218068 -1.86132356
O 17.00750903 -0.04603162 7.28791611 1.34299526 -0.60605630 1.86869443
O 4.50497952 3.27822501 7.12520156 -0.13304406 0.64465386 0.91963587
O 16.96171657 3.11243203 7.41098945 -1.70594514 -0.91252236 -0.15885885
O 5.31516234 6.23200395 4.27623080 -2.68227240 0.94239075 -0.06759043
O 17.83879414 0.01229899 4.23767947 1.53040758 -0.40725247 0.41147922
O 5.31194648 3.14255222 4.17349496 0.39416721 -0.62173663 -0.59435390
O 17.64711734 3.12500052 4.16804155 -1.39682030 -3.01630680 1.07921003
O 3.91030959 6.18273117 10.08417856 1.87479463 1.08570228 -0.66561124
O 16.43526927 0.03456612 9.99469234 -1.58995183 -2.10820863 -0.91742599
O 3.83485177 3.03461546 10.08733078 -1.83115732 -2.15336501 0.26045754
O 16.47022571 3.07729049 10.16443862 0.25759722 -1.41274227 -0.27659600
159
Lattice="24.706024 0.000000 0.000000 0.000000 6.116874 0.000000 -2.756002 0.000000 11.325060" Properties=species:S:1:pos:R:3:force:R:3 Energy=-624.398098 Virial="-57.012709 -1.727405 -2.812644 -1.727405 -44.781215 -1.638432 -2.812644 -1.638432 -42.633838" pbc="T T T"
Ga -0.02520364 0.06593451 4.41868429 -1.39468385 2.10517642 -2.52040294
Ga 12.33927443 6.10517406 4.54525228 -0.45988403 0.40886679 0.77313404
Ga 0.01072608 2.95633993 4.55981599 -0.13072618 -0.24701952 -1.34055325
Ga 12.36629860 2.98880406 4.54300749 -0.30585289 -0.77082385 1.22306376
Ga -1.45367058 6.14972479 10.19216624 -0.34411624 -0.40067988 -3.06547755
Ga 11.10198602 6.10774720 10.05034835 0.70882517 1.11201896 -1.66715270
Ga -1.30559737 2.99242704 10.23508076 -1.34160433 -0.45774958 1.24719003
Ga 11.07429255 2.98436340 10.02304199 1.31067750 -0.24907098 -0.81057719
Ga 11.00289858 0.02908147 1.09931916 -0.10113200 -1.27692586 -0.64773399
Ga 23.33629620 0.02973304 1.23163203 -2.56555259 0.30311750 -0.30715897
Ga 10.98247279 2.93182517 1.17266900 0.39693391 0.68408215 -2.08487982
Ga 23.28186152 3.00857237 1.35887875 0.27808238 0.73337160 1.71824723
Ga 9.56777969 5.98589875 6.75152221 1.82133547 -1.82708794 -1.96456352
Ga 22.01439797 -0.07155666 6.70291589 0.92590042 0.08009350 -0.97746761
Ga 9.61594357 3.08823389 6.79867418 0.25002216 -0.18129761 -1.05317009
Ga 22.07922296 3.10431874 6.96934222 0.27985049 0.54837381 2.23868009
Ga 6.25004215 1.47070617 4.54780521 -0.15885884 0.76148532 -1.96768795
Ga 18.57046134 1.43249185 4.33828327 0.03716632 -1.88024200 2.33074604
Ga 6.05348303 4.56814237 4.47037710 2.26574660 0.61267691 0.39500186
Ga 18.59634010 4.58479674 4.55896398 -2.42941589 -0.22094939 1.09006525
Ga 4.76001185 1.43444813 10.22706288 0.83362803 0.23134359 2.24591032
Ga 17.14114916 1.51441891 10.11754249 -0.98280646 0.72778967 0.17471737
Ga 4.80645160 4.66184265 10.00964191 1.54432715 1.22709885 -0.60947003
Ga 17.13249209 4.58542641 10.13161026 -1.58946344 -1.05558968 -3.40075173
Ga 4.82763015 1.31072782 1.17639021 1.46185320 -0.09636340 -0.12825925
Ga 17.26098019 1.58136696 1.09919895 0.48016637 0.00646111 1.30138124
Ga 4.74869880 4.67025222 1.27394537 1.40419774 -1.10718290 -2.24096317
Ga 17.14613556 4.64481147 1.06583557 -1.68053659 -1.82860490 -0.43645964
Ga 3.42875309 1.64004244 6.71704653 0.06446229 1.42979332 1.45628946
Ga 15.80383716 1.54209544 6.82356027 0.88021623 3.21355978 -1.08370029
Ga 3.30453334 4.49304699 6.78508237 -0.55611002 -1.60333897 0.61751484
Ga 15.84066745 4.68165066 6.86100151 0.06260221 -0.08601152 1.92402361
Ga 1.51297518 1.50052552 1.78427855 -0.04249686 1.09048564 -1.82027594
Ga 13.86057632 1.60523795 1.67278002 0.33176204 -0.01655522 -2.07856191
Ga 1.65505802 4.62658654 1.90578569 -0.08314751 1.50535603 -1.14372558
Ga 13.86982913 4.62128622 1.72386013 0.23904257 -0.91055237 -0.20034667
Ga 0.17860288 1.59271408 7.32929837 -0.73930649 -2.45989277 -1.01477186
Ga 12.50090849 1.56678058 7.54228873 2.51482826 0.66094270 3.29876697
Ga 0.10613103 4.58407750 7.56988401 -0.64381197 0.54052894 -0.77230261
Ga 12.56566432 4.69850227 7.43749990 -1.23240100 0.94678831 0.98229983
Ga 9.39928192 1.57052697 3.89613749 0.90682928 0.04157153 0.02464830
Ga 21.84872749 1.39489682 3.79299009 -0.87783936 -0.12090815 0.76676650
Ga 9.50219309 4.59046578 3.81624611 -0.93019841 -0.60508180 -0.15988785
Ga 21.73864202 4.64018503 3.86734033 -0.41111811 -0.43494956 -0.47470602
Ga 7.96205144 1.52682293 9.50619156 -0.79045653 0.37694429 -0.54254193
Ga 20.33186061 1.59324904 9.61341785 -1.88287832 -1.44475624 2.70808086
Ga 8.03825713 4.47917498 9.51039241 2.44207362 1.65091603 -1.42371545
Ga 20.37273555 4.51340184 9.61048457 -0.14589717 -1.22637180 1.77717460
Ga 7.69414375 -0.08281480 1.73655583 1.50620892 -0.38589858 -0.31986213
Ga 19.99960519 0.09947724 1.85196972 0.19805073 0.21285273 -0.47171865
Ga 7.76702667 3.07724141 1.84329128 -1.78757901 0.84720110 1.21083508
Ga 19.97052449 2.89902476 1.82273195 0.45504163 -1.54703923 0.87522554
Ga 6.33526372 -0.08628305 7.33943309 0.45071968 0.51465273 -2.15988904
Ga 18.62118045 -0.02302113 7.36261797 -1.61910592 0.57402778 -0.56773277
Ga 6.22407996 3.15075702 7.48500086 0.41644679 1.32407277 1.55873452
Ga 18.66229871 3.00104608 7.55148087 -1.29587234 -1.45098576 -0.48600489
Ga 3.23483500 -0.00937638 3.84964062 0.67727040 1.74638920 -0.08805193
Ga 15.68295737 6.01519756 3.86480484 -1.08665866 -1.03556829 0.07489457
Ga 3.19895034 3.08690634 4.00986774 -1.94867659 0.24858719 -0.62568709
Ga 15.58037329 3.15221147 3.77524596 0.15986085 -0.45706898 0.94531374
Ga 1.77720704 -0.03804037 9.62397049 0.39139384 0.39813687 1.88914009
Ga 14.30411086 6.05532949 9.67349691 0.69338771 1.84717699 1.17990713
Ga 1.97862236 3.06545349 9.65659933 -0.78735205 -0.96451622 -1.77874208
Ga 14.21418546 3.12431902 9.55340750 0.12397578 -0.68889131 -1.65122905
O 1.80934564 6.06503145 0.58946254 -1.68700700 2.24267765 -1.47476724
O 14.28037365 6.08836895 0.60468554 1.48774611 1.19350499 0.27923765
O 1.87932914 2.93553401 0.61440335 -0.65178654 -0.38915154 1.82071844
O 14.41049275 2.98100897 0.56619889 0.75918254 2.39824419 1.60598405
O 0.42220453 -0.03689115 6.29644428 -0.31114459 -1.08623947 -0.14014483
O 12.78125960 6.19357988 6.17970077 0.41902106 0.80682086 -0.25242650
O 0.45349890 2.98612784 6.09945864 -0.88869606 0.98164028 -1.13550833
O 12.90034872 3.12909143 6.26112614 0.28889352 0.44101751 -0.39901099
O 9.14102620 0.00006090 5.09563736 -0.49113113 -0.25217543 1.17439010
O 21.43788613 -0.01071781 5.00539557 -1.20640893 -1.83594981 0.99110806
O 9.10528592 3.05063913 5.14870105 -0.19588747 -0.14756202 0.24508716
O 21.49485701 3.25375259 5.03906937 1.38698903 -0.04991461 -1.00397498
O 7.74061986 6.05521410 10.79166601 0.51126041 1.31956782 3.98713461
O 20.02080579 6.00057965 10.83828214 0.01435296 0.63070872 -1.06366348
O 7.74148399 3.12634663 10.71902096 0.04114800 1.66661071 1.33030797
O 20.05450690 3.08651812 10.69848300 0.52679033 -0.27728362 0.61391434
O 7.96071975 1.50734362 0.51785128 -2.17818963 -1.43646237 -0.80667845
O 20.30084045 1.48950523 0.70125362 -0.80824416 0.12255068 -2.16540531
O 8.03341894 4.51908473 0.49894651 -1.59710033 1.45672817 -0.08393560
O 20.39409987 4.69435946 0.73529092 1.69450468 -2.59196214 -0.43800297
O 6.58076643 1.50830265 6.22712332 -1.24497072 1.99457876 -0.01677599
O 18.92296467 1.52281085 6.16462460 -0.25791005 0.35714241 0.04081833
O 6.55941189 4.64976844 6.34255460 -0.37683686 0.50603459 0.94636594
O 18.99008232 4.52238542 6.23724310 0.17423791 -1.11134686 1.21052941
O 2.99766940 1.57656568 5.01033464 0.13424540 -1.09541197 1.04043687
O 15.29151459 1.49338540 5.07508733 -0.53081411 -1.67143876 1.64084369
O 2.98870376 4.57268265 5.15569740 0.85559710 0.42287249 -3.40641305
O 15.38506868 4.69016707 5.09141498 -0.63211051 -1.11252994 -1.87978939
O 1.50986724 1.47837248 10.68209588 1.00542611 -0.49011963 -0.08489719
O 13.87929361 1.55569700 10.69859910 0.10552263 0.37136934 -1.52442095
O 1.56721833 4.54720432 10.67876211 0.67247526 1.82403133 1.12524481
O 13.78155881 4.65751685 10.72710314 -0.38290647 1.73363804 0.25494653
O 1.43595458 6.15272964 3.27469226 1.90223664 1.04488347 1.87039014
O 13.69096619 -0.07693128 3.27084363 -0.06207492 -0.40287632 0.72159406
O 1.36737570 2.98114005 3.30700536 -0.57317612 3.54756309 -0.48872735
O 13.80474715 3.13440523 3.19834002 0.14173956 -1.65056269 -1.05007513
O -0.02761429 -0.08259307 8.77250918 -0.16512388 -0.85339820 0.43958567
O 12.19264313 -0.01826412 8.86128202 0.59714994 -1.46572400 -0.51912529
O 0.01876216 3.03318125 8.90024738 -0.40947860 -0.84853599 -1.05272913
O 12.33050688 3.20473073 8.87981314 2.62259067 0.55219765 0.25769868
O 9.64370355 6.16935848 2.55582007 2.24503806 -0.41195415 -2.59049300
O 21.92032023 6.20121154 2.40920279 -0.46848703 -1.15248422 1.38123131
O 9.71340445 3.07004818 2.53397421 1.44191804 1.10050450 1.06589476
O 21.96191755 3.01800647 2.41268636 -1.24854967 -2.11495471 1.86952418
O 8.29466743 -0.19044622 8.12983275 0.12712130 2.40843862 -1.64232403
O 20.56236030 6.23994006 8.09601529 -1.65228584 -1.42732461 -0.58247864
O 8.17613276 3.01345593 8.12925849 0.55110013 -1.78723743 -0.42548361
O 20.57336329 3.09089640 8.12190011 -0.73455934 -0.17461095 -0.00345876
O 7.45848647 1.55660989 3.17592859 0.95772145 -1.29914800 0.87932318
O 19.90385243 1.56709788 3.28939755 2.00412424 -0.42087423 0.27389861
O 7.55900681 4.50351704 3.19285722 -0.35646103 0.92073970 -2.05664668
O 19.89195308 4.67076507 3.25069163 1.60607631 1.29626340 1.18377935
O 6.24665552 1.62167011 8.92749841 0.24740813 -1.38713423 -2.25069385
O 18.47493076 1.38154008 8.68221366 -1.62552095 0.49982451 0.67795664
O 6.25651875 4.72890344 9.00057600 -0.76747475 -0.28143063 -1.29579262
O 18.60157451 4.53533084 8.93269173 1.98482680 3.01956451 0.22328571
O 3.40873849 1.46108408 2.43861866 -0.83230453 -1.11124960 -2.33809547
O 15.77937287 1.56725025 2.54432239 1.05512589 0.80598807 0.59765335
O 3.38943028 4.65377404 2.53347422 0.61067690 -1.38960256 0.31144010
O 1.95842227 1.54918806 8.19288900 -0.82722313 -0.71047735 0.60823141
O 14.42164720 1.60146636 8.17787888 -1.73719485 -0.04947287 0.50171770
O 1.99106588 4.42398804 8.15164876 0.35555061 -0.30032694 -0.09150743
O 14.39048616 4.54888267 8.09019816 -0.20151257 1.93104747 1.18404905
O 11.88305320 1.53247910 1.41512938 -0.10449465 -0.81508025 1.03584272
O 24.27054722 1.53209193 1.28773858 -0.75504669 0.90980336 0.40814570
O 11.91287662 4.62047757 1.33460602 0.83511041 -1.09475223 1.60736257
O 24.42890477 4.66250454 1.42189703 0.40491620 -2.48760181 0.01441425
O 10.55763705 1.53040171 7.14026884 0.22976161 0.36184299 1.57027415
O 23.02910814 1.38539762 7.12911773 -1.60333007 -0.25908267 1.27016880
O 10.61020455 4.62898774 7.07936408 -0.98438288 0.69715722 -2.41268064
O 22.94605153 4.53594520 7.05986128 -0.36696300 -0.63520495 0.04612270
O -0.94535624 1.45078231 4.31564228 3.76475152 1.71726267 -1.61707352
O 11.27601624 1.48281456 4.18189073 -2.57417873 -0.10660350 1.07829578
O -1.02069796 4.61646769 4.21979924 -1.62841544 1.55018512 0.36546700
O 11.40562370 4.72578399 4.17051799 1.58424680 0.73226694 0.68683656
O -2.40382037 1.50502816 9.90540008 1.64549663 -1.57313874 2.52215603
O 10.02939131 1.62466851 9.97930681 -1.33191819 1.02611836 0.38424583
O -2.33114012 4.57794439 9.91263963 2.04829983 -1.10022789 0.45650851
O 9.93945462 4.58309745 9.72169558 -0.50085481 0.72067852 -1.37177371
O 5.82040157 6.07806932 1.48493697 -0.45711377 0.59414212 1.12358384
O 18.16251012 0.10896475 1.48380340 -1.57516478 0.71711010 1.68723853
O 5.73042663 3.21778738 1.40552377 1.88044361 -0.54750401 1.57787380
O 18.05588608 3.17323428 1.48071603 1.34597172 -1.02095547 -0.39564670
O 4.25625144 6.15744120 7.17211399 -0.42059973 -2.77622815 0.58603924
O 16.76109394 0.13413566 7.13760000 0.63105498 0.80940415 -1.49709182
O 4.32819004 2.94454947 7.14525303 0.00603142 -1.03383357 -1.39075710
O 16.58328407 2.96765313 7.09112055 0.85177883 0.10704512 0.67702726
O 5.18592893 6.16501320 4.19213418 -1.18467145 -0.81576135 -0.92922921
O 17.64263494 0.09735662 4.21790820 -0.66876599 -2.01777156 1.01044119
O 5.28960338 3.16596324 4.18660037 -0.57012892 1.42080210 -2.03950245
O 17.45643565 3.14451451 4.13195145 -0.40547709 -0.24500934 -0.53957147
O 3.86245093 6.21247492 9.86653318 0.18338789 -1.02603465 0.57612983
O 16.18029499 0.03795652 10.00580583 -0.54022417 -1.20760512 0.52409909
O 3.70054229 2.98527591 9.92605338 -0.49365857 1.60730292 0.91100651
O 16.18205236 3.08180856 9.93841895 1.16156539 -0.69251799 0.04160139
159
Lattice="24.698369 0.000000 0.000000 0.000000 6.114979 0.000000 -2.755148 0.000000 11.321551" Properties=species:S:1:pos:R:3:force:R:3 Energy=-624.589901 Virial="-53.928037 -1.832658 -2.022512 -1.832658 -46.704768 -4.805117 -2.022512 -4.805117 -41.473112" pbc="T T T"
Ga 0.02068217 0.01794527 4.50777876 -0.97959809 -0.58231601 -0.35748758
Ga 12.32808464 6.11352618 4.53997563 -0.16892598 -1.60687449 -0.59962852
Ga -0.01715707 3.08799570 4.50249138 1.90979714 0.97590675 -1.17964477
Ga 12.36494610 3.07938872 4.41329987 -0.18416535 0.36246671 -0.49407089
Ga -1.34284533 6.06574847 10.12606044 1.04629399 -0.71979748 0.08443338
Ga 10.98190950 6.14751082 10.09268895 -0.77337290 -0.41065537 -1.34874434
Ga -1.38745238 3.06455873 10.10448955 1.21080118 -1.60368824 -0.52098934
Ga 10.95657946 3.08938927 10.19364104 -3.82532148 1.84415317 -0.30300512
Ga 10.96766319 -0.00925841 1.20304428 -0.88385550 0.12015522 -0.78267586
Ga 23.29442292 0.01855516 1.13488938 -0.52356430 -1.50309217 -1.08682990
Ga 10.89467441 3.08459823 1.12081636 -1.16107404 0.02329014 -0.76074292
Ga 23.35445203 3.02884803 1.19535095 0.06780235 -1.21442447 1.10001768
Ga 9.49532861 6.15727823 6.84459713 -0.41404353 -0.11463751 -0.51576396
Ga 21.98150560 0.02660758 6.88612891 -0.10592502 0.29615425 -1.43303007
Ga 9.53034617 3.03286339 6.85604961 -1.08058513 0.62326726 0.01442373
Ga 21.88508620 3.19591061 6.82912006 -1.55596344 1.86274587 1.29321440
Ga 6.15803405 1.49964368 4.47325700 -0.26216950 -1.66300998 1.70311892
Ga 18.47654734 1.52568063 4.51050327 1.04654926 -0.72520095 2.90684721
Ga 6.24986357 4.63576705 4.54264462 -0.54545987 -2.49977585 -0.02907488
Ga 18.56747993 4.56230556 4.44805889 -0.18286540 -1.57828068 0.97759284
Ga 4.83028837 1.52573783 10.20628808 -0.78433486 1.64723505 -0.51553590
Ga 17.11294651 1.48422998 10.13952950 1.48473781 -0.84371628 1.63221468
Ga 4.81409552 4.57891332 10.16789974 -0.44237427 1.37643646 0.97432712
Ga 17.13040095 4.55695745 10.09370007 0.13414281 -2.17416784 -1.27224512
Ga 4.79843777 1.49285850 1.06763064 0.83828125 0.92432638 2.48127463
Ga 17.15748244 1.54629268 1.22804099 1.53824786 0.19810358 -1.54944251
Ga 4.79434509 4.54527728 1.18296084 0.42144751 1.60741793 0.17250536
Ga 17.11927720 4.59873152 1.17756952 -0.55062166 -0.93572498 0.17640867
Ga 3.36530153 1.59047239 6.85973522 -0.97486711 0.36819508 -0.89862988
Ga 15.81057450 1.46849456 6.89068167 0.58073688 -1.35237350 -0.12657362
Ga 3.39215911 4.54212163 6.80889630 -1.85567701 -0.86079011 1.23355401
Ga 15.76342875 4.59118861 6.79516036 0.87300035 1.07540116 -0.08121476
Ga 1.42604277 1.55556484 1.76461687 -0.85808520 1.27395175 0.52852560
Ga 13.86831445 1.47169307 1.69801127 0.27583208 -0.18489279 -0.04470546
Ga 1.56426560 4.54390044 1.74108339 -1.40518954 -1.02552792 0.62977493
Ga 13.94432860 4.59251982 1.73975921 0.77024699 -0.43279376 0.28656396
Ga 0.10396230 1.52711316 7.43807675 -1.06090779 -0.19705097 -0.79046665
Ga 12.52202957 1.52361329 7.45808209 0.38954873 0.24412469 -0.53972227
Ga 0.08269961 4.60555355 7.45663739 1.83980591 -1.67430501 -0.43577119
Ga 12.45369025 4.50715712 7.43338651 -2.01854455 -1.24117296 -0.35078209
Ga 9.48819700 1.56822321 3.90267697 1.01590610 0.28522403 -0.27271325
Ga 21.78324446 1.47105363 3.86766267 -0.81871139 -1.31055640 1.80359566
Ga 9.48605266 4.59375622 3.82928254 0.42329668 -0.10427788 -0.82562914
Ga 21.70944814 4.62812531 3.76988859 0.44444033 1.68875333 0.55925403
Ga 8.01364138 1.62415224 9.57314713 -2.31899080 2.60116276 0.84317834
Ga 20.46432794 1.61619389 9.51237048 -1.54656753 0.75161369 -0.32949363
Ga 8.06659044 4.56812286 9.51130623 0.19402588 -0.95197408 -0.65633170
Ga 20.38672165 4.58499798 9.45193323 -1.41883906 -1.50819587 1.44835227
Ga 7.70554824 0.00553613 1.77260670 -0.92288415 0.55781179 -1.22039076
Ga 20.08400507 -0.04816869 1.78439330 -0.42618345 -0.61300196 0.75643053
Ga 7.76126253 3.07054201 1.70800357 0.41717096 -0.33897277 0.55922539
Ga 20.07444838 3.09899144 1.79413076 -0.15741892 1.18315511 0.40222504
Ga 6.34074534 0.01800833 7.40257912 -0.51201365 0.65061292 -0.63272049
Ga 18.73217551 -0.00291995 7.54519459 -0.74025599 -0.27332197 0.70638304
Ga 6.40375770 3.04669798 7.46438862 0.77928164 -0.60424458 -1.58568959
Ga 18.66712803 3.06778439 7.47278591 -0.10414592 -1.84327747 -1.60739625
Ga 3.24047141 0.02932100 3.88935778 0.28933083 0.71672202 -0.48358514
Ga 15.61814286 6.15898421 3.82654542 0.66051228 0.74380565 1.51066768
Ga 3.24030512 3.07948964 3.85312009 -1.50306033 -1.20678595 0.01660780
Ga 15.64805959 3.01583307 3.94478953 -1.24002931 -0.28926087 0.74843882
Ga 1.91177222 0.01867459 9.52250922 -0.20184677 -1.26430716 -0.81253254
Ga 14.24370575 6.06746798 9.54986449 0.79892696 -2.31303678 1.34735374
Ga 1.90527530 3.09622164 9.51323376 0.05946652 -1.19413294 -2.87921903
Ga 14.17704415 3.10972675 9.57169320 -0.42996601 2.10859300 -0.46510054
O 1.81623988 6.18558384 0.63661844 -1.65963566 -0.16247100 -1.90589757
O 14.22864405 6.06794322 0.61676952 0.28586390 1.18586374 0.67112684
O 1.91042159 3.05149909 0.64466348 3.02776896 -0.66144530 2.73931520
O 14.23285336 3.01961287 0.62947790 -0.09343375 -0.05194032 0.96798219
O 0.49513925 0.00395380 6.30302281 -0.43888901 0.61953798 -0.13072147
O 12.82856468 6.12970042 6.23470450 3.86135383 -0.39462463 -0.47820655
O 0.45343971 3.05836577 6.24907241 -1.26364645 0.12562140 0.35912795
O 12.82533909 3.06146882 6.22507083 1.86752008 0.09063471 -0.81882639
O 9.20893301 0.04031695 5.05254040 1.64640818 -0.72309864 -1.10901909
O 21.35844602 0.04183613 5.04427858 0.08765015 0.45968867 -0.51666586
O 9.02745061 3.09886793 5.12277396 1.72189621 -0.31790961 -1.28745876
O 21.33394307 3.01677178 5.00704072 0.90176142 1.23286809 0.87467192
O 7.71112624 6.03438341 10.71058851 2.83476051 -0.28896316 -1.49429860
O 20.16020610 6.09930175 10.69069017 -0.24124105 0.05049970 1.67376261
O 7.70199425 3.04941966 10.67181177 1.11918418 1.60267286 -0.68858281
O 20.04052739 3.06365731 10.66805362 2.41484756 -3.11559332 0.42581051
O 7.98088480 1.53942484 0.52047716 -0.34444158 -0.82023747 0.82699064
O 20.40806809 1.52920274 0.61226849 0.98117332 0.10018143 1.75227822
O 8.04499973 4.58497013 0.58897478 2.58948607 -0.75880006 -0.79377349
O 20.45831145 4.55926911 0.59591037 -1.51609508 -0.60330582 -1.00907202
O 6.62119983 1.57914241 6.20228332 -1.01928951 1.41689687 0.35978451
O 19.00135768 1.51147482 6.27820526 -0.34285100 0.76898009 -0.90579981
O 6.64892516 4.56335662 6.26618211 -0.00909990 -0.73221238 -0.78592961
O 19.02942348 4.57832870 6.27486305 0.66408232 -1.02448955 -0.30088289
O 3.00326229 1.51599167 5.01034134 0.83150407 1.64696345 0.65215971
O 15.27061053 1.54279888 5.05866443 0.19621012 -0.13590255 -2.45643615
O 2.92445120 4.49967174 5.04075372 -1.28742137 0.92888197 1.34705903
O 15.27838833 4.57689756 4.98600182 0.58288798 0.82604317 1.76612325
O 1.56736406 1.51874872 10.69508235 -0.24912330 -0.36596736 0.85274079
O 13.90278648 1.47330885 10.75991709 -1.04212124 0.91048441 -0.46909556
O 1.63901011 4.59114569 10.74767710 0.06190784 -0.04184525 1.35596105
O 13.93534633 4.54198061 10.70223473 3.85528584 -2.65261067 0.49037421
O 1.38716950 6.07649838 3.20283610 1.90078366 2.43789315 -0.75756350
O 13.73843611 0.01002227 3.24245198 0.61564559 0.85934967 0.25918230
O 1.27989155 3.09226337 3.23419860 1.10267470 -0.90794261 0.19609098
O 13.71646462 3.04650960 3.22606949 -1.17730738 -0.64507797 1.21995202
O 0.00013023 0.02265918 8.90700140 -1.27908060 0.41638651 1.77264715
O 12.34569057 0.00459703 8.84305097 2.29357382 0.96827010 1.93800089
O 0.00243874 3.10706355 8.86079569 0.28794062 -0.72088937 -0.85275562
O 12.38339965 3.07724437 8.88884509 0.60756879 -0.20964174 1.32418765
O 9.65481263 6.07183194 2.40739357 1.82685096 -1.16907517 0.01627988
O 21.94440339 6.16004771 2.49688678 -0.61296092 -0.23240797 -1.27056597
O 9.61717018 3.11343412 2.43410444 0.26816778 0.67936282 -1.32597938
O 21.93147737 3.00826048 2.46652126 -0.24516769 0.14942612 1.46571003
O 8.18912790 0.02131809 8.10466210 -1.08314218 0.34732346 -1.49355415
O 20.64738445 6.13826105 8.10190980 -0.09555678 1.81138207 1.49494284
O 8.32328708 3.08588026 8.13186063 1.23787828 -1.09454852 -0.42623801
O 20.61306781 3.00331607 8.03476435 -1.95040153 1.04200242 0.89875166
O 7.56789597 1.51629936 3.19575795 0.91213407 0.93261819 -0.61442577
O 19.86305638 1.48197318 3.20217255 -1.64605724 1.86268693 -0.02125098
O 7.56286799 4.54930157 3.26621833 -0.73356384 0.99260905 1.72808447
O 19.90986962 4.52744900 3.24501055 0.62811044 0.62370936 -0.87998770
O 6.14251107 1.54728481 8.84850175 -1.54584058 -1.57664779 0.90857125
O 18.53772143 1.53599598 8.85462721 -1.49394382 1.12241270 -0.20509506
O 6.14442430 4.56368880 8.83683470 1.45333094 0.75950547 -0.33796725
O 18.50601867 4.59715683 8.76709011 0.54602058 -1.04702847 -1.07844577
O 15.84569632 1.49512569 2.50746210 -1.29932776 0.48351914 0.72546963
O 3.42915621 4.65405202 2.53762342 -0.18549682 -1.40144486 0.02226200
O 15.77809211 4.58839010 2.41976083 0.89887293 1.79168370 1.84234605
O 1.98269068 1.51070565 8.09984561 -0.93929296 -1.49910621 0.98013906
O 14.39952683 1.54231379 8.09714889 0.39520955 0.34433424 -0.82911102
O 2.01068132 4.51630513 8.21775477 -1.34745903 1.36551825 0.61659070
O 14.37568693 4.64621583 8.17810979 0.83775089 2.39709081 0.98349933
O 11.94785733 1.59730389 1.45341106 3.48945519 -1.62391391 0.79682108
O 24.31637192 1.50821238 1.44471922 2.44330819 0.63437371 -0.00348901
O 11.88610263 4.58400012 1.49927462 -0.45842081 -0.32424727 -0.74363633
O 24.37440577 4.59303702 1.44227268 -0.46668085 0.92999704 0.25189296
O 10.63551496 1.46803016 7.15283006 -1.04852814 -0.31200644 -1.06813730
O 22.95226391 1.50289867 7.08514106 -0.26202373 -1.72749882 1.01664546
O 10.56702721 4.55217680 7.17779193 -0.51187880 0.31678953 -2.54746600
O 22.92131565 4.64433074 7.13555776 -0.41227562 -0.77466750 0.00029378
O -0.97756994 1.51067138 4.21035510 1.26982956 1.45083562 1.32302057
O 11.34614714 1.59906406 4.18521418 -1.22003512 2.09036461 -0.00029900
O -0.97715435 4.66767496 4.20004466 -0.02998586 -0.82872510 -0.61696174
O 11.36209197 4.60495391 4.17471567 -1.89488033 0.99234636 -1.59878146
O -2.38527549 1.51751860 9.78004774 -1.16117549 -0.30587077 1.63135138
O 9.94516615 1.59613163 9.82284698 -0.53459141 -1.65174836 -2.32931829
O -2.35259354 4.58033219 9.87965126 0.73409099 2.06951857 -1.33881204
O 9.94083724 4.56436896 9.83198880 1.34962834 2.24747552 -1.57975375
O 5.74746196 6.15507807 1.49139890 -0.61308751 -2.33359180 0.21470961
O 18.09630016 0.02355503 1.41491052 -1.25153426 2.18087779 -0.30385596
O 5.72586439 3.04298145 1.40795918 -0.32648382 0.78093468 3.43467535
O 18.08122459 3.13960847 1.44325371 -0.09585662 -0.43744222 -2.26827384
O 4.39919393 6.09712634 7.07040317 -0.34237292 1.13823578 -1.33270979
O 16.73728746 0.00517736 7.12106280 0.37876595 -0.79576900 -0.13511320
O 4.36248855 2.99787435 7.13015763 0.35861620 -0.50252444 -1.70944065
O 16.84139775 3.10861728 7.13798772 -2.12233002 -0.95763559 -0.31158742
O 5.22601750 6.10922460 4.25063237 -1.36377833 -0.68798132 1.77639432
O 17.60706889 0.01689207 4.26159325 -0.38575998 0.61194294 -0.98188055
O 5.13750161 3.03164451 4.13774548 -0.85116694 -1.39929054 0.10653457
O 17.53322528 3.04619446 4.18853285 1.94500431 0.07150878 1.05823022
O 3.71524979 6.13756742 9.89024661 0.65629917 1.10177242 -0.40826545
O 16.15778490 0.01149640 9.84408580 -0.53943299 1.65817308 -0.92698217
O 3.74699569 3.01476089 9.82246846 -1.11337415 0.25262254 0.67338392
O 16.12867339 3.02069753 9.87870127 -0.39274781 -1.01370058 -1.45248885
159
Lattice="25.153731 0.000000 0.000000 0.000000 6.227721 0.000000 -2.805944 0.000000 11.530285" Properties=species:S:1:pos:R:3:force:R:3 Energy=-623.844985 Virial="-53.980542 -0.761911 -3.396568 -0.761911 -47.877422 -3.032661 -3.396568 -3.032661 -45.433347" pbc="T T T"
Ga -0.05983160 0.06825924 4.58614512 0.33713759 1.51481769 0.53897989
Ga 12.55160637 6.22420931 4.50254544 -0.57289755 0.92779190 -1.04102429
Ga -0.01054912 3.20023750 4.61253811 1.15042169 1.84071625 0.21787247
Ga 12.52468047 3.07649197 4.61138520 2.64568686 2.70053868 0.26204179
Ga -1.37827320 6.20505425 10.38117145 -0.57519042 -0.05509637 -0.16696281
Ga 11.18407117 6.27940440 10.38019397 1.14461977 -0.22135146 0.39655977
Ga -1.45195670 3.10630304 10.31086684 -1.10182032 -1.42292263 -1.20194166
Ga 11.12632236 3.12247515 10.32307725 -1.37566402 3.63437102 -2.32542935
Ga 11.16404070 0.01665848 1.13372471 0.49264149 -0.55168496 2.12842200
Ga 23.76114758 -0.01337933 1.20911663 -1.18020021 -1.22307211 1.58132308
Ga 11.18360630 3.08758133 1.23063164 -0.49071275 -0.20752755 -0.85325186
Ga 23.75958565 3.10518927 1.21000504 0.37210853 1.28244816 1.08539653
Ga 9.72822687 6.20302115 7.01523477 0.84085269 -2.00675572 0.75068910
Ga 22.38163296 -0.00623586 6.92505609 0.05118454 -0.80812928 -0.03518882
Ga 9.77026248 3.08639564 6.92836393 2.07155830 -0.20044052 -0.18419640
Ga 22.37578887 3.08700088 6.94032729 -0.31903646 -0.58501655 -2.51987574
Ga 6.26610065 1.59428603 4.52594443 -0.75924624 -0.67538083 -0.11366165
Ga 18.86594094 1.47141400 4.64022027 0.21615895 2.24095227 1.10018846
Ga 6.27398174 4.62476569 4.63323989 -0.47773948 -0.39391119 -0.43358651
Ga 18.82350250 4.71499298 4.51591166 1.96678878 -2.43514132 -1.96190317
Ga 4.95292770 1.55355161 10.37046629 -1.35414951 -3.29270639 -0.08312751
Ga 17.45939182 1.46803890 10.38277466 -1.06997010 -1.57827772 0.62376492
Ga 4.87592663 4.64612708 10.29517348 -0.35455265 1.41716001 1.17232826
Ga 17.55110543 4.67740196 10.37644766 0.43332886 0.96653197 -1.85730665
Ga 4.88075571 1.63154181 1.14098201 -1.28848602 1.03557075 -0.17440428
Ga 17.43368167 1.55451332 1.19034695 -0.44271276 -0.41691893 -0.35611822
Ga 4.87104703 4.64300762 1.23144812 0.35535722 0.02593213 -0.56289414
Ga 17.37408706 4.64946329 1.18472396 0.66845689 -0.66430298 1.00703448
Ga 3.54573501 1.58727003 6.92586163 1.39076083 -1.04331425 0.21539458
Ga 16.10725636 1.53329520 6.97279301 1.79596310 0.78072689 -0.28042646
Ga 3.47274742 4.65977539 7.00596791 0.17025250 -2.72238020 -0.61469132
Ga 16.08500921 4.78561752 6.89830969 1.26929636 -3.45141440 1.01772536
Ga 1.55218253 1.59704206 1.79419274 -0.38604301 -1.92641203 0.38952386
Ga 14.08961505 1.54633486 1.81489168 0.34431014 0.74316996 1.13721367
Ga 1.53850080 4.64579437 1.73711927 0.52992694 0.92172991 1.90751500
Ga 14.16459704 4.54880138 1.88019181 -0.41183782 0.30438949 -1.33437565
Ga 0.15125247 1.55797013 7.59974643 -0.67421291 -2.42084972 -0.40890311
Ga 12.86102567 1.56292743 7.46297011 1.17249409 -0.49299077 1.34000703
Ga 0.21442507 4.66326579 7.57080192 -1.09953137 1.85611395 -0.98617634
Ga 12.76524316 4.64038975 7.54270069 -1.41276255 -1.40785549 0.07188275
Ga 9.52443855 1.52675930 3.98574380 0.90719235 -0.44530419 0.08826100
Ga 22.15467090 1.56208853 3.92034157 0.59243049 1.01691513 -0.75030726
Ga 9.66861885 4.67831337 3.95791440 0.37275072 2.63792260 0.48774854
Ga 22.24103024 4.64153776 3.98676376 -0.97594541 -0.32922063 -1.96172276
Ga 8.28238875 1.45613278 9.71814622 -0.90741184 0.19055443 0.75032713
Ga 20.75009336 1.50284549 9.68077393 2.18425114 -1.21632493 -0.00604683
Ga 8.14727989 4.67420968 9.72604998 0.69834026 -0.13903752 -2.01620704
Ga 20.74020349 4.73033194 9.65761467 1.11974297 0.57683021 0.32391132
Ga 7.81794620 -0.02750543 1.79147603 0.03275155 0.78545898 -0.96316328
Ga 20.47714979 0.00626251 1.83827306 0.64491989 -0.49143889 0.14718872
Ga 7.74237960 3.11395679 1.74813840 2.93050104 2.46681762 -0.75848249
Ga 20.37317153 3.12462371 1.75963604 2.31612147 0.42033363 0.98666006
Ga 6.47473328 -0.09817627 7.64697912 0.68758211 2.10320607 0.37578643
Ga 19.03397926 -0.01538509 7.60296682 -3.13933827 1.06003822 -0.92687992
Ga 6.36556811 3.10417078 7.62514465 0.04391083 -0.26570323 1.53156061
Ga 19.08748725 3.13282646 7.52943976 0.49169387 0.36350014 -2.05726971
Ga 3.34045929 -0.08357895 4.08165336 0.37585915 1.08539132 -0.96543634
Ga 15.97582519 6.15870111 3.87316397 -0.81679098 0.54275631 1.15548562
Ga 3.19557123 3.07971724 4.02585830 -0.00813982 0.01661684 -0.40510126
Ga 15.97512332 3.05224420 3.93765057 -0.11594886 -0.36548232 1.19784265
Ga 1.94228907 -0.01860190 9.69866241 -1.34378362 1.26482563 -0.71609123
Ga 14.42276431 6.13610833 9.65871989 1.65561816 0.87621683 0.58875030
Ga 1.97970068 3.04889236 9.75745798 -2.83985598 1.25697412 0.31490175
Ga 14.53265860 3.16967949 9.69474690 0.22539912 -0.40483553 -0.85640745
O 1.89126628 6.29651574 0.59410783 -1.05590022 1.15926165 0.34496779
O 14.50107787 6.20677383 0.61135603 2.39701393 1.35290603 0.21166679
O 1.92308675 3.12890324 0.56811256 0.47682424 1.06836631 0.28973555
O 14.49672224 3.22658175 0.65968568 -1.10840743 -0.29497948 -1.10517542
O 0.42774612 0.02096744 6.50075014 1.97141228 -1.22963438 0.94822888
O 13.08064674 6.26855648 6.34669249 -1.30407730 1.04764863 -0.07790586
O 0.52690812 3.14416952 6.37667122 -1.02325432 -0.37937442 1.16917524
O 13.02280658 3.09081996 6.41254152 0.24600121 0.12160757 -2.26774545
O 9.21049388 -0.01546028 5.09438449 -0.77659961 -0.51859398 -0.42249530
O 21.88315596 0.01364362 5.09673466 -1.94115293 0.45524296 -0.79667888
O 9.26908762 3.11150768 5.15011987 -1.21460184 -1.77487744 -0.08582052
O 21.82089554 3.09925509 5.25481441 -1.58975728 0.20170648 -1.07380019
O 7.87646848 6.24875912 10.91163754 -0.66577146 0.90814158 -2.41215926
O 20.47867671 6.17430571 10.85896215 1.70960153 -2.20119463 -0.12501315
O 7.80892406 3.15635624 10.84699908 -0.08253369 0.02253928 -1.56163254
O 20.47707295 3.05106603 10.82996918 -0.58067435 -0.16859182 -2.24597737
O 8.10983491 1.53089153 0.60956036 -0.07525283 0.72791282 -1.84759427
O 20.80245405 1.54155994 0.64762680 0.95988256 1.04949133 2.88853704
O 8.23877650 4.72143837 0.62021828 -0.77498232 0.24652216 0.52260072
O 20.72229115 4.63709481 0.69622746 -0.95183835 -0.57821612 -1.30250761
O 6.78182514 1.52428799 6.38546878 0.05236753 -1.04206900 -0.15812197
O 19.34678317 1.39728691 6.51322817 -0.03704736 -1.08524352 -0.78404883
O 6.76745205 4.72403958 6.38568148 1.25323811 -0.87719255 0.29666895
O 19.33786751 4.72247077 6.38939457 -0.68643245 -0.50601449 0.57663061
O 2.97749811 1.49510573 5.11676781 1.14702033 -1.73472747 -0.04594740
O 15.59283223 1.56592310 5.16815255 -1.78639933 -1.80296669 -0.94773037
O 2.87997070 4.69737547 5.09039545 1.94626925 0.54636768 0.95599592
O 15.60337157 4.78628443 5.15867227 -0.28414610 -0.25630891 -0.69444765
O 1.51159170 1.55576012 10.86420676 0.90290600 -0.87779093 -0.45460989
O 14.11285077 1.55590164 10.99007826 0.04376940 -1.69581350 1.45581328
O 1.62544372 4.70167177 10.92325423 -1.90193778 -1.44755721 0.07259120
O 14.17574821 4.66980174 10.91291920 -1.68359982 -1.12809710 -0.05704321
O 1.30594957 6.25916616 3.22223142 2.10076538 -0.60320424 0.83810411
O 13.89468460 0.07912717 3.33741117 -0.18848206 -0.43713939 -0.39835962
O 1.36829609 3.07207786 3.28331393 0.68241868 1.24983228 1.10232416
O 14.01926325 3.11797263 3.16907392 -3.27836531 -1.54289235 -0.90970799
O 0.02232690 0.01381898 8.98008737 1.35006427 -0.19685426 0.07142330
O 12.61931104 0.01423821 8.99434585 0.60339727 -2.51755204 -1.58681222
O -0.05100395 3.16719039 8.99603216 -0.94641338 2.31363227 0.33275064
O 12.58468351 3.09982124 9.04911346 -1.34114219 1.42627294 0.01037281
O 9.78670736 6.19145177 2.46579270 -1.18512025 -0.33461038 0.97161840
O 22.26402596 6.22519725 2.51584038 1.15629143 -0.03701043 0.71143044
O 9.79566355 3.03742095 2.49613152 -1.02256453 -0.64841718 -0.93083248
O 22.26928760 3.10590075 2.48221270 0.57503649 0.44094274 1.82229810
O 8.29919969 -0.09175495 8.28708655 -0.24765508 -0.26074416 -0.06467598
O 20.98921998 6.20657355 8.23856905 2.10012695 -0.03533399 1.60359775
O 8.31251434 3.10881057 8.24640652 0.30008332 0.56021942 0.21573700
O 20.92257064 3.13335723 8.32080781 -0.32125845 -1.29828906 2.34447106
O 7.67793047 1.57709895 3.29156729 -0.93267163 0.39905386 0.34679151
O 20.26226291 1.54992684 3.20465121 -0.09570544 0.63914738 0.62214996
O 7.71535384 4.56212238 3.27925551 -0.72572264 1.45777595 -2.75856547
O 20.25589991 4.77390536 3.24918136 -1.16944965 0.79425390 0.14125354
O 6.28225315 1.52145779 8.97595225 -0.97625467 -2.27924585 0.79673522
O 18.79530629 1.55670994 8.95436534 0.29418293 1.70144441 2.77093804
O 6.24263022 4.74040777 9.08524864 -0.59829004 -0.79466120 0.69909905
O 18.84450018 4.69575093 9.05421969 0.75749146 -0.21422770 -1.20706898
O 3.50624349 1.53550453 2.63285166 -1.50106205 1.08547803 4.11228702
O 16.00686963 1.53194812 2.50361127 -0.00270679 0.20228929 0.21474429
O 3.41411155 4.63916573 2.53838340 -1.21709165 -2.26614684 1.44252702
O 15.99646904 4.72557258 2.55780641 -0.66753629 0.61562406 0.15592246
O 2.07256916 1.59419502 8.26378469 2.75405966 -0.58534295 2.16871437
O 14.59763021 1.53245431 8.19524498 -1.13808039 0.31336273 -0.23135392
O 2.13169445 4.63581736 8.26804388 1.15644008 -1.10512206 0.07562335
O 14.66307833 4.65733367 8.30383318 -1.48930128 1.77222842 1.64980720
O 12.17357579 1.46774238 1.44053302 0.83009671 0.70831292 -0.80024108
O 24.71454790 1.61954882 1.46539017 0.25271623 1.16247781 -0.82625081
O 12.14598945 4.61975437 1.47112010 0.12302636 0.84705129 -0.53124609
O 24.73835440 4.69881455 1.38993130 -0.24402119 0.84583716 -1.74427988
O 10.78613398 1.66654662 7.15981262 -0.43418040 -0.43086529 -1.68070970
O 23.31091578 1.56401353 7.28250360 -0.56836329 -0.32975141 0.06942043
O 10.77259379 4.66373317 7.25070658 -2.81061759 -0.87348689 0.91799372
O 23.47137763 4.68302886 7.25940288 0.50192679 -0.78527002 -1.38859991
O -0.97718863 1.53294082 4.32095245 0.81957337 -0.09568937 2.26429556
O 11.68593578 1.57195558 4.30962140 0.11939207 -0.49076811 -2.08402831
O -0.94000932 4.75816940 4.31099348 0.04826646 -1.96826373 0.22108555
O 11.51447513 4.71651694 4.33117296 0.68186002 0.05425496 1.24234352
O -2.41348442 1.61151819 10.05944084 -0.24022846 0.50197238 3.56124619
O 10.16870339 1.62525977 10.06748832 1.48238011 1.63218849 -2.71281195
O -2.45507882 4.72375736 10.09931276 0.80990360 1.97651313 1.18116086
O 10.21105141 4.60427706 10.04226438 -0.99477638 1.22379250 0.60689107
O 5.89081618 6.22117412 1.60769494 -0.20230592 0.95894478 -0.55318224
O 18.52618063 -0.09590768 1.52306963 -0.15095753 -1.01112943 -1.21910709
O 5.78270782 3.07584486 1.37791166 0.08224173 0.70445173 -2.17942793
O 18.44826133 3.11534274 1.47263901 0.29197755 2.48481949 1.37798127
O 4.42678995 6.28109758 7.35133600 0.54863879 -1.37804804 1.35631638
O 17.05730874 0.00850117 7.33868744 0.41276456 -1.12417514 0.62132691
O 4.44554556 3.13652332 7.25206431 -0.06094056 -1.03641504 -2.47606974
O 17.13201732 3.19299002 7.22527163 -0.09083352 -1.11266354 -1.67751384
O 5.31474784 6.22674716 4.31587495 2.59579889 2.26117364 0.12114589
O 17.91287235 0.02033236 4.44245399 -2.96130748 -0.35544790 0.74080290
O 5.30477949 3.09494462 4.28554543 0.03451177 0.64032772 2.18563711
O 17.93395182 3.09487101 4.37065486 -0.73341350 -1.58501797 -1.03453361
O 3.88721304 6.27346494 10.05657806 0.21096342 0.89264973 1.34397328
O 3.90333525 3.14379995 10.04574542 1.96989588 -0.15458228 -1.41240260
O 16.42611157 3.15120375 10.02123716 0.10419748 1.71745351 1.09555760
159
Lattice="24.691684 0.000000 0.000000 0.000000 6.113324 0.000000 -2.754402 0.000000 11.318487" Properties=species:S:1:pos:R:3:force:R:3 Energy=-624.646430 Virial="-55.048830 -1.191486 -3.680418 -1.191486 -42.660148 -1.795878 -3.680418 -1.795878 -42.492012" pbc="T T T"
Ga 0.04552077 -0.01061332 4.40124274 1.41794226 -0.42717816 -0.41707632
Ga 12.39716837 6.08474636 4.51967258 1.52204371 1.48581425 -0.37677168
Ga 0.05747804 2.97306569 4.53870820 1.21989717 -0.24704150 -0.38871180
Ga 12.38653814 3.14249899 4.59144932 0.80713263 -0.35821639 0.09176045
Ga -1.34607892 6.14403029 10.18308400 1.19745105 -1.95144002 -1.44226182
Ga 10.95280613 6.07696667 10.12758238 -0.08286577 -1.81146311 -1.04936434
Ga -1.32148537 3.16656470 10.22806385 -0.49097005 -1.62090687 -0.76667570
Ga 10.94356854 3.03132682 10.12965473 2.84567793 -0.24694033 0.58623646
Ga 10.89424854 -0.04249922 1.13579353 0.31121461 -1.44598572 -0.87484826
Ga 23.30326152 0.08801242 1.26627442 0.71480342 1.95071287 0.03754980
Ga 10.98582291 3.05540557 1.17225256 -0.66046350 0.73805627 0.05063924
Ga 23.37350266 3.05155654 1.09188585 0.71681885 -1.26019016 -0.32923718
Ga 9.67778678 6.13466233 6.83139712 0.90215389 1.74401611 -1.35659600
Ga 21.86288869 0.11096921 6.89134940 -0.27892234 -0.56735533 1.05849946
Ga 9.60729841 3.10458899 6.85082715 -1.99698567 0.42029061 0.78572852
Ga 21.90064805 3.09127919 6.88501008 -0.67289537 0.42866610 -1.00907953
Ga 6.21241660 1.50379647 4.55885005 0.36863655 -0.31024534 0.44935228
Ga 18.53152149 1.51419875 4.53072471 1.07637635 -0.08174549 -0.19534368
Ga 6.09950983 4.57180396 4.42252189 -2.81996164 1.12402224 -0.44624331
Ga 18.54883204 4.62102350 4.56688575 -2.17362296 -0.77920818 -1.09611698
Ga 4.73731068 1.48427296 10.12188095 -0.81034783 0.87474069 -1.34139739
Ga 17.23161691 1.51715684 10.15770224 -0.59747702 0.81810449 -0.51768559
Ga 4.73509044 4.57780190 10.10927131 0.34098400 0.62390545 -0.92291818
Ga 17.15243488 4.64095054 10.19461816 -1.04583257 1.27935122 -0.84503263
Ga 4.70592243 1.61807245 1.14108493 0.56192794 -0.82680453 -0.42218319
Ga 17.15014878 1.53960807 1.03325277 0.31347256 0.11683547 -1.93323075
Ga 4.82425485 4.56883195 1.13272623 0.64846239 -0.34871110 -0.95359679
Ga 17.02932765 4.60225867 1.19141687 1.61897239 -0.29971209 -0.41062072
Ga 3.33246354 1.46537407 6.83089706 0.35127593 -1.95326222 0.31840752
Ga 15.87210200 1.47184321 6.83539263 -0.86944271 -1.68285968 2.30961208
Ga 3.42766643 4.51386822 6.80734477 -1.17730887 0.01591330 1.04561980
Ga 15.75161102 4.68584412 6.80591447 2.54903060 -0.08034582 -2.56035168
Ga 1.57664284 1.59106860 1.69172274 1.04484482 0.73926408 0.04761915
Ga 13.82044618 1.58665778 1.80318438 -0.98995282 -1.11386218 -0.13399879
Ga 1.58629291 4.63436907 1.81536709 -0.91525379 1.85867500 -1.53809927
Ga 13.91083072 4.54543018 1.84118129 0.06889146 -0.07528672 0.29264372
Ga 0.16229014 1.52067154 7.40038947 2.23734638 -1.56625489 0.42419170
Ga 12.48550633 1.57241711 7.50874355 -2.11941290 -0.78095073 -1.17985169
Ga 0.15360955 4.61417686 7.51553329 2.45102796 -1.37546355 0.62257028
Ga 12.39102174 4.53380488 7.41129387 0.75427213 0.31232347 2.01159919
Ga 9.49677441 1.49976866 3.89138965 0.63304191 -0.66560066 -0.95376139
Ga 21.91103855 1.59013874 3.94611945 1.57688762 1.19614108 1.57098207
Ga 9.36028131 4.65339427 3.91838545 -0.66595887 0.66413280 -0.59232065
Ga 21.77591932 4.63353232 3.87633591 -1.74986292 -1.04901821 0.47447298
Ga 8.04567967 1.42956899 9.53349082 -0.98734033 2.06703261 0.62850751
Ga 20.40634922 1.61238272 9.52674090 0.04447484 -0.14983119 -1.18036209
Ga 8.00266181 4.55620321 9.57176956 0.98210024 -0.34281299 1.78245179
Ga 20.34422158 4.41661712 9.42897607 2.97759943 -0.07734467 -1.08091823
Ga 7.55282202 0.00878596 1.74460258 0.04216765 -1.37920148 -2.45711545
Ga 20.05763245 -0.05861608 1.72464064 -1.15781097 -0.37563270 1.53680660
Ga 7.69467019 3.12179400 1.81539964 2.74264250 -1.43966070 0.50504257
Ga 20.12832557 2.88830669 1.74402613 0.10532887 -0.67963412 -1.59765984
Ga 6.27006523 0.02995594 7.53481291 1.08697902 1.49349753 -0.73156461
Ga 18.61926664 -0.05216709 7.48516476 0.76649518 -0.29954497 0.44894449
Ga 6.27374973 3.04830280 7.43930347 -0.03959548 1.00864782 -0.46078003
Ga 18.72373774 3.06427738 7.42681114 2.16989572 -0.21931843 -1.40347107
Ga 3.17234635 0.06067064 3.83691461 0.07820807 2.68613039 0.12856506
Ga 15.52678696 6.15214402 3.95730810 -2.41300087 -0.34634338 -1.24982158
Ga 3.24871294 3.08786601 3.89140871 0.00905489 -0.73300754 -1.07402912
Ga 15.75270843 3.17739965 3.86312267 -0.62782762 1.67402171 0.39011184
Ga 1.81709978 0.09912522 9.39424873 -0.90506306 0.60078512 0.56205760
Ga 14.26308681 6.10578254 9.46361760 -0.56512376 0.75519936 2.27635827
Ga 1.90663916 3.05680624 9.45662344 -1.76712203 -0.45573424 1.53693266
Ga 14.22675067 3.05423762 9.56007068 0.47026066 -0.13628537 1.66007354
O 1.80898773 6.04790597 0.57518549 0.97690794 -0.22683047 0.39050022
O 14.29061050 6.09377488 0.49695425 1.48043233 -1.64302206 -0.96403328
O 1.91979775 3.11784622 0.70250216 0.02739282 1.69235532 0.06390692
O 14.16742882 3.06288199 0.73264113 1.47702598 1.64198262 0.62904276
O 0.50517651 0.00205870 6.26347435 -0.79213282 1.19458982 1.44906237
O 12.81824506 6.07634512 6.33164049 0.43317816 2.17770270 1.87632968
O 0.54193188 2.92631111 6.19257050 -0.24526428 0.07315591 1.77218613
O 12.72641565 3.06113975 6.34089760 0.60719521 -1.99273572 -2.73811474
O 9.19791874 0.06955991 5.05177929 -2.15358277 -2.41142210 0.74616021
O 21.47128187 -0.03051616 5.10766839 1.53248551 -0.73347814 -0.29831227
O 9.04114405 3.06169997 4.98882576 0.22052773 1.10044834 1.72613646
O 21.51931830 3.11987157 5.04193323 -0.19236296 0.74494151 -0.07451613
O 7.63457789 6.05441980 10.67125753 -0.34771857 1.93623042 -0.61897259
O 7.74016703 3.07122466 10.75500050 0.01918630 2.20843497 2.40069398
O 20.13016505 3.15792750 10.73037881 0.63573071 0.12462381 1.64772638
O 8.10185683 1.55613258 0.69688786 1.99632859 -2.57062387 -1.64742754
O 20.44930097 1.54202267 0.63583045 -1.29999580 -0.24695780 -2.65257760
O 8.11481502 4.55233201 0.60221361 -0.61791128 1.24528482 -1.53384335
O 20.45147481 4.56605674 0.60659436 -1.36411197 0.63581656 -0.45989556
O 6.67526766 1.49045966 6.18921916 -1.27797980 -0.87672957 1.18428868
O 18.91958412 1.50731618 6.31501884 -0.97410029 -0.58162669 1.49265613
O 6.65260097 4.57979107 6.22933411 1.73841755 -0.86850233 1.00218380
O 18.94175708 4.67745567 6.20187847 -0.71423070 1.59871188 0.01072749
O 2.80213946 1.59781614 4.97700034 0.00853998 -0.27116627 0.53942769
O 15.30108662 1.56041193 5.04509167 -0.06750483 1.52593518 -0.10455440
O 2.92580693 4.56360917 4.95068685 -0.31991105 1.59981426 1.20778081
O 15.28981269 4.59211314 5.04434916 -0.45398177 1.11741916 0.06786110
O 1.62850240 1.50758441 10.71865841 -2.50443970 -1.58701883 0.04740387
O 13.94481829 1.52435311 10.66404074 -0.45442690 -1.25076014 -2.97965600
O 1.54337108 4.65496602 10.79478151 2.26205961 -1.67013194 -0.16597969
O 13.84477278 4.57529307 10.70597486 0.28064801 -1.80593124 0.66300571
O 1.42137119 6.11908357 3.19949514 0.05147684 0.22590629 -1.46382663
O 13.64126565 -0.02099738 3.06448983 -0.89292362 0.66810041 0.80057205
O 1.35003378 3.06245953 3.19786813 -1.41883540 0.99645045 -0.19035930
O 13.77779543 3.06297873 3.20467523 0.19325105 0.98928583 -0.35618746
O 0.00137726 -0.00714016 8.85916862 -1.41789836 -1.04095166 -0.43977796
O 12.30246690 0.02747047 8.82618685 -1.03396931 0.10666969 -1.46433436
O -0.00944286 2.96742180 8.80476021 -0.11304696 3.25159273 0.38418465
O 12.27861288 3.03461317 8.80995129 -1.93763868 -1.17616779 -0.52228808
O 9.57640697 6.15977718 2.52562652 1.31582951 0.68403635 0.83242266
O 21.95818139 6.08070705 2.46417808 0.78193362 0.13279913 -1.21644475
O 9.55837860 3.21613227 2.36952098 0.17590637 -0.00074989 1.46594032
O 21.92551734 3.01282698 2.58621212 0.06578418 -0.55606971 2.04369819
O 8.29365162 0.07026740 8.14186124 -0.56421659 1.41279767 -0.28822444
O 20.49103993 6.07548511 8.13477625 -0.14321346 -0.20317678 -0.43411493
O 8.19589529 3.05331402 8.08477743 -0.32437781 1.30688532 1.63299015
O 20.57568525 3.11507870 8.16813717 -0.94290161 1.76052533 -0.16156804
O 7.60205655 1.44531546 3.09968370 0.33861308 -1.32774885 1.16313206
O 20.01660673 1.50425654 3.24190079 0.25345076 -0.06714158 0.61323955
O 7.53173668 4.57190427 3.20022166 0.34657332 -0.50364985 1.17873762
O 20.00158114 4.64386197 3.18246483 0.86335782 -0.44039708 1.92602567
O 6.27294212 1.59987776 8.89678241 -1.13545942 -1.58033342 -2.10284084
O 18.45146251 1.49269744 8.90110103 1.39605697 -0.66559213 0.36978549
O 6.12762551 4.59025331 8.90183739 -0.99971170 0.33350981 -0.41391209
O 18.51028527 4.62948808 8.88639815 0.57515846 -2.59282434 1.25776663
O 3.42332475 1.55774517 2.46073253 -0.59504414 -0.93149469 -0.22590420
O 15.70797181 1.57697767 2.49419206 -0.02338952 1.76669305 -0.53877311
O 3.59944219 4.48676727 2.41904363 0.13585105 1.57570826 -0.68547455
O 15.77740490 4.53833254 2.41029161 -0.81518406 -0.61957870 -0.51613034
O 2.18869130 1.51072964 8.18753841 -1.24688752 0.40249319 -0.07857937
O 14.38832441 1.60032208 8.01328734 -1.92987392 1.53897768 1.15930740
O 2.07533299 4.57373714 8.07097550 2.55542029 -0.65785645 2.03630775
O 14.41830192 4.64211018 8.08248812 0.72639879 -0.21522865 1.19384836
O 12.04777282 1.51064942 1.47299735 -0.72526496 0.45796500 0.32773413
O 24.30369175 1.63046369 1.51492635 -1.27322352 -0.25622353 -0.39980450
O 11.91412126 4.61674387 1.45606343 1.38072222 2.17489012 -0.68457342
O 24.29467789 4.68811139 1.37389994 0.43210211 -1.43046854 -0.54648795
O 10.57601226 1.62694163 6.99916935 -0.43080700 1.65440024 1.34027971
O 22.93783874 1.42673909 7.03043537 -1.28706242 1.35843119 0.36794239
O 10.55571520 4.55026400 7.18788775 -0.94868492 1.73249961 -2.02306878
O 22.83685235 4.60270154 7.18658703 0.62068221 0.94029405 0.64888161
O -0.95298605 1.55005135 4.27328085 -2.36941790 -0.12270372 -0.99460394
O 11.30114474 1.49574626 4.24143919 -0.81919304 -0.91899817 0.40305783
O -1.08037752 4.62680454 4.22146548 0.04051974 -3.32271270 0.78708722
O 11.37438754 4.62534520 4.15325735 1.06450995 0.49823897 0.06598165
O -2.27592027 1.49886155 9.86021309 -0.85995863 -0.68953418 -1.88868041
O 9.94391156 1.50035657 9.75378804 1.05923207 -1.43489514 1.15025582
O -2.38621986 4.58154228 9.83737198 1.00489327 -1.66839527 -0.41914415
O 9.92151173 4.60601233 9.91182587 0.51088394 0.37342871 -0.26092924
O 5.66729584 6.20887863 1.44478775 0.89605406 0.06592879 1.11948234
O 18.13353733 0.00731788 1.51496917 -0.57719291 -0.47212553 1.44915435
O 5.73325275 3.07140662 1.47937240 -2.11623357 0.51838253 -0.60392049
O 18.08018418 3.15348876 1.33885055 0.07340590 2.53403740 0.33386417
O 4.37902741 6.11077931 7.13188120 1.68111637 -0.22412224 -0.30259561
O 16.69374502 -0.08925148 7.09446174 -0.92973603 -0.51640373 -1.15729338
O 4.39732681 3.00130791 7.15218876 -1.37462317 1.09704386 2.64457699
O 16.81060301 3.03765221 7.01997214 0.27385493 0.22762456 -0.89940026
O 5.16968586 6.12546030 4.22051159 0.39609322 -1.66068583 0.89881323
O 17.43249994 0.09718099 4.14729282 0.82890568 -2.18903905 1.41826396
O 5.24042034 3.06905846 4.22323962 1.56396660 -1.94310495 0.80103617
O 17.48026377 3.13404962 4.29626402 -1.16112120 -0.98715710 -1.73009841
O 3.85830155 6.17621160 9.87977670 1.28823924 1.49278837 -2.02520117
O 16.18612797 0.00159373 9.76206488 -1.38482733 -0.00929538 0.26884044
O 3.71259108 2.99151127 9.77665172 -1.33652434 0.00879203 1.02614567
O 16.16754646 3.08022399 9.83297408 -0.82357342 -0.85873935 -1.09825066
159
Lattice="25.088788 0.000000 0.000000 0.000000 6.211642 0.000000 -2.798700 0.000000 11.500516" Properties=species:S:1:pos:R:3:force:R:3 Energy=-624.365945 Virial="-53.276218 2.138324 0.664895 2.138324 -42.079766 -4.604115 0.664895 -4.604115 -41.261710" pbc="T T T"
Ga -0.05014890 -0.06074801 4.61590246 -0.68476779 1.14602952 1.02098717
Ga 12.51841655 6.23385361 4.62612567 -2.39509447 0.97066748 -0.53998734
Ga 0.08485489 3.12777598 4.60436625 -1.47957644 0.23840140 -0.10649176
Ga 12.60565648 3.05910952 4.58885748 0.49945834 0.39550211 1.24712896
Ga -1.37227445 6.11831313 10.30915464 0.60598500 2.88015174 -0.85458431
Ga 11.24703164 6.32834504 10.25340089 1.32431300 0.52698871 -0.25248323
Ga -1.51562147 3.03432648 10.28240983 1.00954054 1.58997404 1.39643887
Ga 11.11197621 3.08732147 10.31817362 -0.08656189 0.02200069 -1.82663755
Ga 11.29748439 0.02962668 1.09818750 0.34585432 1.06752800 -1.36414420
Ga 23.61324930 0.02150723 1.19678933 1.75665792 0.72215649 -2.54919010
Ga 11.21924079 3.11904460 1.22510882 -0.54006714 -0.80724907 -0.04460159
Ga 23.62667036 3.05850837 1.14342793 -1.64934057 0.58279670 -0.01902732
Ga 9.68990458 6.04101392 6.85949171 -0.13537316 0.95102547 0.16024693
Ga 22.26982210 0.02409744 7.03484241 2.01717569 -1.21337822 -0.25687174
Ga 9.77133988 3.08477911 6.97137909 0.46250894 -0.63158718 0.49587231
Ga 22.31426357 3.16871668 7.02533246 -0.74620972 -2.25838955 0.64535160
Ga 6.24343719 1.54307493 4.52492891 -0.47180935 0.68776355 -1.49742828
Ga 18.86413914 1.65817148 4.57220951 -0.52938730 0.39510857 0.12429787
Ga 6.32235932 4.57959189 4.50274323 -0.78836241 2.67653267 3.09333275
Ga 18.81489897 4.68344875 4.60540062 0.45163261 0.81568539 -0.24681000
Ga 4.78975767 1.49388676 10.31174040 0.96161328 -0.69275778 0.22004430
Ga 17.40549639 1.67158157 10.32867788 1.99327798 -1.25752226 1.11872037
Ga 4.90273032 4.69585995 10.36427444 -0.73496755 1.48557671 1.11816124
Ga 17.38165534 4.68614801 10.39717967 2.01313822 3.11051517 0.68502456
Ga 4.73508516 1.48730449 1.19720857 1.61256104 -0.49924966 1.35064540
Ga 17.37878152 1.57952752 1.12809808 -0.08093744 0.98869005 -1.46070945
Ga 5.00547389 4.65097054 1.13908359 -0.53167608 -0.67476781 -0.78542837
Ga 17.34504023 4.79864729 1.20661461 -1.18341858 -0.46616790 -0.54096334
Ga 3.49886886 1.68818529 7.02876315 -2.06595148 1.74214149 1.34718012
Ga 15.94791555 1.54590328 6.85030889 2.01450869 1.20693082 1.17513368
Ga 3.61698339 4.70720586 6.78060898 1.36121972 2.92485127 1.06594598
Ga 16.14387781 4.68098664 6.89620238 0.37928730 1.60811962 -1.23281998
Ga 1.62821218 1.64475567 1.74410793 1.55849147 -2.05148710 0.11000880
Ga 14.05101421 1.55829202 1.73944078 2.19333270 -1.39615523 -1.55272135
Ga 1.50321852 4.67105885 1.76239528 0.70789210 -1.74776992 1.61003060
Ga 14.15053690 4.70623621 1.87369711 -1.81905586 0.07811282 -1.27216492
Ga 0.11626565 1.42686275 7.53672831 0.11116376 -0.11729621 1.18849674
Ga 12.75517561 1.56885014 7.69558054 0.64189644 1.89042373 0.50103139
Ga 0.07645502 4.66498585 7.60266424 -0.05464049 -0.44357881 -0.51333870
Ga 12.72314770 4.86382641 7.56415626 0.02969116 0.31258989 -0.95082999
Ga 9.50053387 1.71245799 3.86206928 0.01049236 -0.18068558 -0.53486469
Ga 21.97664089 1.50742875 3.89467948 1.31235326 -0.43148223 -0.27880470
Ga 9.62335203 4.59640614 3.93606247 -1.52160200 -0.70179546 0.02265444
Ga 22.30055201 4.64302371 4.04664609 0.02705038 -1.22834916 -3.53118732
Ga 8.35149174 1.65504432 9.62894093 -0.23643747 0.61196851 -0.65541603
Ga 20.82326215 1.52153913 9.60130265 -0.87424340 -1.00613962 -0.41229786
Ga 8.09405179 4.63818534 9.64824874 0.89583310 -1.03415085 0.79438595
Ga 20.76536459 4.57663817 9.71129155 0.71540424 -0.80581306 1.07126667
Ga 7.75687591 -0.06167418 1.91318904 -0.71610140 -1.63220642 1.10059917
Ga 20.37815500 0.01280410 1.71698449 -0.76830956 0.25865095 -1.26134966
Ga 7.84394843 3.10099039 1.60445393 -2.00825575 -0.83317686 -0.54235385
Ga 20.33769349 2.91235276 1.81759305 -0.08431453 1.91416449 0.04311048
Ga 6.52123464 -0.04076428 7.46940067 0.58733192 0.24539584 -0.15689306
Ga 18.87470214 -0.03396236 7.56878194 0.22152933 -0.27250397 1.60773364
Ga 6.43502627 3.08463398 7.57882287 1.30157030 -0.90663231 -0.51244060
Ga 18.97672475 3.11890709 7.43411568 0.13818082 0.51882319 -0.15686828
Ga 3.31838604 -0.13783398 3.97754093 -0.44080586 -0.64010156 1.86513396
Ga 15.86771821 6.37316568 3.87218802 1.81742389 0.63081237 -0.45602091
Ga 3.46641172 3.18779178 3.94592586 -1.18004461 0.00966659 -3.19376116
Ga 15.92366170 3.08187138 3.84184557 -0.70820505 1.18426684 0.40715847
Ga 1.87241540 0.00336180 9.75200045 0.79549536 -1.02289024 0.02694530
Ga 14.45970444 6.17856613 9.58972117 0.35276895 1.07728525 -1.12867797
Ga 1.95548675 3.01262055 9.57603519 0.88243044 0.12578552 -1.83989938
Ga 14.45003658 3.02888219 9.62879436 -0.12196560 0.93513921 0.31057027
O 2.01008453 6.21411095 0.65609001 0.48716773 0.23442129 -0.70898805
O 14.50130823 6.25145935 0.65694342 -1.45405272 0.41250023 -0.81778047
O 2.06152809 3.00158792 0.64012031 1.15795121 1.06391729 0.09802320
O 14.36617463 3.22183054 0.70424290 0.07076869 1.21924962 1.62938630
O 0.39745768 0.14154341 6.28938683 -0.02379929 0.46751428 1.53529143
O 12.98846319 6.14629675 6.33218929 -0.68326482 1.69688659 -0.59053620
O 0.56200062 3.15517648 6.33588697 1.47304753 1.19279414 -0.74496440
O 12.95137789 3.13993509 6.41304654 -2.47048217 3.47402212 0.78986156
O 9.36481638 -0.00211528 5.07240659 1.57252125 0.55158657 -0.29558670
O 21.80356182 0.02014346 5.20872886 -1.30561576 0.54342142 -0.04580934
O 9.26148037 3.21616059 5.00883299 0.75188301 0.32707039 -0.91041477
O 21.92722860 3.13395278 5.15792669 -0.03417670 0.15539078 0.57780573
O 7.88986698 6.27014160 10.88961197 -0.63019027 0.67234149 0.72138561
O 20.28007491 6.19346530 10.87646170 1.24231102 0.35180898 -1.27412667
O 7.92210683 3.00532526 10.94385504 -1.57978674 3.51950309 1.49865380
O 20.29155752 3.09043871 10.89383309 -0.94651207 0.65295557 -0.35539677
O 8.20994211 1.49914511 0.78144028 2.67066383 -1.18318184 1.82026793
O 20.76075283 1.55834802 0.70739990 -1.00234814 -0.24423004 -0.24356409
O 8.02431513 4.54850858 0.68680048 -1.38515257 -0.81478519 -0.45406246
O 20.79358849 4.79718503 0.63290586 -1.29475431 0.45153068 0.03000380
O 6.80568057 1.36706213 6.43464860 1.10171893 -0.38736213 -0.71387626
O 19.35814988 1.50591485 6.37088524 -0.14728168 -0.07840925 0.97282963
O 6.72754619 4.72304973 6.47015536 -0.33108468 -2.72022380 -0.84227599
O 19.34470491 4.58222435 6.36697476 -0.00467770 -2.32790335 -0.35062349
O 3.00715084 1.48461144 4.98619894 -0.00050518 -0.96435913 0.20949727
O 15.65132225 1.54088577 5.11099284 -0.85058311 -0.20429834 0.09683835
O 3.01216336 4.61499899 5.20733085 1.17327856 -2.56974311 -0.31230857
O 15.65713471 4.65689225 5.05496819 -0.25377080 1.31932318 0.36555194
O 1.54662055 1.47749190 10.80753271 -0.49918649 1.43787367 -0.70088499
O 14.08144349 1.44498052 10.86091482 1.32768707 0.82082424 -0.34687379
O 1.55968590 4.65305458 11.02261428 -1.18085142 0.75565933 1.54363329
O 14.20186155 4.55552062 10.93608310 -0.51589508 0.06674811 -1.19841916
O 1.34804393 6.22859853 3.20065512 -1.40495183 -1.27245653 -0.79924372
O 13.87310035 -0.10402557 3.28181831 -0.45694617 -1.36222614 -0.87355429
O 1.47118954 3.16630072 3.19312297 1.57728672 -0.48651296 3.05484496
O 13.95237143 3.11581273 3.24641720 0.67112978 -0.56636587 -0.42638413
O 0.02191796 0.08356513 9.04219712 2.48569005 -0.00623764 -0.05063760
O 12.57241971 -0.05154614 8.92967154 0.88262109 0.52282484 0.95166988
O 0.00912975 3.01501144 8.97493141 -1.16198759 -0.84042680 2.43650279
O 12.50143639 2.96251298 9.05078140 0.50958174 -0.16201553 1.96662619
O 9.70479425 6.03101699 2.50956726 1.03164818 1.10760630 -0.80053769
O 22.27202731 6.33398563 2.50175683 1.39907047 0.57663038 -0.70615903
O 9.80758997 3.03543939 2.44407977 0.25069160 -1.63310140 1.18128483
O 22.22872084 3.20629417 2.39906998 -0.95044938 -0.92438062 -0.42800086
O 8.42918393 0.12117398 8.19896477 1.38718406 1.72988605 1.07484433
O 20.82387557 6.29526974 8.34479637 0.59130630 0.00310112 -0.75261449
O 8.32034487 3.13754121 8.29125585 0.45462744 -1.60067146 0.95795982
O 21.03347040 3.20912135 8.34387237 -0.03155497 -1.23815091 -0.54491704
O 7.70761254 1.55350492 3.20557424 -0.55730754 -2.92153063 -1.65448513
O 20.26996379 1.55097050 3.30712309 -0.99981424 -0.10662934 2.48545844
O 7.65567156 4.67230877 3.18264284 1.93132488 0.22206381 -2.61536013
O 20.17420449 4.74486001 3.21706342 2.40024107 -1.55723151 -1.71835881
O 6.27802852 1.50267109 8.91104245 0.79437708 -0.30861511 -0.00854437
O 18.78605761 1.52231009 9.00265315 -2.39863287 0.81682766 -0.91371176
O 6.24545757 4.65580380 8.87903869 -0.25970232 0.21410929 3.15598194
O 18.78667643 4.71720895 9.03156975 2.84386061 -1.57434533 -0.57923927
O 3.36270114 1.51541308 2.43423063 -0.26429162 -0.44538929 0.84838990
O 15.90865666 1.38362215 2.48322388 -0.88348158 -0.26064945 1.29530193
O 3.53626759 4.74101836 2.59315667 1.76331578 0.55739072 0.35577587
O 16.04265059 4.52725116 2.52731302 -1.46663154 -1.08948595 -0.31511207
O 2.03646443 1.67251465 8.14280842 -0.65866662 0.48337987 -0.18042731
O 14.56053360 1.53999861 8.13168577 -0.16822303 -1.02261179 -2.35970811
O 14.56598427 4.71820015 8.09255739 -1.22708514 -0.09179906 -0.73328213
O 12.13562641 1.59740357 1.33544762 -1.32743682 -0.27052310 0.30673357
O 24.54143630 1.54076591 1.55698979 -1.25175973 1.94356811 -0.11430103
O 12.27752669 4.69304870 1.39738903 -2.51394277 -0.79799934 -1.31113190
O 24.77800505 4.80788004 1.43821388 -2.44301903 -1.64427239 1.60903615
O 10.83888387 1.48950548 7.25671216 0.76946328 0.18598527 -0.39567710
O 23.34763737 1.47779356 7.27515557 -1.49562162 -1.41685725 -0.96044538
O 10.74640051 4.66013761 7.11704968 0.59587714 1.04319728 0.80523541
O 23.32289738 4.68455156 7.17103852 -2.63370853 -2.22784689 -0.05072460
O -0.97999338 1.63557179 4.12864275 -0.12082291 0.35152595 -0.74895636
O 11.44232399 1.54524502 4.21894709 0.26031143 -1.63319768 2.17108625
O -0.90463821 4.58136679 4.31716135 -1.09956245 -0.39668489 1.17976442
O 11.43836607 4.81942430 4.22894857 -0.47996024 0.06000819 0.67089878
O -2.29469261 1.56283646 10.07385134 0.02880235 0.64565510 0.53338845
O 10.05055240 1.60390598 10.06251079 2.64438317 0.73314190 -1.71807936
O -2.52543399 4.57572476 10.05075562 1.55027596 2.86727205 -1.74596949
O 10.25976772 4.56920575 10.01180771 -0.46761331 0.85169958 -0.12966378
O 5.79573127 6.18314944 1.43865752 -0.83965638 0.83416135 -1.05528247
O 18.44033013 0.06022474 1.43890510 -0.10543483 -0.64322886 2.81779869
O 5.85484182 3.05681895 1.38077755 -0.21343063 -0.48843531 1.88537280
O 18.37496089 3.18403224 1.38628850 -0.61253003 -0.16695975 -1.68346658
O 4.47844095 6.05080647 7.26007748 0.87963813 0.74257116 1.53811164
O 17.09991202 0.06809239 7.29416507 -0.04831116 -3.30978366 1.43967326
O 4.48687687 3.10026714 7.10059908 -2.06911891 -1.39990250 1.84152519
O 17.03950220 3.25265001 7.28639998 -0.81284715 -1.53214740 -0.98397328
O 5.30596236 6.28532106 4.31488060 0.11145070 2.18547736 -1.57186391
O 17.84449823 0.03145402 4.30269455 0.55360999 -2.56337759 1.32874539
O 5.32951439 3.12286004 4.23872748 1.74736611 -1.16687781 -0.47154605
O 17.82697728 3.20256257 4.21651684 -2.38695892 -0.90910750 0.16261372
O 3.90573444 6.19512974 9.85034156 -2.26851891 -1.04278289 -0.95215231
O 16.48601209 -0.00944601 10.09177267 1.24655905 0.41933670 -1.88484424
O 3.92654803 3.04420094 9.87692905 -0.12705621 -1.88413671 -0.56839954
O 16.51564503 3.08297467 9.96907505 -0.06126599 0.39974907 -0.62597599
159
Lattice="24.926162 0.000000 0.000000 0.000000 6.171378 0.000000 -2.780558 0.000000 11.425970" Properties=species:S:1:pos:R:3:force:R:3 Energy=-623.819960 Virial="-52.471382 1.436124 -4.107069 1.436124 -47.361007 -6.449799 -4.107069 -6.449799 -42.281103" pbc="T T T"
Ga 0.08592792 0.02046287 4.61813867 -0.89098537 0.27127280 -0.13201233
Ga 12.35243249 6.12956851 4.43726380 -0.56732712 0.23907769 0.19866069
Ga 0.13125544 3.06583608 4.53653045 0.19902492 -0.20257792 1.58136629
Ga 12.61133155 3.15691243 4.51177042 1.26293489 0.43031145 2.10157370
Ga -1.36097520 6.20976828 10.17304765 1.14484383 -0.84530478 -0.85003833
Ga 10.92425956 6.15027677 10.32832467 -0.85378190 -0.92551704 2.20236639
Ga -1.38149990 3.05391869 10.22395030 -0.73771498 1.23835817 1.22492758
Ga 11.04857383 3.14799503 10.33561906 -0.61906418 -0.23100275 -0.46398682
Ga 10.89544995 0.03915500 1.14613504 1.15565063 1.76570436 -0.94262897
Ga 23.54525339 0.08795305 1.25597963 1.27528944 -0.38150509 -1.61851886
Ga 11.02119409 3.17316406 1.16520962 1.67413111 -2.66371957 -0.19240647
Ga 23.50395263 3.02727053 1.20187090 -1.33523848 0.44722446 -1.31625604
Ga 9.47952729 6.11097811 6.83630489 -0.37420932 0.21858396 1.82329143
Ga 22.13435653 0.00555938 6.85415770 0.61578179 1.75727857 -0.44352860
Ga 9.67817428 3.07443868 6.93364755 1.24039629 2.17085532 2.21091821
Ga 22.13971456 3.00238073 6.88858994 0.55018425 -0.90396451 -0.95114905
Ga 6.21376345 1.57998355 4.47162397 2.06446005 -0.78192346 -0.92007548
Ga 18.66118121 1.45174311 4.48505292 -0.36433951 0.23483118 0.48305017
Ga 6.17316514 4.52574888 4.49669555 0.40807064 0.41797031 0.27260169
Ga 18.84007850 4.67518016 4.49479045 -2.05379315 0.10133568 -0.36413629
Ga 4.80194213 1.56311004 10.33179850 -1.12370293 -2.29674826 -0.95902139
Ga 17.20421787 1.52464905 10.11772121 -0.55945685 -0.41584818 -0.11387383
Ga 4.78714099 4.66736945 10.20319242 -1.86347453 0.12812213 -1.65561453
Ga 17.29620501 4.70280990 10.11226420 2.50377803 0.14035546 0.25726533
Ga 4.92978335 1.56611933 1.15759508 -0.60723572 -0.79894448 -1.00300032
Ga 17.41005436 1.70787435 1.13678215 -0.04883154 -1.63856547 0.67332136
Ga 4.85953699 4.52174782 1.09069559 -0.68950955 2.06689581 0.83324844
Ga 17.23247613 4.60843947 1.19578831 -0.60716663 -1.84072488 -1.63194513
Ga 3.45743547 1.54643324 6.89826263 -2.35771689 -0.00305647 -0.53870881
Ga 15.87110577 1.61330219 6.84571965 1.27556762 1.78100803 -2.78028879
Ga 3.46213031 4.67242118 7.08456329 2.32853927 0.70818809 -2.14918666
Ga 15.87132621 4.60450939 6.79881302 2.42157894 -1.01380763 -2.70657928
Ga 1.66065300 1.57601252 1.93314304 1.57743355 1.61194543 1.24452208
Ga 13.91444644 1.55621437 1.71369795 -1.41381757 -0.83151427 -1.09071704
Ga 1.42768898 4.66452252 1.74609148 1.35364301 -0.59613892 0.98318325
Ga 13.90407858 4.56162949 1.82067106 -1.83882672 2.02937229 0.19988138
Ga 0.11722693 1.53307216 7.51133250 0.30595165 -1.65217715 0.77328932
Ga 12.68901665 1.36720597 7.34460881 -1.26468964 -0.21845444 -0.71710510
Ga 0.13175090 4.61764261 7.61795113 -1.34085556 1.91932983 1.48989815
Ga 12.63962512 4.62843411 7.42828791 0.04786027 0.40180277 1.15292420
Ga 9.63464738 1.61022863 3.88148445 1.02839127 1.32255395 0.30427395
Ga 21.98565435 1.66328438 3.89594051 -0.40952245 -1.30948070 -1.49869692
Ga 9.56360022 4.59420392 3.84375150 -0.82853017 0.39508300 1.63051504
Ga 21.98433227 4.64781612 3.83969131 -2.57371003 0.71051910 0.44675881
Ga 8.28176638 1.56643992 9.56713010 0.15908728 -1.01016975 0.70100727
Ga 20.66987387 1.45021371 9.60186810 -0.19271591 0.22148097 0.08822005
Ga 8.22099566 4.52448448 9.64595480 1.62879189 2.60612233 -0.32406595
Ga 20.62057836 4.59356613 9.69670671 -0.74750243 1.07537666 -1.03043492
Ga 7.79503322 0.03009534 1.82149505 -0.77917569 1.66982979 0.19945490
Ga 20.23570611 -0.06752575 1.81551271 -0.12270124 0.69927237 -1.50032712
Ga 7.75739768 3.16823145 1.74503091 -0.46793686 -0.12554622 -0.57986420
Ga 20.22919895 3.01141805 1.91092591 -0.68957196 -1.95869567 -0.49812963
Ga 6.40972973 -0.00499976 7.46292103 0.71188270 -1.18645756 0.94965214
Ga 18.82431376 0.00114798 7.40321002 0.67336066 0.37537184 -1.36579844
Ga 6.33762478 2.96674205 7.50582341 1.87589714 0.35210777 0.75181291
Ga 18.84218121 3.15904662 7.44111548 -0.13330768 -0.74707731 0.85709934
Ga 3.34402913 -0.00237882 4.07395820 1.59718582 0.43967347 0.01201047
Ga 15.69591999 6.28293394 4.00077784 0.09653946 -1.06628311 0.08679189
Ga 3.25440137 3.21536448 3.93358326 0.96898740 -0.83003739 -0.18116745
Ga 15.87285374 3.03655234 3.97879398 0.04229392 -0.36148590 -1.03396797
Ga 1.86336655 0.05434605 9.52496126 1.93949373 -1.17673159 1.20892924
Ga 14.35020646 6.14853522 9.45254503 -1.01132715 -0.63484282 -1.31852598
Ga 1.96089369 3.07624552 9.59092608 1.91109716 2.91241970 1.20445232
Ga 14.36877621 3.04361580 9.62392416 1.38069374 -2.09203303 -0.94177431
O 1.94691348 6.21187352 0.70601575 -0.46126529 0.19058262 -0.53870213
O 14.30872820 6.11378178 0.52792862 1.71081471 0.36022780 2.89424810
O 1.80455626 3.06569619 0.60493365 0.37070660 -1.03915733 -2.47091003
O 14.29847300 3.15434068 0.68562551 -1.93755074 -1.81800423 1.35172748
O 0.50062296 0.08546340 6.34819664 -0.86588050 0.82318524 0.74256688
O 12.99891126 6.14402476 6.27447490 -0.08484600 0.59252796 1.33367644
O 0.51409799 3.10966081 6.31540938 -0.07720702 0.62177705 -1.52672489
O 12.94237682 3.02263628 6.34411472 -0.55197185 -0.88099783 1.16328943
O 9.14991685 0.02825081 5.23598507 1.10206513 -1.75629977 0.31618478
O 21.68004205 0.01181149 5.00968397 -0.38568418 0.21234847 0.63423514
O 9.15288508 3.05210913 5.14530698 -0.27861734 0.13401944 0.65090394
O 21.62171433 3.13953533 4.98686551 -2.36655383 -0.74172142 2.02588573
O 20.28637680 6.18864584 10.64383766 0.07516140 -1.97756429 1.18647967
O 7.71254653 3.09771166 10.80670150 -0.14518851 0.17894929 0.58384956
O 20.26460349 3.09153052 10.65519902 -0.71049977 1.15741506 1.09036042
O 8.14732041 1.58798750 0.67824937 -0.66991446 -1.73559757 0.59711652
O 20.63598105 1.49729742 0.61225293 -1.74708561 0.15420941 0.25795092
O 8.18726385 4.62822827 0.71173367 1.97415612 -0.32325380 -1.02326405
O 20.59103741 4.60769659 0.64056487 -1.14350214 -1.19251653 0.30092419
O 6.72040273 1.60741766 6.45143298 3.54296530 -1.02126295 1.31044342
O 19.21314098 1.53027656 6.32276556 -1.49840679 -0.10338614 1.93678803
O 6.71620734 4.67627601 6.34969480 -1.25289251 0.36418693 0.54171284
O 19.21905369 4.58770514 6.29359941 -1.92847048 2.09253229 0.36670790
O 2.87246412 1.45244710 5.07786378 0.21245393 0.34991256 -1.87829535
O 15.41872263 1.60325053 4.86814883 -1.01868930 -2.40042807 -1.11821416
O 2.94564152 4.66789406 5.08556699 0.79340844 -0.25295059 -0.57517109
O 15.46556180 4.61175120 5.08524644 0.11307603 -2.10285532 -0.39343917
O 1.60937029 1.60567288 10.69356529 0.00896764 0.90670742 -1.38551107
O 14.01713659 1.66157819 10.92721857 -0.44829251 -0.25376615 -0.47104528
O 1.57242317 4.58584801 10.74392728 -0.14649977 0.48447024 -1.45511759
O 13.91849925 4.60673157 10.79830365 -1.93511672 0.37718592 -1.21222327
O 1.36577320 6.17129422 3.28729455 0.79832245 -2.23891776 1.85031126
O 13.86524720 0.07364999 3.16231397 0.63244987 -0.70340934 -1.00535865
O 1.39524673 3.19890924 3.29139790 -0.49422535 0.80791164 -1.51093314
O 13.85636300 3.00600995 3.25134842 2.46186077 -1.11450754 0.62739809
O 0.03086797 0.02489426 9.00522843 0.42351392 -0.79376926 2.87123664
O 12.52247686 0.07605593 8.83539876 2.48538282 -0.34579540 0.00250884
O 0.04568378 3.05698451 8.83549222 -0.45044538 0.72265658 -0.30996802
O 12.37379162 3.14341608 8.97803095 -0.92592613 2.79381355 -0.95454626
O 9.69802475 6.14202013 2.40286476 -0.48073782 -1.55209014 0.40778099
O 22.03459317 6.14520793 2.55364470 1.47836318 0.41792848 -0.17076375
O 9.77837349 2.98906905 2.46289705 -1.42116988 0.86121561 0.41301043
O 22.16037470 3.03163916 2.34829416 -0.89655879 2.97375553 -0.60874809
O 8.34913423 -0.04963278 8.19806098 1.89295777 1.21081703 -0.70453483
O 20.84028913 6.19447447 8.16978914 -1.30420832 1.23265935 1.60088754
O 8.29996019 3.10057671 8.26260828 0.19138244 -1.91602140 -1.00508215
O 20.65788299 3.09910046 8.20653615 -1.62246620 -0.54406919 0.75516052
O 7.52527448 1.48360405 3.16512438 1.66050850 -0.62539724 -0.08789058
O 20.11737728 1.46632394 3.31290407 -0.85346493 0.26375829 -0.32437730
O 7.65324407 4.64430915 3.14702128 -1.46146669 -0.45848581 -0.10774575
O 20.05030062 4.62171759 3.30100948 -0.82338108 1.42092400 0.64049103
O 6.14138830 1.63607707 8.93264484 0.70317614 0.07887515 1.18214445
O 18.80191744 1.52247303 9.02423547 -0.38396536 -1.11176573 1.30887009
O 6.19061769 4.60215288 9.04384864 1.19393748 -1.40825512 -0.21839395
O 18.71892072 4.64156496 8.98910808 -1.33961891 1.53760270 0.71800337
O 3.45599356 1.55638531 2.43475248 -0.40539644 0.11940149 -0.83744218
O 15.87668011 1.68817928 2.44249625 -0.39296130 1.28844278 -1.05421432
O 3.43357809 4.72935733 2.53019598 -1.30660535 0.60773088 0.98825494
O 15.89745661 4.64375122 2.51654690 2.04690289 0.02832995 1.91220616
O 2.07450841 1.51406530 8.23559012 0.96133078 1.45099423 0.74474072
O 14.38400932 1.37981793 8.25590448 0.39055869 1.24201293 1.00833812
O 2.04586509 4.62310993 8.17287376 0.33113450 0.19027480 0.88225143
O 14.54027492 4.62030194 8.19769141 2.46576942 -1.20899548 -0.81104736
O 12.09643333 1.50366450 1.51129216 0.63847423 -0.58181701 -0.09376401
O 24.52423229 1.64940044 1.40630061 -0.66205057 -0.10208189 -0.02575610
O 12.22092246 4.56758455 1.62108617 -0.90445656 1.48881630 -2.17182410
O 24.51345365 4.65113160 1.43763993 -1.23504834 1.34623501 0.11902073
O 10.65857715 1.55793176 7.20587584 -0.77942772 0.05070035 0.17225828
O 23.04837749 1.59838797 7.13770312 0.17190089 1.84933481 0.22325681
O 10.61342251 4.55670837 7.08465101 -0.12220787 1.50057533 0.78391156
O 23.01932139 4.76213095 7.16181829 -0.89191415 0.47032890 0.75903053
O -1.12782624 1.53646461 4.26583446 -2.15715530 -1.23082319 -0.07122826
O 11.49024236 1.60935240 4.27004561 -2.48968509 0.46718836 -0.08311250
O -0.98282088 4.60407671 4.32706861 0.50652313 -0.60504504 -1.47256373
O 11.65304777 4.66071173 4.34097003 1.23083994 -0.53481962 -0.80540134
O -2.38044661 1.62578909 9.98047553 -0.80478091 -0.00708866 0.32477691
O 10.18548310 1.56955274 9.92687267 0.36666719 1.74369660 0.02061594
O -2.33532816 4.50984893 9.94028874 -0.15453899 -2.09756191 0.05505661
O 10.08543330 4.70397127 9.78773962 -1.85530729 0.46456104 -0.92059098
O 5.97322028 6.18516289 1.48873544 -0.42335423 -1.69479556 -0.16090357
O 18.29876850 -0.09915011 1.20471455 -0.16568332 -1.24668395 0.55810554
O 5.97562339 3.13351043 1.53255449 2.32172933 -0.04950752 -1.78780312
O 18.27148055 3.11430764 1.56602745 -0.40073150 -0.36169065 1.89582792
O 4.40775202 6.24477870 7.20699261 0.08160458 1.32739034 -2.05652970
O 16.90025172 -0.02231937 7.19799528 0.27117295 1.07436897 -2.56966470
O 4.42940205 3.04698865 7.10349785 1.13266290 -1.59235171 -1.92930373
O 16.96657870 3.03519446 7.11707695 0.54943330 2.85380947 0.96151134
O 5.06160714 6.20781106 4.34130483 -0.73955585 0.23949728 -2.21254331
O 17.67590293 -0.05420650 4.41686857 -0.04691054 -0.39010512 0.61297292
O 5.26548693 3.15439234 4.35668433 -2.14496547 -0.37495770 0.45733870
O 17.74770301 3.00738255 4.35961487 0.74453775 1.15099054 -0.42060572
O 3.94393637 6.17904937 9.97364860 1.85745066 -0.61601372 0.54787297
O 16.34621453 0.06948967 9.87390454 -0.17902536 -2.85075107 -0.20012167
O 3.75936066 3.14095179 9.89593611 1.13806027 0.08128001 -0.12517694
O 16.25290043 3.12899793 9.89473829 1.39006560 -0.52007869 1.84261816
159
Lattice="24.867830 0.000000 0.000000 0.000000 6.156936 0.000000 -2.774051 0.000000 11.399231" Properties=species:S:1:pos:R:3:force:R:3 Energy=-623.715054 Virial="-51.970871 1.697091 -3.324595 1.697091 -42.709518 -4.082129 -3.324595 -4.082129 -44.679298" pbc="T T T"
Ga 0.04296645 0.01902433 4.51003248 -0.58796308 0.86632840 0.57198672
Ga 12.44898647 6.22471225 4.52210832 -1.27342093 2.24314752 0.31627803
Ga 0.06131540 3.09534946 4.47503838 1.99569376 0.61084693 0.70560654
Ga 12.44810814 3.04484946 4.50045486 -1.19800192 2.12220175 -0.83240503
Ga -1.39789541 6.12110969 10.19735079 0.19831230 0.45547187 0.04605254
Ga 11.05330322 6.08008368 10.18137927 -0.12339380 -0.31321088 -1.11854852
Ga -1.38389839 3.06558258 10.20703812 1.09516739 -0.24990164 -1.24472939
Ga 11.02168798 3.08975198 10.24705206 1.70443018 0.28136052 -0.55657088
Ga 10.97072335 -0.00012853 1.20411141 0.67709559 -0.97541376 -1.80375756
Ga 23.48393553 0.00666381 1.20456929 -0.89129985 1.29422268 1.00050124
Ga 10.98940878 3.07535447 1.17168917 1.22651504 -0.52980384 1.38702711
Ga 23.45887147 3.11746456 1.10705648 -0.35191669 -0.19431860 -2.39185224
Ga 9.63128766 6.17309377 6.84573816 -1.81870165 -0.30752113 1.59096197
Ga 22.11540826 0.03870367 6.84740465 -2.36652696 -0.54473399 -0.17667736
Ga 9.56010923 3.01361894 6.91835136 -1.07374643 -0.28965746 1.18843568
Ga 22.10545639 3.06050193 6.80386852 -0.11919779 0.77525915 -1.27910102
Ga 6.22013767 1.56731104 4.59378266 -1.50377133 -0.26040053 -1.47487024
Ga 18.64622469 1.55801687 4.50199479 -0.84926118 -0.62471950 -1.92568859
Ga 6.23333483 4.59924073 4.46473447 -0.21963551 -1.89974309 0.68283239
Ga 18.65565224 4.57362318 4.56663688 0.80785490 -0.59080194 1.15345867
Ga 4.90954375 1.51318648 10.21538996 -0.16706873 1.33061620 -1.58753974
Ga 17.25646565 1.50540528 10.20832364 2.68874707 2.25094007 0.36606181
Ga 4.82789664 4.60974129 10.26295359 -0.14463075 -0.56637996 1.32993792
Ga 17.29961859 4.57315678 10.25683527 1.27160653 -0.52534581 0.67084626
Ga 4.78910816 1.60556416 1.11986834 -0.98144196 0.76237676 1.13377056
Ga 17.28518386 1.53946445 1.19743576 -0.95882618 -1.35753448 2.24712466
Ga 4.78518743 4.61291112 1.19606586 1.21299274 -1.24340568 -0.82117620
Ga 17.35454350 4.73502686 1.11816330 -1.13765592 0.85536042 2.18403759
Ga 3.46087687 1.55343688 6.82904990 -1.65846328 0.53942265 -0.31534552
Ga 15.92145744 1.55423455 6.84632982 0.64669376 0.79028709 -1.02141973
Ga 3.45674937 4.65566467 6.90254173 0.26771676 -0.51148566 1.48668271
Ga 15.86657991 4.60772700 6.89587744 -0.05599774 -1.55461273 -0.87584170
Ga 1.51604737 1.57576468 1.76818685 -0.45581484 -1.24654357 1.33234239
Ga 13.99496570 1.59998047 1.78577728 1.79038282 -0.37088657 1.54734716
Ga 1.55593744 4.60473663 1.67365957 0.46770100 -0.43951210 0.84344963
Ga 13.95267989 4.60192288 1.77352162 -0.17326026 -0.84601188 -0.24635924
Ga 0.14545851 1.55052273 7.51059096 -0.17454437 -0.58299789 -1.57497585
Ga 12.55229741 1.51109005 7.42447010 -0.38274661 2.31389663 2.36407605
Ga 0.15909731 4.57655771 7.50504209 2.56060190 -1.83113170 -0.83286551
Ga 12.57655601 4.61599833 7.56524869 -0.31987472 -0.43161071 -0.42900840
Ga 9.44839979 1.52896447 3.90633943 -0.06658144 -1.41867524 0.46162951
Ga 21.95456120 1.59267967 3.89346717 2.34918302 0.59529168 0.05254095
Ga 9.49503489 4.62932846 3.95607346 -0.39627073 2.52922460 0.91683171
Ga 21.85381694 4.65082901 3.85926618 1.20471938 -1.07596762 -0.85014438
Ga 8.04846051 1.43692304 9.67695544 1.36970223 -0.50589438 1.88271531
Ga 20.57135979 1.46919872 9.61799583 0.97709654 -1.51959569 -0.88329868
Ga 8.09963765 4.63499194 9.56664577 -0.70351815 -1.96136624 1.75730649
Ga 20.54852204 4.62164864 9.67525861 -0.57636485 -0.47373036 2.02872798
Ga 7.72752824 -0.05128496 1.86163187 -0.57017699 2.28577997 -0.07623607
Ga 20.20543216 0.03725969 1.84041765 -0.81656040 1.63154711 -2.36199085
Ga 7.77860136 3.03988549 1.82395211 0.63531993 1.09944869 1.12222187
Ga 20.20259004 3.09042801 1.74841548 0.22614158 1.26915780 0.01548778
Ga 6.37609533 -0.04392540 7.49726277 0.84006273 0.61528603 -0.56529874
Ga 18.80161618 0.02867770 7.44286898 0.78318853 -0.42626916 0.32929840
Ga 6.32351548 3.02862339 7.45794195 1.03463831 -1.04267987 1.04018144
Ga 18.80504541 3.04412025 7.49748191 0.97208223 -2.36288508 -0.62885140
Ga 3.31108687 0.00810967 3.88142079 -1.11722897 -0.86943002 -0.70130364
Ga 15.66666339 6.17935669 3.87755749 -1.43750714 0.24749808 -0.01366459
Ga 3.25249861 3.06471955 3.91700047 -2.52110658 0.68958824 -1.10516405
Ga 15.73660212 3.09630138 3.87886617 0.12723974 2.03210764 0.54669414
Ga 1.85005139 0.05006296 9.60688932 0.48750388 0.23507809 0.52846647
Ga 14.30685418 6.20960118 9.56970697 0.28213355 0.65855393 0.71747732
Ga 1.96724210 3.12685407 9.62375842 -0.58477958 -0.46908899 -3.29216404
Ga 14.37179993 3.07107585 9.58903087 0.80910487 -0.59374727 0.76290974
O 1.83330398 6.14929948 0.60552687 -1.47122025 -0.20212682 -2.06023212
O 14.28903545 6.15534551 0.64106479 -1.24066017 0.57823231 1.06610105
O 1.89664146 3.00723889 0.56042218 0.16398356 0.40908054 -0.38448138
O 0.57030334 -0.00076430 6.31493441 -0.62973354 -0.78676758 -2.13890815
O 12.87314183 6.19502455 6.25275412 -0.75329387 -0.94071714 -0.23882102
O 0.46754005 3.05614310 6.33012999 -1.46114122 -1.03307506 0.60376910
O 12.89623861 3.11242993 6.27202219 -0.18242980 1.61299106 0.66019195
O 9.11407651 0.01828731 5.10526986 0.57463258 0.94195831 0.38319284
O 21.61153538 -0.09765746 5.03811885 -0.66786146 0.46536204 -2.54198910
O 9.11619000 3.00524929 5.09638301 0.70059541 -0.41117502 0.79204736
O 21.56274519 3.07963759 5.01884647 1.89346459 -0.40214379 0.27560701
O 7.73731077 6.19353865 10.78303423 -1.35830351 0.93182651 -1.97527873
O 20.21589626 6.15525494 10.74476536 -1.34400911 0.69564853 -0.16345203
O 7.81785381 3.10045178 10.76615906 -0.49313704 -0.15782265 -0.12190632
O 20.18169483 3.08044025 10.80909929 -1.57361696 -0.06759051 -0.17913898
O 7.99023106 1.59140708 0.62682559 1.07000745 -1.83347335 -0.36271298
O 20.54522769 1.47606880 0.64491178 0.09678403 -2.01966193 0.83508409
O 8.07909518 4.61926233 0.73820839 1.42919028 -3.32336281 1.80655961
O 20.55257005 4.60021950 0.60106159 2.06828890 -0.59681591 -1.47306253
O 6.65560500 1.57789835 6.40757735 1.74002510 0.69095699 1.05342696
O 19.13224152 1.50848685 6.34135174 0.78324392 0.48238188 0.88880362
O 6.72272132 4.69434122 6.30339429 1.31653904 -1.21010579 -1.47350921
O 19.14563304 4.57265011 6.28960929 0.43950487 0.03271544 0.20270817
O 2.92933002 1.49939185 5.03251041 -0.30425176 0.77369011 -1.96217076
O 15.41287442 1.55819130 5.03419703 0.56019119 -2.26794169 0.29672103
O 3.05566206 4.63161014 5.04772849 -0.47150092 -0.93231734 0.16349242
O 15.46678448 4.60552374 5.13193490 -1.03583139 0.72887291 0.36101879
O 1.58406165 1.54985914 10.77559903 0.59472546 1.50312809 2.09313100
O 14.01580760 1.54378940 10.77975279 0.08115854 0.11212127 -0.80558474
O 1.52612930 4.66858586 10.83647641 1.76214634 -0.57490683 0.50306936
O 13.96965064 4.62084273 10.76616757 -1.01711696 -0.69291032 2.16516368
O 1.38946617 6.13762422 3.24702602 -0.72209795 0.17174962 1.82056214
O 13.79109242 0.05298567 3.20186148 0.72914808 -0.59317393 -0.96238808
O 1.30609641 3.03685707 3.23745271 0.34448553 2.38184168 1.23377036
O 13.80715250 3.06032766 3.06976685 0.63981583 1.67670951 -0.63338117
O -0.03540358 -0.00317497 8.87884383 -0.69660404 0.36366685 -0.44815068
O 12.41565974 0.02333320 8.83521773 -1.29314070 -1.68842465 0.60704350
O 0.00709834 3.01341399 8.92715203 0.13554513 -0.42666735 -0.30198900
O 12.47187098 3.01478640 8.81838687 -1.36464126 -1.13298158 -1.18779173
O 9.69164057 6.12624706 2.48222290 1.68916970 1.54275494 -0.79660267
O 22.02915634 6.17987463 2.50569249 -2.19838563 -1.63158856 -0.30515640
O 9.66662332 3.03659137 2.54025750 0.22479412 0.24300608 -0.78596596
O 22.04667507 2.97095708 2.44649124 0.34614840 1.41917486 -1.18285709
O 8.24908928 0.00777673 8.16061716 0.82571841 -0.95719073 0.31538336
O 20.75916857 6.10442827 8.09817824 -0.17775981 -1.51884864 1.44909404
O 8.24431682 3.08619836 8.18057867 1.08473474 -0.30662885 -0.73750958
O 20.73347460 3.09620498 8.19926202 -0.11444517 -1.70077702 -2.04358724
O 7.56141752 1.61098087 3.19136817 -1.43949372 -1.78973109 0.75062232
O 20.04388883 1.52937017 3.28176164 2.12205234 1.80060745 2.23947436
O 7.61514328 4.62316040 3.19711036 1.01593794 -0.47941533 -0.79212479
O 20.04331759 4.64091032 3.15704991 -1.37520077 0.09848740 -0.30274228
O 6.14110480 1.54028813 8.87968781 0.04610960 0.61657405 -0.33018541
O 18.63954733 1.55589731 8.93851725 3.06594774 1.12526920 -0.33718996
O 6.15650078 4.61894380 8.97267046 -1.65475479 -0.76434918 0.00770847
O 18.67168535 4.56574375 8.96620860 -0.31202887 -1.60663355 -1.34319903
O 3.49074761 1.56375459 2.45030063 1.51720963 -0.51128112 -0.17171958
O 15.87067630 1.63736574 2.45856386 0.26972426 0.15971203 -1.16282581
O 3.35354038 4.56278893 2.46736106 -3.13728207 2.66128487 1.14403744
O 15.89091072 4.63412924 2.47933139 0.17273122 1.24250102 2.43825303
O 2.00931674 1.55688547 8.14387409 -1.04555198 1.13731536 -0.30517681
O 14.48727280 1.54052218 8.17601546 0.12020239 0.73011310 0.33600090
O 2.03552200 4.68041740 8.14230436 0.77941602 0.41912807 -1.01680592
O 14.48347950 4.59639791 8.13658755 -0.60375864 -0.77980268 -0.53097610
O 11.94948282 1.45064907 1.42715846 0.16993088 0.92133508 -1.31336817
O 24.47932034 1.53599076 1.45842651 -0.95993215 -1.56402228 0.39433956
O 12.08479488 4.57029994 1.48904431 0.24935240 0.20196834 0.11632810
O 24.49957242 4.58564168 1.43497283 2.76245369 0.54918409 -1.03275525
O 10.62503851 1.55774695 7.19373409 0.55215391 -0.57887510 -1.31838029
O 23.09061381 1.56187156 7.16834540 -0.63422949 -1.97304744 0.27169424
O 10.65902535 4.61684269 7.13567591 -1.15002242 0.23967966 2.35202599
O 23.09543836 4.57024650 7.24040282 2.41275222 0.11874373 -0.74416501
O -0.91170130 1.48378340 4.17486723 -0.25971197 -1.40355027 -0.36895944
O 11.46864278 1.52799743 4.16983753 0.63040287 -0.32948541 0.35885783
O -0.99246226 4.61089250 4.17867441 -0.60955868 1.12829687 1.82219316
O 11.54619078 4.65765021 4.24286360 -0.36385254 0.24031776 0.84348273
O -2.37444582 1.47916914 9.89716638 -0.77647835 -0.94736100 1.46381013
O 10.08639036 1.54625480 10.01508867 0.12829491 0.53020700 1.23959463
O -2.39975655 4.59204292 9.94281824 1.40419036 1.20897832 3.22843053
O 10.13913528 4.53666768 9.99745498 0.05335855 2.47538706 -2.15648922
O 5.76822636 6.14679870 1.52190924 -1.05902621 0.99509701 -0.82008097
O 18.20089256 -0.00138375 1.43706098 3.31852790 0.38505218 1.12188680
O 5.72885111 3.09744897 1.48317958 -0.36297031 0.46328211 0.08987802
O 18.24468570 3.00271453 1.48936937 -0.88853986 -1.01250105 -0.52577678
O 4.41372374 6.10832826 7.16963038 0.20842225 1.32966582 0.86746992
O 16.85506876 -0.03390443 7.17272569 -3.38008185 1.35015817 -1.46735580
O 4.50405240 3.04440493 7.20414043 1.35453650 -1.30710951 -0.72428588
O 16.90189159 3.06930901 7.10316590 0.32324515 0.30672440 -1.19659532
O 5.22629424 6.13676724 4.25325596 -1.94173628 1.30220779 0.04881940
O 17.70530252 0.00264913 4.26413373 1.72664927 -0.28274508 -1.03989213
O 5.18953537 3.15070035 4.21241575 -1.20296227 0.22685183 -2.00109724
O 17.64490216 3.03525159 4.22170722 -2.08008993 1.36286059 0.65787112
O 3.84077810 6.12660725 9.86813428 0.33175346 -1.42114649 0.19841489
O 16.27531826 0.04198890 9.93690018 -0.80562634 0.34103359 0.44507932
O 3.85824853 3.03163506 9.93896275 -1.95307886 0.68891116 0.84223296
O 16.25888729 3.11408213 9.93429310 -0.39461678 -0.32783769 -1.91012999
159
Lattice="25.011810 0.000000 0.000000 0.000000 6.192583 0.000000 -2.790112 0.000000 11.465230" Properties=species:S:1:pos:R:3:force:R:3 Energy=-623.553488 Virial="-51.666430 -0.921172 -0.324947 -0.921172 -48.434252 -6.378891 -0.324947 -6.378891 -42.011089" pbc="T T T"
Ga 0.04252377 -0.01271658 4.49757490 1.03333386 -2.09035999 -0.29104504
Ga 12.46648177 6.21922208 4.56478391 -0.84861258 0.05748218 0.50711845
Ga 0.00023465 3.13740065 4.50907221 1.30771523 -0.64482874 0.21288347
Ga 12.57255882 3.11537498 4.62729184 1.58539234 0.77744964 1.39261690
Ga -1.30437308 6.23433443 10.24251670 -0.08863581 -1.05526543 -1.09549117
Ga 11.13127992 6.20413985 10.35260354 0.86491357 -1.33728483 0.25581449
Ga -1.37740659 3.07403053 10.24020857 -0.77251271 1.38158887 0.07057140
Ga 11.08504551 3.04815230 10.31116642 0.63446625 -0.32684651 -1.50599451
Ga 11.13541808 0.00942367 1.20170104 -1.16881771 -0.08173211 -0.61571963
Ga 23.58859283 -0.01121559 1.17114007 0.84047520 -1.47211451 0.65263574
Ga 11.09789636 3.09197502 1.20556189 0.00300698 -0.27879399 0.71256378
Ga 23.62370379 3.08062688 1.17149684 -0.63404618 0.07593206 -1.05442992
Ga 9.76356459 6.16291899 6.89270768 1.23752534 0.61120180 -0.28641921
Ga 22.19069626 0.00005529 6.89620961 0.86771012 0.50312455 -0.17207610
Ga 9.71500636 3.11361219 6.92541012 -0.27988056 -1.58259807 0.35044506
Ga 22.25002964 3.08208498 6.93678882 -2.10441992 1.54578577 -0.88455685
Ga 6.24912809 1.54668624 4.55939410 0.61591944 -0.40454680 -0.44814085
Ga 18.71203922 1.55869165 4.62980673 -0.06048619 -0.49131130 1.65327973
Ga 6.29417123 4.70021926 4.53540758 0.28799052 0.44886188 1.91995301
Ga 18.74202258 4.66159138 4.56075758 1.14668337 0.69462430 -1.14056695
Ga 4.88438690 1.52797326 10.26663380 0.17810878 0.89374344 1.42888905
Ga 17.36139646 1.52393473 10.24563953 -0.41155144 0.51192100 0.63722371
Ga 4.88840341 4.62944542 10.29204125 -2.00994924 0.68699242 -1.92110539
Ga 17.37576941 4.62841477 10.25232464 0.05365316 0.59114250 0.65944529
Ga 4.81091062 1.56487022 1.17082697 1.23599543 -1.72315437 -1.54618995
Ga 17.35745358 1.48952729 1.18088961 2.15200698 1.57735421 -1.05348704
Ga 4.82011203 4.64434754 1.22241799 0.59919803 0.58420948 0.92854349
Ga 17.36039519 4.61402422 1.16382383 -1.31921064 0.66035303 0.96117261
Ga 3.48010075 1.57532940 6.91055730 -1.63616339 2.02543966 0.49466788
Ga 15.97856554 1.59769069 6.88528149 -0.82078117 1.54035490 -1.57586450
Ga 3.45916191 4.68303202 6.89281247 -0.35244756 -0.53243401 0.49129853
Ga 15.93857663 4.69740187 6.84392093 -0.10581792 -1.57872916 0.61860719
Ga 1.51022607 1.49237121 1.78458627 -0.95651807 -2.78805449 1.23664187
Ga 14.03309145 1.52769645 1.78271053 -0.87331234 0.77573126 -0.86515164
Ga 1.58566165 4.63617605 1.78363475 -0.88972298 0.35722866 -0.03715682
Ga 14.06180442 4.62671390 1.83914231 1.49134464 0.85341122 0.38352727
Ga 0.20053398 1.53182267 7.54252228 1.71470162 0.62209067 0.12144749
Ga 12.66221938 1.53201436 7.49498714 0.66621031 1.60416552 -0.16362097
Ga 0.19747743 4.62853258 7.48361202 -0.89563030 -1.06718420 0.70252692
Ga 12.66786177 4.70468415 7.55189309 -1.32798596 -1.27378171 0.11652869
Ga 9.56088488 1.52600776 3.95779046 -0.53900464 1.17096196 -1.54820338
Ga 22.08743106 1.59414633 3.89446811 1.14620347 -1.11651929 -1.53745258
Ga 9.50172838 4.66909718 3.93427175 -2.03150138 -0.85018745 -0.22239479
Ga 22.11462538 4.56894041 3.95517341 -0.71752997 -1.06795781 0.56872455
Ga 8.11284032 1.50060493 9.68366902 -0.86932535 0.41219026 -0.04973802
Ga 20.66803036 1.57634221 9.61723104 1.46086951 -0.47614495 1.29737833
Ga 8.21274256 4.63811666 9.63828588 1.83783533 0.45366072 3.94577970
Ga 20.70283679 4.69711454 9.68212281 0.18628125 0.06461968 -1.49733418
Ga 7.83447177 0.04056641 1.72474839 -0.60930657 1.91178845 -0.28687012
Ga 20.34972084 0.00199928 1.81880381 -0.50522816 0.86812652 0.22782577
Ga 7.77508543 3.09066353 1.79770279 1.67079756 0.37032981 -0.16663507
Ga 20.27342590 3.10997216 1.78254426 -0.39625845 0.59824111 -1.45757525
Ga 6.36348078 -0.05060208 7.52823343 1.28513760 1.47705355 1.10638448
Ga 18.85202219 -0.03625108 7.57304745 2.00925956 2.54258385 1.22855084
Ga 6.40752899 3.10012568 7.57503543 -0.95474317 1.12418276 -1.08853694
Ga 18.90848939 3.10222778 7.52456177 0.50981226 2.10686446 0.10076261
Ga 3.31556882 -0.02343275 3.91948991 0.67108031 0.09111562 1.16916914
Ga 15.78915342 6.16414432 3.95668196 0.40991730 0.48708389 0.75017242
Ga 3.29789686 3.06684347 3.91020429 0.53531093 -1.34242622 -0.69862162
Ga 15.79823931 3.06124951 3.95721446 -0.35257375 -1.00278104 0.05291454
Ga 1.92071285 -0.05193334 9.67345094 -0.76631326 -0.65701034 0.33666150
Ga 14.38124253 6.19897988 9.70941628 1.32987325 1.33519713 1.37732793
Ga 1.87385944 3.04579972 9.67397708 1.67870575 0.18582799 -0.80628885
Ga 14.37603574 3.10525991 9.67669470 -1.23246578 0.15337082 1.27497685
O 1.87185761 6.22907802 0.58213404 0.12121319 1.01570219 1.09226888
O 14.44486966 6.20326492 0.61466413 -1.48890720 0.83402999 -2.44977494
O 1.88110344 3.14499970 0.63296781 -0.08910594 -2.65743986 0.59279196
O 14.37670595 3.11036499 0.63413946 -1.53156614 0.91670071 -1.03142406
O 0.52871589 0.03443098 6.36856200 -1.24766429 2.04278999 0.61733841
O 13.00059534 6.24966307 6.28937847 -2.77632397 -1.67616821 -1.59605550
O 0.48744081 3.09045591 6.33382577 0.04581285 -0.22586268 0.64155162
O 12.95641678 3.08379311 6.35506190 -0.54301798 -0.09725957 -0.96705828
O 9.23613490 -0.01108082 5.18038944 0.06940199 3.09301777 2.42871203
O 21.77170784 -0.03989085 5.08470824 0.15110070 -0.45748146 -1.05865980
O 9.21076222 3.13406637 5.21014330 0.05524732 1.68342858 0.90782185
O 21.73664065 3.07270106 5.08264102 1.22898887 -0.96193475 -0.95652583
O 7.88148367 6.18059672 10.82584353 1.95578784 0.49413906 -2.26850665
O 20.39960985 6.19486431 10.83687596 -0.14064105 1.58494635 -0.72770320
O 7.79846994 3.09254988 10.78304341 -0.18586684 -0.68025805 -1.36702692
O 20.31066933 3.04126648 10.85282591 0.29370925 -1.83279028 -0.36479041
O 8.15248591 1.51286095 0.66178226 0.72947130 -0.64387645 -0.20264807
O 20.69020864 1.53349396 0.64958552 0.19877659 1.16439329 0.79375661
O 8.20329286 4.66480654 0.62276999 -1.21587213 -0.46244997 -0.00961044
O 20.61868780 4.67587829 0.57164311 0.39666673 0.82341604 -0.91927628
O 6.68281747 1.54712718 6.38873512 2.43501805 0.79644644 -0.01248641
O 19.34349381 1.60107087 6.39110588 0.92854378 -1.90967562 -0.06434760
O 6.74417145 4.60177989 6.40714570 0.67970224 -0.17505301 -0.12181787
O 19.22969427 4.63313854 6.37581617 -0.57447131 -0.92371083 0.60964627
O 2.99861990 1.52313132 5.08801862 0.66528539 0.08097061 0.58670269
O 2.92223739 4.57439141 5.08265823 1.47059881 0.87566631 0.85236699
O 15.47062379 4.53419880 5.14453836 -0.23733507 0.87662965 -1.49688295
O 1.51355117 1.52318776 10.81364885 0.82073308 -0.01261680 0.72847357
O 14.09411163 1.58306018 10.85635571 -0.68576424 -0.07054281 0.64240190
O 1.59359149 4.66521905 10.84336848 -0.66823999 -1.34158958 2.77640040
O 14.11029638 4.61447487 10.85983099 1.08921923 1.89300205 0.46396507
O 1.34713591 6.22588387 3.23693901 -0.12701072 -2.86116277 -0.94318653
O 13.85891948 -0.00221853 3.22469199 0.77371540 0.37020767 0.23414069
O 1.33349463 3.06209304 3.17446519 -0.10457302 0.21566043 0.69461853
O 13.93076803 3.05982314 3.25750807 0.07569726 -0.17133957 0.74039842
O 0.02628037 -0.02059797 8.97998840 -1.27745601 -0.68059020 0.91133374
O 12.46300827 0.06798283 9.01898021 -1.09569463 -0.50232524 -0.94200894
O -0.05381317 3.06618990 8.98202888 -1.31280315 0.01689569 -1.44070080
O 12.52021547 3.15422026 8.93530441 -0.87502845 0.78340993 -0.84606464
O 9.69189583 6.14069579 2.51713085 -0.03624217 2.10686173 -2.35777654
O 22.27712430 6.15960665 2.53426734 0.91096960 -0.56854769 0.12335096
O 9.76912765 3.10573070 2.43230919 2.04889993 -1.26154666 1.91227005
O 22.15855932 3.12576366 2.47878476 0.89222611 0.20609616 0.05774122
O 8.33312927 0.02942963 8.18162923 0.35748806 1.02906362 -1.29628193
O 20.81669167 6.18281059 8.20265653 1.20261301 -0.50510728 0.58497200
O 8.33300582 3.09692429 8.14608004 -0.44957239 0.15551277 2.54794573
O 20.84402759 3.12886607 8.19684291 -0.46813560 0.20647886 1.92650793
O 7.66864689 1.57922906 3.26989456 1.24642196 -0.98523688 2.19683448
O 20.12656984 1.49082424 3.22691512 0.96364551 0.23256738 0.70620461
O 7.70812277 4.70110115 3.19602142 -0.14217856 -0.95357007 0.45078187
O 20.15907727 4.71265576 3.24526808 0.69998433 1.04658688 0.66484508
O 6.26723897 1.59701804 8.89544562 0.75029302 -0.05685758 -0.02569969
O 18.82906464 1.52933893 8.94939214 0.16379445 -1.48433363 -0.74365775
O 6.27913237 4.64683265 8.96443836 0.43388434 0.25468373 -1.04419616
O 18.78429239 4.63733907 8.91519549 -0.91086402 1.33460204 0.11316531
O 3.42062030 1.59049265 2.51520096 -0.34709255 0.48225611 -1.48318789
O 15.97468610 1.55653309 2.52628401 -1.96435227 -1.92674761 0.69017364
O 3.49182144 4.63200141 2.48408416 -2.39521950 0.06572211 -3.05324371
O 16.00267574 4.66127583 2.45164573 1.15945716 -1.66110898 0.77242635
O 2.06163682 1.55192260 8.22598738 0.72626834 0.58549615 -0.43820861
O 14.58645532 1.46916505 8.17292287 0.60909420 -1.20827119 0.91535978
O 2.11529393 4.66219304 8.25801668 0.20250598 1.50894731 -2.63062778
O 14.59381121 4.62552200 8.20842770 -2.26068683 -1.03665810 1.73819793
O 12.07226208 1.54710142 1.40737224 -1.23360254 -1.09522197 1.87749190
O 24.58113520 1.56326827 1.47709040 0.39690523 -1.22797481 1.10762185
O 12.07858472 4.60166994 1.42935748 1.92678341 1.14833648 1.24595874
O 24.57109980 4.63918683 1.43617232 -1.26379759 0.44002504 -0.64975044
O 10.67734439 1.50781656 7.13582589 -2.48185719 0.67369402 -0.86089507
O 23.23314841 1.55189591 7.21365694 0.89472359 0.98077031 -0.29500201
O 10.70342515 4.65508415 7.24735293 -1.08919499 -1.44309852 -1.75668252
O 23.18744719 4.60045585 7.17849917 0.90881238 -0.59394043 1.17773357
O -1.01629392 1.48991054 4.27336951 -1.38117783 -1.35016730 -1.73078556
O 11.52150583 1.48496904 4.23936607 -2.76780610 -1.69825401 0.15310377
O -1.00951457 4.63385936 4.26142231 0.20822378 -0.90549966 -1.77042261
O 11.51405836 4.63926045 4.28097766 1.18617476 -1.14627921 -0.04159162
O -2.41462624 1.49335931 9.98656405 -0.88946086 -0.44516892 0.30289658
O 10.13808400 1.53352113 10.02689754 -1.20172483 2.12649202 -1.59816261
O -2.35604970 4.61736728 10.03654686 -0.58350113 0.13093950 -1.10435412
O 10.11020016 4.62985406 10.02365703 -0.18308411 -0.56817022 0.61108254
O 5.85497884 6.17893541 1.48459429 -1.29043363 0.29408187 -2.22295610
O 18.34294021 0.02523813 1.48315349 0.66197879 0.04920878 0.19884907
O 5.83191975 3.12431781 1.51633268 0.64301773 0.05068055 -1.17583063
O 18.35788734 3.09908009 1.48087085 0.29245338 -0.68963597 1.61476949
O 4.46279056 6.20090713 7.20814937 -1.48139871 -0.05358223 -0.37202333
O 16.92945564 0.02570324 7.20943196 0.62032175 -0.34168664 0.58220597
O 4.52908886 3.05457945 7.22731816 -1.57818218 -1.11902755 -1.28932711
O 16.98097795 3.13549484 7.18916623 1.00617806 -2.39987098 -1.00773178
O 5.31287370 6.18097983 4.25427351 0.38229636 -0.83634201 0.06181085
O 17.80537941 -0.01462306 4.27208168 0.22253891 -1.22463868 -1.12611328
O 5.24887425 3.11335743 4.25505216 -1.82142518 1.34835938 2.21511349
O 17.73345660 3.15529471 4.26737835 0.30120666 -0.13021077 0.04598700
O 3.87487944 6.17630200 10.06080721 0.50447054 0.71189086 -0.09971284
O 16.36254331 0.00875304 9.98218463 -0.10529454 -2.21006366 0.22580853
O 3.91622185 3.06117340 9.99733339 1.07966121 1.88292917 1.75546617
O 16.31018816 3.06810664 10.00569896 -0.00103702 1.36587103 -0.85895161
159
Lattice="24.856862 0.000000 0.000000 0.000000 6.154220 0.000000 -2.772828 0.000000 11.394203" Properties=species:S:1:pos:R:3:force:R:3 Energy=-623.562123 Virial="-57.229189 -1.447033 0.446866 -1.447033 -46.353165 -3.206401 0.446866 -3.206401 -37.736691" pbc="T T T"
Ga 0.09856872 0.04574885 4.53703688 -1.49233534 -1.34441004 -0.06371824
Ga 12.43364094 6.04672582 4.68098695 -0.23884554 -4.83056822 -1.10995920
Ga 0.12070601 3.13012882 4.47507522 -0.49987139 0.02648504 -0.71382426
Ga 12.52530081 3.04316856 4.52487662 -0.52628747 2.47791993 -0.11972331
Ga -1.38535655 6.11005546 10.25525589 -0.12850426 0.33901791 -1.00052392
Ga 11.12390411 6.06386020 10.20390895 -0.14391810 -2.63747674 -1.01121120
Ga -1.25046887 3.03949252 10.25708684 -0.12100812 1.87543771 0.44208841
Ga 10.99408322 2.98921823 10.34909099 -0.53707551 0.39727645 -0.89474821
Ga 11.10293070 0.08919856 1.04589245 -1.22607057 0.56579550 0.17833186
Ga 23.61643521 0.07815657 1.18570042 0.14190327 -0.42096479 0.21000787
Ga 11.00164846 3.05731621 1.07573120 -0.50996316 1.27602319 2.34457690
Ga 23.41654842 2.99786908 1.07837107 1.01945313 -0.49460483 -1.55585593
Ga 9.55259293 6.22579533 6.81177250 -1.25614266 -1.30828508 -0.33107727
Ga 21.99533978 -0.03212718 6.82864151 1.25902030 0.46021540 -1.10400938
Ga 9.61887080 3.11917528 6.95645561 1.06427889 -0.06345870 -0.67639350
Ga 22.00787865 3.16620054 6.83915906 0.37902289 -0.46657169 0.12820816
Ga 6.08295694 1.53628911 4.53908938 1.07068311 -0.65031911 0.78569131
Ga 18.64728743 1.53212171 4.49500350 -0.17552364 0.10096057 0.19743297
Ga 6.30828046 4.62719901 4.59846362 -1.03651435 0.35924862 0.28547776
Ga 18.65931668 4.58580591 4.60366998 1.18971912 1.20088158 -0.96203937
Ga 5.01333112 1.44019740 10.33442315 0.09188750 0.52943376 -0.11006598
Ga 17.40979165 1.56562145 10.38336399 1.96048303 -0.57247164 -0.91089311
Ga 4.86259232 4.61080132 10.23962038 -0.06466848 -0.53054306 1.53714068
Ga 17.26997985 4.63972821 10.21604152 -0.31714300 -0.25380143 0.93777599
Ga 4.84267655 1.54988438 1.24565171 1.38994913 1.26902288 -0.36433082
Ga 17.22570796 1.52506676 1.23482319 -0.43293277 0.28690038 -0.46697028
Ga 4.82555819 4.56135480 1.24682203 1.67601240 -2.01285798 1.76783164
Ga 17.32611567 4.57702837 1.18213850 -0.32160418 -0.83937799 -2.08536837
Ga 3.49073329 1.56890162 6.92329517 -0.97532780 0.76174284 -0.41424456
Ga 15.95890148 1.54109619 6.87908603 0.23380992 0.55542000 0.37102653
Ga 3.52038766 4.61707791 6.91387808 -1.37547668 -0.14726542 -1.13595183
Ga 15.86218820 4.64571003 6.83208094 -0.39545307 0.42856448 0.77466379
Ga 1.52961867 1.50110633 1.78160299 -1.33293953 1.24065581 1.95639684
Ga 13.92692106 1.56386786 1.89252052 0.16845486 0.04193544 2.57420470
Ga 1.48816854 4.44056351 1.71578942 -1.10878765 -0.69252692 0.68610617
Ga 13.90858930 4.62207106 1.82511280 0.86913490 0.84069233 -0.11815643
Ga 0.15426956 1.47070238 7.52516857 -0.64420124 -0.43649616 1.76462794
Ga 12.68083763 1.50914394 7.47633428 -1.93345219 -0.81072855 -0.52253108
Ga 0.05827705 4.61966820 7.48566981 0.12906663 0.20156942 2.47646283
Ga 12.62141305 4.60811754 7.56079893 0.71460461 -1.51828371 -0.10535698
Ga 9.47875578 1.58338828 3.91028621 -0.38268943 -0.00402727 -0.95483324
Ga 22.01178177 1.50395133 3.92382610 -1.25370787 -1.91094409 -1.18051742
Ga 9.38510714 4.59908275 3.87614767 1.00790556 -1.64943042 2.64242822
Ga 22.06169475 4.67930602 3.75258202 -0.48442565 -1.29530750 -1.34785913
Ga 7.99817518 1.54398089 9.70348203 0.51300957 0.04801023 0.78533913
Ga 20.56312391 1.51018489 9.48830758 -0.95785291 1.61426923 0.20373515
Ga 8.12781305 4.59204548 9.67307982 -2.59222727 0.17878663 1.05009921
Ga 20.46876460 4.56710587 9.61887551 0.38785247 0.32391931 1.86990640
Ga 7.84036613 -0.02809683 1.79355604 1.23931393 -0.74815102 -1.89733190
Ga 20.26722131 0.00259635 1.85884510 -1.79302986 2.03903723 0.65756250
Ga 7.73154070 3.05524767 1.79661160 -1.17818387 -0.03508234 -0.18334233
Ga 20.16766650 2.96138484 1.76951771 -0.31905670 1.25752437 2.33294109
Ga 6.35884306 -0.01287765 7.52931564 0.70092176 2.62936608 -0.09985472
Ga 18.74873039 -0.02317966 7.41065751 -1.76877313 0.78984526 0.34509340
Ga 6.40279544 3.06002630 7.47659068 1.13482881 0.71782964 -0.09244110
Ga 18.82254838 3.09123567 7.37300649 -1.03140038 0.62591667 -1.49661150
Ga 3.24217433 0.05703120 3.92504605 -0.56778441 -1.36552915 1.34102113
Ga 15.85027554 6.22496403 3.92750986 1.23093576 0.60890405 0.54276384
Ga 3.25460348 3.16465265 3.81406106 -0.05898205 1.65839364 -1.14071076
Ga 15.73645140 2.95478490 3.93571428 1.71684477 -0.62258005 -0.04870132
Ga 1.85802412 -0.00136894 9.79120393 0.16224304 -0.71630572 0.54900068
Ga 14.46142751 6.21630848 9.52307177 -0.68520350 0.59717256 1.14167230
Ga 1.96942958 3.18446681 9.46616965 -0.51209577 0.24516785 -0.42497784
Ga 14.40861343 2.93513509 9.58368746 0.68520272 0.72657311 -0.14521547
O 1.95845134 6.09898898 0.54571365 1.05942720 -1.50988442 0.60631412
O 14.30879387 6.17039925 0.50776164 -0.37190905 2.56790849 -0.82099875
O 1.89503602 2.94480278 0.67088251 0.06872982 0.94607246 0.46639931
O 14.22701500 3.08543598 0.69426354 0.40275723 -0.58329488 1.17289070
O 0.56109466 0.08884186 6.28845893 -0.77290575 -0.55250245 -0.34218999
O 12.93914157 6.18149998 6.38235142 -0.78680870 1.76039821 -1.45617639
O 0.47034412 3.01470241 6.39860877 1.72308815 0.56682889 1.90950309
O 9.19347386 -0.04276245 4.96425346 2.08510630 1.34868359 -0.99849497
O 21.52512652 -0.01054921 4.96034020 -0.52034427 1.15861032 -1.15851420
O 9.22249015 3.06960348 5.02968940 -0.08201904 -1.80542112 -0.18190024
O 21.56269814 3.14771515 5.09566892 -0.51135278 0.39871476 1.30881118
O 7.81201718 6.15200331 10.87088004 0.22132429 -1.20743042 -1.83009211
O 20.24954760 6.17730642 10.83176228 1.57070554 0.64187384 0.36971464
O 7.79495531 3.08518741 10.66419313 0.94303823 0.91441764 -1.06126924
O 20.24001835 3.11501581 10.68219996 1.30383685 -1.94297827 0.46153211
O 8.10967602 1.52431024 0.62366142 -1.18906714 -0.45146591 -1.46796065
O 20.44839571 1.60738798 0.64209414 -0.52252029 -1.10020546 0.44763458
O 8.15756462 4.67090214 0.56146271 -1.65903091 -0.10891270 1.38810907
O 20.45226324 4.68754801 0.69888387 0.31789509 1.67860883 -2.07404352
O 6.73226549 1.43224529 6.33282662 -0.92054423 0.77741111 -0.24047756
O 19.16249219 1.51262074 6.24437510 1.32048868 0.38021762 0.62433209
O 6.81948310 4.60648757 6.40825806 -0.00023444 -0.50701459 1.58168518
O 19.14962996 4.71435901 6.25106909 0.47606761 -0.22286225 0.58102015
O 2.92761334 1.54722555 5.08502205 -1.58557229 0.37506203 -1.28082859
O 15.29493829 1.49250101 5.13189559 -1.37115951 -0.68775060 -1.04027856
O 2.97028336 4.58345917 5.06750218 -1.94400147 0.89695844 1.40462568
O 15.39704704 4.62188426 5.08741069 -1.54927098 -0.43756810 -0.06956601
O 1.55306203 1.54027395 10.83521611 0.00905916 0.29753775 -3.02070211
O 13.90800452 1.40694055 10.84071529 -0.37435645 -1.55531623 -0.76817413
O 1.65656183 4.64936308 10.82436894 -0.11083496 -0.75486694 -0.35619092
O 13.99267864 4.65379506 10.66181997 0.89971729 -0.86234293 1.34814184
O 1.32273841 6.15115677 3.25781520 -0.47205310 -1.07935540 0.37836005
O 13.69868108 -0.09625528 3.25012009 1.80707873 -0.51018648 -0.46620005
O 1.29728369 3.07914828 3.31592795 -0.46184784 1.14763915 0.96465940
O 13.76117873 2.98135475 3.13396380 -0.88827840 0.37357377 1.09240577
O -0.00919183 0.08396802 9.00072783 -0.12481944 -1.03258600 -1.34608805
O 12.37924402 -0.02769744 8.93026819 2.18886335 1.42490815 -0.42983524
O -0.06473395 3.14822852 8.80165063 -2.10685216 -0.74431808 -1.13484950
O 12.48818633 3.00244457 8.94021098 -1.31964484 1.03412452 -1.57670090
O 9.52446214 6.17597339 2.50941358 -0.01074826 0.70567478 0.90871354
O 22.04689107 6.29747521 2.49045444 1.94801283 1.04304067 0.52613723
O 9.68783523 3.22499871 2.45599450 0.30390514 1.52909849 -0.38965566
O 22.03204120 2.99439652 2.50884151 2.03697809 2.28087026 1.74575966
O 8.27166220 -0.04648105 8.03694046 -0.84555094 1.57774131 -0.30521767
O 20.70187604 6.13570597 8.09683009 -1.04697773 0.15782931 -0.15590681
O 8.30004403 3.13182420 8.24336075 1.37314195 -2.16510493 -0.65659765
O 20.77848307 3.08962218 8.13227363 -0.95227285 0.64257341 0.71954481
O 7.55493201 1.61870086 3.29132212 -0.57623059 -0.51258536 0.18569664
O 20.05129058 1.62225414 3.25934496 -1.01484198 0.97364827 1.69436513
O 7.59305353 4.63065083 3.17718663 1.71020103 0.88812644 0.65344550
O 19.89089375 4.66634173 3.14951916 -2.39076591 -1.56515740 2.00679912
O 6.15263106 1.55392953 8.85662076 -0.32228173 -0.58969641 -1.66920811
O 18.63877454 1.48437381 8.87936103 -0.04743726 1.36232150 1.43922798
O 6.24084868 4.56754521 8.93791119 2.48068980 -0.46879949 0.25231805
O 18.59861116 4.66895714 9.01869256 -1.14569390 2.59036684 -0.52016265
O 3.49122819 1.54293937 2.45309293 1.65945714 1.60168765 -1.39876351
O 15.95780570 1.56424348 2.51726864 0.65258270 0.35295176 -0.70824223
O 3.43853611 4.63244637 2.44444518 1.36546295 -0.86475023 -1.17286882
O 15.93571656 4.63289497 2.47103188 -0.09908840 -1.22965644 -1.95355209
O 2.14659848 1.54897830 8.15176334 -1.94018465 -0.69686409 -0.68944568
O 14.60759174 1.54889793 8.07950175 -0.25101587 0.93125824 1.54840071
O 2.09295794 4.66843647 8.21165405 0.48458720 -1.82824139 -0.96001166
O 14.50554572 4.74573073 8.19400416 0.32779958 0.31079010 0.00146948
O 12.04531957 1.54957254 1.60423259 1.25686587 1.45188123 0.44988743
O 24.44872375 1.49731300 1.43112461 2.56140336 -1.15323213 1.21909804
O 12.15842854 4.58953190 1.38695224 -0.32522152 -0.79639479 1.16400170
O 24.39894213 4.58888991 1.49958575 0.34848019 0.30994182 -1.85861961
O 10.63021728 1.56159370 7.19516761 -0.08493422 0.92517886 1.25992695
O 23.12978931 1.44070108 7.13527775 0.56231189 -2.27986726 -0.32381148
O 10.77690697 4.62402984 7.19013819 -1.56244612 -0.77563047 0.93779697
O 23.02358749 4.68702404 7.14656480 -0.37139637 -1.02878661 -1.16718487
O -0.99497097 1.54460011 4.20886069 0.10989869 -0.59432005 0.27896447
O 11.33523859 1.58411966 4.18003094 0.49715962 -0.77591568 -0.63256194
O -1.08235739 4.72492821 4.12106730 -0.64729182 -0.67275424 0.16494462
O 11.49138311 4.66659267 4.25222952 -0.56425953 -2.10518720 0.37730442
O -2.33523641 1.46076895 9.87786254 -0.14778601 0.52354254 -1.35945748
O 10.17157873 1.44940757 9.98160259 0.67629791 -1.46904369 -0.61463349
O -2.31828022 4.63260081 10.03973751 0.40511449 0.59390747 1.09071195
O 10.08013887 4.56129725 9.88664597 0.82349556 -0.90418791 0.82106497
O 5.79361892 6.23102239 1.46067689 0.92605364 -2.05027065 -1.16611583
O 18.08622231 -0.06668625 1.51393621 0.99751737 0.37171426 -2.30412105
O 5.78868000 3.07534079 1.51074251 0.59756160 -0.64582547 -0.91418580
O 18.25717626 3.13444104 1.32388905 0.11648378 1.36734155 -0.69923679
O 4.57866544 6.23461258 7.11618939 -0.99589364 -0.22140116 0.90507434
O 16.97921577 -0.11835087 7.19544688 0.50681315 0.32405489 2.72487911
O 4.37986212 3.01594864 7.25766576 -1.12910657 -0.39355983 0.45713938
O 16.85317899 3.06948719 7.15686969 0.65066224 -0.42230689 -1.79587531
O 5.23997330 6.16092190 4.21544349 0.41002300 -0.31441706 -1.70732508
O 17.70483258 -0.00306410 4.16189030 0.96818251 -0.69199938 -0.80381767
O 5.23652973 3.08838114 4.20578266 0.45543602 0.47413083 0.42191957
O 17.65323334 3.24188773 4.17300934 -0.03376782 -0.65850138 -0.18649126
O 3.98190454 6.07860054 9.86888024 1.02394806 0.42485399 -2.56047423
O 16.22878790 0.03183027 9.97149819 -0.63275153 0.38218849 1.65378097
O 3.81182768 3.08539969 9.86313822 -0.26178069 0.87826627 0.43475604
O 16.31492508 3.08815565 10.06328805 0.65436055 0.94864459 1.55554287
159
Lattice="24.743969 0.000000 0.000000 0.000000 6.126269 0.000000 -2.760234 0.000000 11.342453" Properties=species:S:1:pos:R:3:force:R:3 Energy=-623.490844 Virial="-52.553593 0.023533 1.466952 0.023533 -45.136933 -5.756318 1.466952 -5.756318 -43.232097" pbc="T T T"
Ga 0.06365810 -0.03254710 4.48146125 -0.65272471 -0.51977258 0.12672021
Ga 12.39307546 6.20819976 4.45135368 0.13794928 -0.20417889 -0.01731693
Ga 0.05915751 3.10734547 4.41620077 -0.82537090 -1.54139045 -0.08809607
Ga 12.46100296 3.05618248 4.51063566 -0.54217483 0.98020326 1.97548997
Ga -1.34053602 6.07312740 10.13605798 -0.73346106 1.85878813 1.17921117
Ga 10.96311563 6.19140166 10.23082777 0.94030640 -0.96100325 0.64181018
Ga -1.32403157 3.04882973 10.13097741 -0.05213190 -0.84593054 -1.09652374
Ga 11.01223102 3.06662666 10.14759990 -1.24236014 0.20002552 1.04156017
Ga 10.99402787 -0.08397570 1.22741393 -1.45853878 -0.86140742 1.90807954
Ga 23.23998278 0.00723550 1.16783598 -0.63079497 1.39752979 0.64696082
Ga 11.00075520 3.04731803 1.13935230 -0.05846848 -0.07584425 -0.50524952
Ga 23.38998529 3.04990703 1.18432080 0.45240114 0.42445060 -0.80793943
Ga 9.60504558 6.04857936 6.85408865 -0.41265133 -0.33760927 0.47288578
Ga 21.92465630 -0.01797627 6.87195724 2.02172466 -1.37794273 0.94553799
Ga 9.66910170 3.07495578 6.86347281 -0.90354044 -1.35909059 1.84772823
Ga 21.95783167 3.11523308 6.87035087 1.01404085 1.51217207 -0.96359788
Ga 6.27733529 1.53647672 4.49662628 -0.44704444 0.73365542 2.57735666
Ga 18.54633338 1.48638167 4.49392932 0.16506465 0.61028961 -1.89026855
Ga 6.16037018 4.63712769 4.48817384 -0.63940807 -0.12508443 -0.10269541
Ga 18.62592060 4.55680375 4.54134000 0.09799963 -2.36527912 0.24576333
Ga 4.79400544 1.52996349 10.28216280 -0.06849414 0.82440013 1.11495246
Ga 17.23928727 1.50831204 10.27001344 -0.87605793 0.10349560 0.61163874
Ga 4.80186007 4.64265360 10.18326634 1.70872260 -2.24403595 -0.24523644
Ga 17.19432398 4.56406213 10.14987805 -0.77031723 -1.78143077 -0.50581409
Ga 4.85877250 1.43717328 1.17166781 0.86726507 0.39992420 0.51715382
Ga 17.20507914 1.50177074 1.22620003 -0.16463875 0.64804497 1.42713318
Ga 4.82542550 4.58694657 1.24925437 1.73880479 2.44831571 -0.04431510
Ga 17.16320564 4.60458613 1.14163535 0.80200585 -1.70570961 -2.71898369
Ga 3.36445908 1.46785970 6.81901178 0.51357389 2.06780383 0.81846093
Ga 15.84492447 1.51844624 6.86158785 0.38710122 1.41824074 0.38366638
Ga 3.42615060 4.62743943 6.81068040 0.24056127 0.83747494 1.33090345
Ga 15.78147470 4.58538427 6.80504343 -0.02982474 -1.38356222 -0.78383487
Ga 1.51460828 1.57865118 1.86073308 0.59029519 -1.31962292 0.17026360
Ga 13.88580660 1.53720997 1.80345538 -0.41212036 -0.43423978 -0.76053014
Ga 1.56790069 4.54667919 1.81700043 1.41176349 1.55310928 -1.19751063
Ga 13.95850111 4.66453105 1.78171834 0.42301595 -0.94212280 -0.56746668
Ga 0.23892228 1.48328767 7.39831988 -2.02968295 -1.51378092 -1.64415337
Ga 12.56541168 1.52261571 7.43194365 -1.88579563 -0.56648639 -0.23204607
Ga 0.16884899 4.57019912 7.43022618 -1.16425221 0.56585889 -2.08089999
Ga 12.55313578 4.60958521 7.35773184 -0.10726585 -1.18420450 -0.84191763
Ga 9.46260193 1.50708678 3.81804580 -0.31826125 -0.36300132 1.20336640
Ga 21.85991676 1.53383707 3.76871146 -0.08121964 -0.37702386 -1.88108407
Ga 9.47253148 4.60374725 3.92771602 -0.98232057 1.09640375 0.40131328
Ga 21.84361694 4.54469577 3.92482833 0.23877976 1.96457530 0.33137139
Ga 8.19878751 1.54834172 9.54885990 1.81304473 -0.68500556 2.79974587
Ga 20.46824448 1.51989588 9.53964300 -0.76579459 0.34397690 1.85508628
Ga 8.13525906 4.58112178 9.59497124 -0.82559705 -1.22375439 0.67795814
Ga 20.47042572 4.63618540 9.56642320 -1.00512575 0.76934545 -1.83597899
Ga 7.68452379 0.10621949 1.81920143 0.22437637 -1.95908399 -0.96764620
Ga 20.09230286 -0.07908797 1.77998378 0.30747315 1.12231748 1.17588283
Ga 7.71370147 3.08628566 1.83816845 -0.43619098 0.51128256 -1.36740628
Ga 20.10719948 3.06904952 1.83881192 -0.03937151 -0.22437154 0.18627816
Ga 6.29181274 0.02863792 7.41582547 -0.97478505 -1.69781828 -1.31665672
Ga 18.68735084 -0.00296697 7.41109115 -2.05212308 -1.21916662 0.06556059
Ga 6.28557776 3.14536537 7.47336134 0.56791545 1.36208012 3.51991656
Ga 18.69001909 3.00206776 7.40298924 1.77089151 0.42490865 -1.83535990
Ga 3.20251201 0.02013184 3.90716755 -1.56783300 -1.73095689 -1.14170395
Ga 15.73871970 6.10706535 3.85074249 -1.34099419 -0.23303293 -0.54160151
Ga 3.27114439 3.07523520 3.91911642 0.39818151 1.06546954 -0.59508138
Ga 15.63936954 3.08400472 3.88901986 0.07087090 -0.43777163 -1.41217385
Ga 1.93044859 0.03264419 9.49521345 0.68590352 0.44190715 -1.94238422
Ga 14.27627927 6.08801085 9.61300499 1.64986911 0.17623596 1.85078074
Ga 1.85359772 3.03839495 9.61896199 0.70416873 0.31234983 -0.45195523
Ga 14.24485604 3.05488287 9.57772516 -0.91420861 -0.80153054 -0.63721611
O 1.92423519 6.12687777 0.52402844 -0.54819609 -0.03466249 -0.55576528
O 14.30017707 6.07615978 0.55345314 1.52722448 1.94322126 1.69588746
O 1.91350694 2.99425254 0.56045047 0.05886735 -0.01442682 -0.47120903
O 14.22857491 3.12019737 0.60548809 1.39500864 -2.75796808 1.77557108
O 0.47790706 -0.01663021 6.29180421 -0.96122707 -1.25241022 0.06933281
O 12.82123331 6.09677939 6.27678883 -0.94184406 -1.27004308 -0.12637497
O 0.41818396 3.04984816 6.27656542 -0.67858781 -1.46966540 1.27630874
O 12.83425277 3.04653367 6.19490444 -1.91176314 0.10895043 0.07639496
O 9.08306444 0.06673655 5.09399505 -0.24665515 1.52286806 -0.19596994
O 21.46110553 0.02715681 5.02821736 0.10430103 -0.74447328 -1.47059510
O 9.16906021 3.09367937 5.05225638 -1.04662271 -1.31213550 -0.85315290
O 7.76461658 6.03880303 10.68445490 -0.17030278 0.65116130 0.60048295
O 20.16449876 6.13293126 10.72657585 0.38004773 -1.09572846 0.25554180
O 7.82905528 3.04558584 10.77605772 0.34894467 0.45539169 1.38914488
O 20.00369717 3.03228819 10.73797755 0.98378443 0.33908949 -0.98029104
O 8.05445793 1.58286551 0.60281278 0.50054404 0.33492175 0.95610265
O 20.43902825 1.51472837 0.63105604 -0.89055696 1.30913166 1.15724166
O 8.04659891 4.60858976 0.61178352 1.00305537 -0.37474904 -1.77885741
O 20.41656774 4.57943743 0.60981447 1.31438030 1.91687390 -1.89399541
O 6.62872185 1.56994000 6.22006281 -0.20560392 0.93906273 -0.50396486
O 19.05119802 1.52175788 6.22263303 1.01172604 -1.53071259 1.67203310
O 6.65288245 4.59902793 6.33919396 -0.19118736 0.74219890 0.15232431
O 19.05492939 4.54191925 6.33021298 -1.90419045 -0.88683151 1.76706126
O 2.96746068 1.49712899 5.10570886 -0.85674409 -1.98797167 0.39458923
O 15.29843709 1.59042411 5.05143595 1.34654549 -0.67982015 -1.58028506
O 2.93940751 4.64717931 5.09970484 1.28699199 0.34333384 1.44994185
O 15.33093965 4.55131618 5.03584852 -0.71928378 0.10925911 1.18350188
O 1.49414883 1.59271488 10.69415910 0.54234364 1.61523450 -1.31909502
O 13.92692844 1.51443966 10.64906185 -0.37102618 0.48201366 -0.24840117
O 1.62140658 4.58136459 10.67457626 1.42338347 -0.35940989 -1.38802546
O 13.87440637 4.60832024 10.71466709 -1.35234252 -1.39149950 0.20352852
O 1.41792181 6.14546442 3.26159385 -0.12400332 0.40050139 -0.21353926
O 13.80069966 0.03877073 3.24939734 1.45139118 -0.77719049 -0.17079867
O 1.37627214 3.06108918 3.18962360 -0.01940549 1.18247665 1.11243888
O 13.80897834 3.04126440 3.26198487 -0.86903009 0.26812749 0.67332887
O -0.07206105 0.03629292 8.88422256 -1.28784134 -0.14241782 -1.93405282
O 12.44964899 -0.09328508 8.90194371 0.61030762 -1.65022367 0.52532128
O 0.00916611 3.08459812 8.91420515 1.70407677 0.34353140 0.85155126
O 12.36677613 3.04641378 8.83689964 1.01690524 -0.07427881 0.55036390
O 9.63614869 6.06669904 2.53904841 0.40417859 1.31130959 -0.66615435
O 21.95887430 6.09878864 2.52626015 0.76274548 0.85224544 0.39128858
O 9.59200493 3.05972460 2.50644565 -0.60923200 -1.89539010 -1.64520981
O 22.02646457 3.11897112 2.48520939 -0.72235228 1.07017079 -0.72246433
O 8.34439417 -0.03349265 8.18065016 1.34956277 -2.05706733 0.91250846
O 20.58511524 6.08313940 8.17863422 0.38170299 -2.17579588 -0.42540087
O 8.18435398 3.05065076 8.14205884 -1.07337131 1.94707929 0.40347678
O 20.54589408 3.03714448 8.12581882 0.21912289 -1.03520781 -1.82182027
O 7.60513074 1.54932630 3.22850038 0.50656347 2.13244132 -1.11799842
O 19.99329339 1.56735070 3.18786861 0.83083631 -0.51131104 0.67102618
O 7.57585596 4.51173775 3.16095001 -0.75656297 -1.01178704 -0.86458303
O 19.93402468 4.59056483 3.25423126 -0.30542823 0.53500045 0.30235311
O 6.14208807 1.47808323 8.86414829 1.62113002 1.77714021 0.59812117
O 18.53373102 1.48968313 8.83373996 0.72164542 -0.65127869 -0.97177264
O 6.19252227 4.64725352 8.79320351 1.18057458 2.96128728 -0.04806650
O 18.61508711 4.66832116 8.88459792 0.35025005 -0.88449071 -0.93151216
O 3.46092873 1.55963729 2.42565903 0.09885993 1.47011487 0.22592188
O 15.89346148 1.51907477 2.48248503 0.82230012 -1.02160217 -0.73883385
O 3.48320767 4.53624691 2.52835861 0.84001951 -0.32497315 -1.64926797
O 15.72476183 4.63219041 2.51048378 -0.36793985 0.28243429 1.59527915
O 2.07735034 1.50512749 8.14417647 0.45422765 0.76853465 0.55411329
O 14.43667196 1.48145576 8.08688663 0.80161904 0.40086623 -0.60345300
O 2.11068639 4.59254614 8.13278826 -0.23409448 1.01176608 -0.47763566
O 14.39970313 4.60649039 8.16562075 -0.98024527 2.14028028 -0.10770650
O 12.00218736 1.52770326 1.41680996 -1.33188685 0.27937346 0.30620471
O 24.35389987 1.53520469 1.43818885 -0.35909971 0.84878561 -2.89191405
O 11.88798241 4.58561866 1.48834304 2.10329064 0.12948432 -0.64989893
O 24.32287283 4.62642277 1.43238644 -1.55329715 -1.68870564 1.92395390
O 10.53592425 1.52455870 7.12572583 -0.81964911 1.82776851 -0.15345306
O 22.99631101 1.45357520 7.08309903 0.25977942 0.98086660 0.17584406
O 10.55122926 4.62742682 7.17191053 -0.28508240 1.47691538 2.05006679
O 22.88351352 4.55467781 7.15758220 0.20094715 -0.72451863 -2.33601532
O -0.96412977 1.54693609 4.14357873 -1.31588135 0.89793883 -0.13091391
O 11.39792284 1.51199307 4.25447708 -2.18055605 1.00815918 -0.49151808
O -0.95242570 4.61437357 4.21695567 -1.19498550 1.25994931 0.91733617
O 11.33143998 4.62625407 4.16134305 0.29255043 1.03135373 -0.72266873
O -2.36407376 1.55391249 9.88104513 -0.16107587 0.08006425 0.46030879
O 10.01198561 1.49741204 9.89332348 2.24023509 -1.46644269 1.67314530
O -2.32873269 4.65110176 9.86872407 0.71231009 0.00506412 -1.09481336
O 10.05791426 4.51549225 9.86472958 0.39733805 -1.29544085 1.36385319
O 5.84504988 6.12786043 1.51116673 0.81674090 -0.11179397 0.20439314
O 18.14146158 -0.01658330 1.49380129 -0.36871686 1.05495458 -1.35590402
O 5.76315761 2.99069951 1.41873165 0.02584080 -2.16254669 0.57872268
O 18.18578262 3.06140330 1.48890057 0.21563550 2.65919312 -2.12098578
O 4.35942992 6.15812831 7.13535409 -1.26353800 0.04778079 -0.64606782
O 16.74485386 -0.00441559 7.11851911 -0.83114185 -2.10739365 0.19456371
O 4.33380120 3.02544687 7.13647172 1.29582147 0.65136851 1.23772520
O 16.79995582 3.08890025 7.08848788 -0.55326576 -0.15529379 1.87274689
O 5.17474840 6.07769527 4.24015131 2.10983420 0.28911851 0.53401367
O 17.51607560 -0.03828835 4.19165150 -1.73434433 1.23669327 0.26247545
O 5.24681370 3.07549854 4.19548383 -0.83229031 -0.78547676 0.09050248
O 17.57038936 3.08617133 4.19040154 0.73664305 0.67754347 -0.24158693
O 3.83811354 6.17034944 9.91468452 0.36817092 -0.79790740 -0.25854606
O 16.20709496 0.03737766 9.79966418 1.24592169 -1.96102554 1.15196959
O 3.84089192 3.10193539 9.94350785 1.15495926 0.62071904 0.20355081
O 16.15884771 3.07330543 9.89937707 -2.93386072 0.32856503 -0.10281190
159
Lattice="24.987334 0.000000 0.000000 0.000000 6.186523 0.000000 -2.787382 0.000000 11.454010" Properties=species:S:1:pos:R:3:force:R:3 Energy=-623.077864 Virial="-54.590856 -1.273546 0.799233 -1.273546 -46.479488 -2.265166 0.799233 -2.265166 -43.215922" pbc="T T T"
Ga -0.02331174 -0.07119422 4.65537321 0.51214584 -2.11901829 -0.97958590
Ga 12.59521508 6.13655594 4.45814137 -0.73748160 -2.03759444 0.53732026
Ga 0.07199481 3.12892233 4.58795744 -0.77875580 0.78338992 -2.98900817
Ga 12.48755476 3.06834621 4.51311676 0.39484798 1.29212508 -0.30946568
Ga -1.49247901 6.17010499 10.24697616 -2.12070466 0.47569557 -0.99578906
Ga 11.01677019 6.32598839 10.29007777 0.09633241 1.34476193 -0.49722204
Ga -1.38996497 3.09909043 10.32201406 0.46094233 -0.71676087 1.20866995
Ga 11.10431054 3.20245618 10.31223501 0.91472438 -0.86711993 -0.98461633
Ga 11.13901641 -0.02013951 1.14308874 0.17227900 -1.02776116 -0.48485843
Ga 23.51846732 -0.06256861 1.16375335 1.66668796 1.14633590 -0.14831369
Ga 11.13463706 3.14566462 1.13028644 1.06890821 -3.42262036 0.28600269
Ga 23.59609536 3.09549717 1.15003357 -0.26044904 -0.86976154 0.10527596
Ga 9.72722838 6.20542324 6.89156173 1.14263706 -1.21358142 -0.26946342
Ga 22.22088560 0.03168741 6.92916036 0.13396470 -0.43252760 -1.38365433
Ga 9.81416641 3.15269526 6.87343746 -1.44656085 1.73991748 -0.35299581
Ga 22.29485982 3.08540532 6.85394948 -1.69724187 -0.39432555 -0.13749121
Ga 6.28204313 1.56255831 4.53990607 -1.18275784 0.80373975 1.15940434
Ga 18.68062060 1.58308148 4.46505956 1.19224290 1.19441274 0.71858621
Ga 6.29977710 4.57394100 4.50576646 -1.48793720 -0.13007939 0.94721559
Ga 18.71238476 4.73806047 4.55731126 0.42459832 -1.70585542 -2.04967793
Ga 4.87437236 1.59498997 10.28970122 0.79808439 -3.21449139 2.81069994
Ga 17.43668343 1.54763156 10.27186394 -1.13184977 -1.30365042 1.56326826
Ga 4.77666034 4.59394918 10.29592104 -0.13754277 -0.84886300 -0.82753123
Ga 17.36610019 4.62112287 10.35693690 -0.68763536 0.44504453 1.59148708
Ga 4.92318208 1.50414878 1.25002527 -1.20292445 1.72741264 -0.51330097
Ga 17.35451027 1.52152810 1.21693260 -0.42493444 0.89513985 -0.18081760
Ga 4.84975594 4.68648505 1.14675480 1.62239860 0.41314868 1.37245543
Ga 17.34950186 4.55747766 1.13558987 0.60618720 -3.59911413 -1.49530741
Ga 3.51124352 1.54351760 6.82713499 -2.96069038 -1.39821710 -1.44904566
Ga 15.96059606 1.50640065 6.88401000 -1.27692732 -0.42273311 0.40942420
Ga 3.42977103 4.65206342 6.85532248 2.46687442 0.23963033 1.54107488
Ga 15.95416873 4.59610223 6.89170470 -0.05090390 -0.94655461 -0.44542002
Ga 1.46360361 1.49755216 1.78471612 0.79989560 0.83389915 -0.24261727
Ga 14.02548047 1.60349935 1.83717464 -0.91327151 0.16576317 -0.26674812
Ga 1.46269141 4.62104300 1.71269756 0.96664116 -0.81800487 0.22549868
Ga 14.03872877 4.62567912 1.73805409 0.29239612 0.73220485 -0.54801297
Ga 0.13775509 1.61893239 7.46961912 1.22105659 -1.86810669 -0.11283498
Ga 12.69718916 1.53723519 7.50132701 -0.13325966 2.14191872 -0.16794789
Ga 0.08476926 4.67604800 7.56641038 -0.90714609 -0.39481791 -0.81940363
Ga 12.70933693 4.62697608 7.58774796 -2.24026469 -0.29340468 1.51164926
Ga 9.55654151 1.57182165 3.96672030 1.04478415 -2.20017286 -0.68479307
Ga 21.98206124 1.50198109 3.93964874 0.99922122 0.60249087 0.08839481
Ga 9.64265155 4.64254132 3.99142820 -0.72946173 0.14812250 -1.26355384
Ga 22.17748824 4.73399648 3.90207469 0.01299052 1.58757145 0.58639284
Ga 8.12127706 1.53727754 9.60122546 -1.15606551 -0.18707415 1.35529659
Ga 20.57694879 1.54983468 9.70668802 -0.68927202 0.45347392 -1.78855718
Ga 8.17272797 4.64808544 9.55597481 -0.04424856 0.11263385 0.79833172
Ga 20.69790825 4.64826318 9.60142192 1.32085450 1.21681700 0.37699713
Ga 7.81985445 0.06099732 1.84177236 -2.46682057 -1.69348670 -0.38486434
Ga 20.32402542 0.05277643 1.72252732 0.66159232 1.24293540 2.23734462
Ga 7.73959765 3.00583215 1.86653417 -1.60771621 -0.55025092 -0.08316416
Ga 20.29304134 3.17142257 1.76182942 0.64923197 0.63017660 0.81824119
Ga 6.42802262 -0.02006526 7.55777700 0.51017108 -2.06697183 1.62373935
Ga 18.99128734 0.10329377 7.39275223 -0.66621866 0.89310480 -0.42639838
Ga 6.35370760 3.18323081 7.52015972 1.19306026 -1.18083264 -0.69769731
Ga 18.95391023 3.09543629 7.59920640 2.77985774 -2.15105500 0.94213497
Ga 3.31774232 0.00981970 3.93129973 1.68567474 -0.29592120 0.62638785
Ga 15.89265309 6.20404781 3.95874608 -2.32677704 0.31798675 -0.06859109
Ga 3.26569416 3.02179659 3.90972665 -0.10383493 1.95051013 -0.77489641
Ga 15.80903453 3.11825982 3.97486322 -1.29137538 0.42913148 0.38253413
Ga 1.91813038 0.03311295 9.63939707 0.67424486 -0.56379359 -0.11173790
Ga 14.44511567 6.29259567 9.72080750 0.44970775 0.05020075 0.08369729
Ga 1.90576476 3.05390059 9.79544082 -0.36843415 0.26474189 1.17470594
Ga 14.37287992 3.14538923 9.63067779 -1.50359012 -0.81432463 0.03939037
O 1.88836183 6.19753158 0.75977530 0.97956109 -0.03422461 -1.60393537
O 14.49321437 6.07985310 0.63793536 1.02284653 1.77785510 0.47196772
O 1.80803465 2.91943341 0.57608432 1.51047952 -1.25163905 -0.14613644
O 14.42690830 3.08062212 0.68212665 1.54706660 1.33045422 1.24062072
O 0.54569083 -0.03603000 6.33225815 0.82507389 0.53580345 0.01612434
O 12.93946033 6.22662682 6.33389485 1.31450685 0.70638714 0.97859167
O 0.44439745 3.07489197 6.39207390 -2.11732824 0.05743777 0.42655831
O 12.84427041 3.04520743 6.28834627 0.11729964 -1.39474675 0.00035657
O 9.29531969 -0.04965086 5.11847475 1.00630198 1.48643678 2.10343495
O 21.64447056 0.10180740 5.01603230 -0.19797924 -1.93702384 0.41056953
O 9.26669783 3.18173813 5.10779180 -2.42495417 -0.82625315 0.02888292
O 21.62801066 2.98307853 5.08709482 -0.26581548 0.64650404 -0.36917134
O 7.89706788 6.12169358 10.79580036 1.51565834 1.05330811 1.67686732
O 20.41402999 6.17157139 10.73193849 -2.40887735 0.37546909 0.40221102
O 7.80466375 3.07124882 10.86322311 -0.53869031 1.06075875 0.89994189
O 20.34298289 3.01163395 10.81518773 0.40578605 1.44541002 0.87754345
O 8.07749295 1.47929823 0.51389778 -0.38262649 -1.47146600 0.86026047
O 20.71436883 1.53385738 0.56760687 -1.96805760 -1.08816912 0.83874522
O 8.25818703 4.67046957 0.56842742 -2.46354035 -0.18810375 -1.46912715
O 20.65389691 4.66320804 0.64921468 0.57680463 0.27252551 -1.74426963
O 6.76292984 1.49670292 6.29021536 0.04771164 1.25199900 0.40340777
O 19.22844559 1.58277231 6.38601535 -1.82253145 2.32829743 -1.45427080
O 6.71416927 4.65944245 6.38920014 0.42984408 -0.65527046 -3.23994003
O 19.25131685 4.56475032 6.30800947 -0.75947813 0.74356415 2.05425292
O 2.95831073 1.58502986 5.10340651 -0.51193428 1.07862817 1.98197666
O 15.53026394 1.52254281 5.08450468 -0.48028569 -1.25731883 -0.95217014
O 2.98619835 4.68571996 5.04393210 1.73962762 0.01795589 -1.33764882
O 15.37838096 4.60269184 5.19100167 -0.74740532 0.92688469 -1.08280526
O 1.63116148 1.61266882 10.85409400 -0.49966470 -0.25612472 -2.15432187
O 14.08430375 1.54957981 10.84397375 -0.51497338 1.42378242 -0.68467599
O 14.03518684 4.63833419 10.82602871 0.90974880 -1.56366603 -0.05202801
O 1.35573719 6.23084887 3.18085887 0.99198359 -1.02583421 -0.32524609
O 13.90136366 -0.00673623 3.18629621 1.78545227 -0.17483685 0.86105918
O 1.42581200 3.05086351 3.27646729 -1.96078651 0.35749576 -0.19802995
O 13.76476820 3.05833894 3.15069731 -0.20636094 1.80789934 0.39813066
O -0.01253966 -0.10207867 8.89000227 -0.05183482 -0.42414830 1.96531178
O 12.48783548 0.10381667 9.03311126 -0.26618980 0.74408498 -0.67081960
O 0.02774986 3.19336914 9.04192107 -1.19297714 -0.39199563 -1.04547442
O 12.51223555 3.15684196 9.00037817 -2.17670799 1.21915621 -0.74793432
O 9.72490738 6.18040755 2.49822173 -1.84591524 -0.83028758 -0.91711517
O 22.21783853 6.19801098 2.44878129 -0.21295463 0.73354492 1.16257919
O 9.70987915 3.09928372 2.49929389 0.77010918 2.28759816 -0.16400299
O 22.09012674 3.08711497 2.47098988 2.83677282 0.69414848 -0.80702714
O 8.28057189 0.15035832 8.26288685 -0.57395229 -0.31203251 -1.41757474
O 20.72762556 6.15921324 8.10085457 1.23435945 1.45900010 2.63716010
O 8.28093571 3.15479207 8.11289306 -2.23602094 0.09931742 -2.21898426
O 20.78331041 3.16057419 8.28496858 1.44498868 -1.23178350 0.38871329
O 7.62637670 1.57410895 3.27703391 -0.40119961 2.03073044 0.74947027
O 20.12536480 1.58809006 3.32765986 -0.46312745 -1.36283726 -0.72810899
O 7.61213961 4.54119181 3.23991893 1.40040813 -0.80955936 0.85012882
O 20.21158907 4.60409544 3.23611493 -0.44642324 0.07014003 -0.71221244
O 6.18029499 1.56268186 8.95641551 3.25937505 1.42989357 -0.09765167
O 18.69288085 1.59665779 9.01038529 -0.56572964 0.56387078 -2.09883975
O 6.20599077 4.58983037 8.99022271 1.74526021 -0.37831143 2.14329720
O 18.82298531 4.73339072 8.93852412 1.43746533 0.09017735 -0.66883051
O 3.50927860 1.58035063 2.57482010 0.46585894 -1.37962732 -0.10350333
O 15.94393445 1.56971332 2.53748775 0.06334937 0.95395689 -0.07917490
O 3.50247258 4.64038015 2.46524189 -1.58059953 -0.97092167 0.09360420
O 15.90738488 4.61224097 2.50728528 2.01078751 -0.54583901 0.84739985
O 2.14112907 1.52720193 8.22366032 -1.81588754 0.53256573 -0.29544574
O 14.57888159 1.64900030 8.21758826 -0.38679559 1.84793954 2.81531265
O 2.08549302 4.52602790 8.22147149 0.34700330 0.58898627 0.10204739
O 14.55835756 4.62691377 8.15942123 0.19003999 -1.97992813 -0.36007522
O 12.06145252 1.59178875 1.48333757 0.88982259 0.57395440 0.86728344
O 24.64317572 1.57375606 1.46873875 -0.88447316 -1.00161655 -0.09736205
O 12.07670565 4.54822514 1.51379165 -0.17029940 1.51943488 -2.53346318
O 24.67494530 4.62119440 1.35467653 -1.62902842 -0.34374829 -0.18309981
O 10.70705273 1.55279783 7.09898853 -0.57241331 0.93061363 -1.02986337
O 23.11177032 1.58686869 7.22769462 0.04880848 0.63705579 0.62778975
O 10.66538381 4.67806824 7.25357170 0.54980059 -0.35064166 1.06804347
O 23.26530362 4.63686721 7.24082819 0.14797114 -0.51608002 -1.30944500
O -0.99935381 1.60357540 4.23994314 1.12911817 2.38468624 -0.58652457
O 11.46538577 1.56135724 4.35722206 0.51283241 -0.74101845 0.46161864
O -0.97103610 4.61920871 4.20022357 2.12348355 -0.40209132 -1.31239825
O 11.51041271 4.63167589 4.14931458 1.93394263 -0.23084545 2.55601339
O -2.44302788 1.60762239 9.96156225 0.38130233 -0.67588139 -0.41194399
O 10.10929785 1.46282467 10.05664274 2.14158904 -0.96308458 1.06186210
O -2.36805664 4.61143050 9.97400640 -2.30090516 0.26789149 -0.12399969
O 10.18241843 4.64413382 10.01621817 1.18465964 0.80632731 0.73711279
O 5.81538002 6.29988213 1.47064272 -0.60664598 0.23574180 -2.39128212
O 18.46005286 0.06693809 1.45234162 0.33728077 0.78883305 0.50808761
O 5.75353771 3.11364997 1.39168806 0.86367800 1.12353349 0.52642363
O 18.29776135 3.00966593 1.50542611 0.35881532 0.45401147 -0.29411199
O 4.55172852 6.07183342 7.20174948 -0.82356309 2.12078849 -0.54606932
O 17.04535011 0.09950311 7.24047942 -1.09230346 -0.46668309 0.24787910
O 4.50497439 3.02282311 7.19045010 1.01414281 1.27559705 0.48318208
O 16.96646295 3.08175204 7.23161061 0.71020303 -2.28382928 -0.45045694
O 5.37371414 6.26839164 4.16581549 0.03051620 -1.54131916 2.07270092
O 17.67005173 -0.01892391 4.21494438 -1.10122165 0.91873217 -0.19391973
O 5.26754440 3.19401022 4.17192388 -0.22259775 0.14775559 0.71464569
O 17.76792833 3.03924802 4.35182140 1.36975338 -0.05514524 -1.37707438
O 3.78664897 6.14150638 10.02407026 -1.04647211 -1.90565972 -1.25637198
O 16.40012702 -0.03013036 10.05721721 0.38564830 0.98411599 -0.32484579
O 3.81108591 3.06816635 9.99118196 -0.51819800 -0.23270284 -0.43358694
O 16.33848663 3.11284573 9.95482832 1.20864498 -0.27233470 -0.00303757
159
Lattice="25.119083 0.000000 0.000000 0.000000 6.219142 0.000000 -2.802079 0.000000 11.514403" Properties=species:S:1:pos:R:3:force:R:3 Energy=-623.995710 Virial="-57.706776 -0.019041 -2.617540 -0.019041 -48.696184 -4.057290 -2.617540 -4.057290 -46.900667" pbc="T T T"
Ga 0.07425846 -0.00046320 4.50794244 0.09286436 0.40806380 0.38563991
Ga 12.58851357 6.29971730 4.56883586 0.37913595 1.61066438 1.24861733
Ga -0.04859945 3.19476157 4.50525507 -1.88481604 -1.57154786 2.15386595
Ga 12.52617529 3.11497941 4.64654551 2.18607717 -0.25537164 -0.62087712
Ga -1.39293361 6.16048460 10.27167815 1.41170586 1.40167925 -1.53531147
Ga 11.20481002 6.28056724 10.31472256 0.18281189 -1.66891247 -0.54736083
Ga -1.37488525 3.07548738 10.39577735 0.05658196 0.62155322 1.84045540
Ga 11.11061347 3.08378137 10.24613702 1.49222217 -0.75697116 2.22705224
Ga 11.12164770 0.05565246 1.21401595 -1.16112737 0.45530780 2.93258241
Ga 23.68324605 -0.04704575 1.05546616 0.64825929 1.04570490 2.06988753
Ga 11.29668397 3.04344949 1.17514130 -0.08302104 -1.96436909 0.58866175
Ga 23.63417308 3.12527440 1.05325022 -0.92643588 0.60308343 -0.17698560
Ga 9.79714601 6.23837909 6.82883567 2.45698340 -1.05235411 1.07604553
Ga 22.33410219 -0.04439964 6.85508748 -1.49935486 1.84481915 -1.01280442
Ga 9.77792866 3.19933451 6.96755260 0.83311143 2.69003285 0.70761269
Ga 22.30094129 3.13515564 6.90930209 0.36285179 -0.56706050 -0.11370778
Ga 6.32777605 1.55946405 4.50092412 -0.54412325 -0.88046805 1.43296799
Ga 18.87749386 1.43759195 4.62501739 0.05174633 -2.65747851 0.17087206
Ga 6.35875134 4.68958342 4.56100449 1.99268448 -0.27729044 -0.40479878
Ga 18.80897562 4.53888502 4.67189980 0.66125833 0.03177017 -0.72737724
Ga 4.93090141 1.48073025 10.29293032 -2.43857940 0.25534119 0.92694023
Ga 17.46682894 1.53417890 10.37690767 -0.07795564 1.10915687 0.18476224
Ga 4.92378509 4.65547650 10.36486525 -1.65685358 0.21662279 -2.01879733
Ga 17.38748151 4.65861550 10.33804639 0.09912630 1.08290589 0.19345383
Ga 4.82845377 1.49909216 1.14963541 -1.24562867 0.08050364 0.60256517
Ga 17.34054827 1.42996695 1.22737240 1.88414599 1.11118689 0.14487405
Ga 4.76527775 4.83512679 1.23573833 1.19450290 -1.38086150 0.98339238
Ga 17.40087021 4.71243575 1.19650068 -0.05798888 -1.57487683 1.77329124
Ga 3.53466105 1.57795918 7.01235688 1.69234795 -0.43100388 0.01872842
Ga 16.04420766 1.57396130 6.95010883 -0.25098535 1.02569861 -2.76667832
Ga 3.46847076 4.55186525 6.87277593 -0.19699629 1.81619012 1.02674959
Ga 16.01185824 4.67751582 7.00634992 -1.15170125 -1.81588006 1.25140336
Ga 1.45140334 1.60149720 1.90152537 -0.58367378 2.34679327 0.33712312
Ga 14.21323234 1.55202320 1.76720208 0.01457047 0.10496921 1.51178434
Ga 1.48208906 4.76761749 1.86283285 0.22814934 -1.99398454 0.35514684
Ga 14.18089429 4.78431520 1.73732385 0.39588360 -1.12687982 -1.40971969
Ga 0.09394619 1.59370376 7.49151711 -1.25091835 -0.08225652 0.45961734
Ga 12.65318182 1.55524229 7.50620123 0.10154998 2.80137607 -0.56427345
Ga 0.29517777 4.71544322 7.60405331 0.95742670 0.58572878 -0.90060075
Ga 12.76444293 4.58402320 7.64268035 -3.90528509 -0.41209122 -0.66284726
Ga 9.69293804 1.59031341 3.87128991 0.38557274 -2.18733359 -2.34540084
Ga 22.21409985 1.53208342 3.92701944 -2.10823043 -0.36089227 0.14524760
Ga 9.54063987 4.74331185 3.85032359 2.47237127 0.78873604 -0.97015107
Ga 22.26447001 4.69284477 3.88761877 2.12907577 0.91474984 0.70620694
Ga 8.21113213 1.52224033 9.72854761 -0.75038008 -1.54944824 -0.13822956
Ga 20.74798341 1.62201416 9.74684150 0.33749873 0.32450253 -0.74093580
Ga 8.28538827 4.54046357 9.76654675 1.09636568 -1.33640734 -0.18735310
Ga 20.71135563 4.67176272 9.70591109 0.06817138 0.16768729 -1.37379595
Ga 7.84488811 0.08528136 1.86886160 1.15710098 -0.99726748 -0.06618205
Ga 20.37116126 0.02271099 1.82073837 0.25747311 0.22656336 0.92658331
Ga 7.81407549 3.04960581 1.77952087 1.02540409 -0.18719133 -0.18683683
Ga 20.48933672 3.09728300 1.67802827 0.55349088 0.22951590 1.16238492
Ga 6.44692656 -0.08854073 7.57257243 0.64385456 -1.02202162 -1.81695996
Ga 18.92974675 0.03950696 7.43325574 0.49278112 -0.38709306 -2.78629451
Ga 6.35690358 3.15592310 7.52405397 -0.98299003 -1.11444974 2.01935969
Ga 19.02772272 3.16147348 7.57699485 -0.37087005 0.38804529 0.19274575
Ga 3.32944004 0.04027427 3.93727926 -0.17907871 -0.22910510 -1.41092603
Ga 15.79159645 6.24105256 3.93007808 -1.95262467 -0.00426945 0.63247009
Ga 3.31189354 3.17493332 4.01576613 -1.45512228 1.53979113 -0.03418488
Ga 15.97027999 3.11410348 3.99524357 0.32664808 0.08776449 -2.28844914
Ga 1.96337202 0.02371806 9.78281161 -0.18425845 -0.70431698 2.29947482
Ga 14.45827665 6.17943597 9.67134099 0.22595151 0.53596680 0.00075479
Ga 1.97649039 3.05888628 9.74740470 -0.04859860 -1.30609344 -0.08017645
Ga 14.47631278 2.95541330 9.66210782 1.47498113 -1.47065665 0.02948891
O 1.80579786 6.29493665 0.70003548 -0.56525589 1.98003560 -1.64911940
O 14.58450000 6.11068109 0.55780159 1.47109215 -0.16163281 0.81923881
O 2.03033671 3.10146678 0.69756225 -1.36234598 0.06528107 0.80482169
O 14.46759880 2.99409310 0.53336605 -0.23296523 -0.15053692 0.83114695
O 0.45464927 0.02455544 6.35935833 -0.14958093 -0.01720805 -0.14147242
O 13.07460734 6.15150864 6.39622922 1.24612336 -2.20687653 1.75707425
O 0.49946096 3.04496407 6.33657359 -2.47780452 0.37300409 -0.06790294
O 13.04587316 3.16191596 6.37855801 1.50440355 0.13275191 -1.01938600
O 9.28585975 -0.00811939 5.20844063 -0.17426651 -0.45756796 0.69381019
O 21.81341648 -0.00094726 5.15218160 -0.86612560 2.60086307 -1.87572145
O 9.25098947 3.16146563 5.10174548 -0.38927109 -0.43282201 -0.06159953
O 21.75967386 3.06797186 5.13928223 1.98117329 -0.90578193 -0.43621507
O 8.02829731 6.07490153 10.80895188 -0.48341030 1.94703270 -0.98956630
O 20.41637149 6.14778275 10.88235119 0.32759207 0.79604458 -0.51901745
O 7.91419243 3.05280331 10.89198344 0.15905502 0.87756764 -1.66826150
O 20.42156784 3.02681791 10.87011051 -1.22706173 -1.04363527 -0.70896298
O 8.15974670 1.49985836 0.69086431 1.04500382 2.48791181 0.17133802
O 20.68755297 1.49274628 0.56014878 -0.91488619 1.53608841 0.26844727
O 8.18929932 4.63938021 0.47543998 0.54670023 -1.39447173 0.00267392
O 20.78451862 4.57324584 0.66069215 -0.56647866 1.27889117 1.14048936
O 6.79113304 1.60368341 6.34990299 0.55256017 0.63006687 -0.48276129
O 19.38927904 1.46796964 6.29103237 0.44873803 0.50677018 -0.95835337
O 6.81398414 4.56163505 6.45244150 0.64389502 1.76406266 1.25956142
O 19.30568106 4.76119103 6.39555805 -0.81794369 0.19267483 -0.00078285
O 2.98887015 1.53695293 5.12215336 -1.24832300 -1.66600909 -1.36482396
O 15.40879748 1.52537036 5.20509023 -1.29580269 0.52035473 0.77759670
O 3.03196712 4.64431721 5.13937380 0.62390937 -0.20115617 0.36145214
O 15.57563414 4.63225889 5.04502025 0.78272233 0.97994813 -1.73884387
O 1.56054343 1.71499334 10.90187759 -0.49332333 -0.60609105 -0.61083511
O 14.15151921 1.54824108 10.89815879 0.36729126 0.76055455 0.28469870
O 1.52792552 4.60257231 10.79662399 -0.07314061 0.83146051 0.19804538
O 14.19334736 4.62980261 10.89064237 -0.20007359 -0.23747533 0.69772034
O 1.42009591 6.19917191 3.31715082 0.28508061 -0.64615189 -2.10147173
O 13.95359939 0.04067426 3.19351833 -2.42471358 -2.74125914 0.99379378
O 1.42214781 3.07679268 3.34623138 -1.09275455 -1.63826971 -0.69713290
O -0.10813304 0.08620838 8.95547046 -0.47206739 -1.16405321 0.55067925
O 12.57646268 0.10728053 8.96468147 1.11445200 0.92137772 -1.46474023
O 0.00538887 3.09234305 9.00110979 0.50587318 0.39076736 -2.39286943
O 12.41036302 3.16801945 9.03233825 -0.04028168 0.01707396 2.43822964
O 9.79766472 6.24922861 2.47151759 -0.26901322 -0.06076873 -1.92220032
O 22.29017763 6.33076342 2.48537339 0.55211311 0.41637415 -0.46080180
O 9.69976110 3.17027911 2.54226232 -1.28949687 -0.78369433 -3.20020100
O 22.32823727 3.16652211 2.27522350 -1.56574222 -0.84218846 -1.95890579
O 8.38950655 -0.01201539 8.23412997 1.57514380 -1.71664888 -0.09252078
O 20.89738313 6.24060472 8.32217463 -0.49958851 0.12515126 -2.14058465
O 8.35139568 3.14047775 8.30644633 -0.75310700 -0.09316589 0.58122731
O 20.82103782 3.15182966 8.27734989 -0.38040724 0.70932294 0.26637155
O 7.61806320 1.64667854 3.26556459 0.25564829 0.61376467 0.70481964
O 20.13178614 1.48547218 3.22521829 -1.33292593 -1.93124146 0.45159177
O 7.80704381 4.66266291 3.27408997 -1.33918073 -1.14929346 -0.94492542
O 20.05461305 4.65048437 3.34294917 0.60268106 1.53595185 0.52784058
O 6.31417858 1.55692401 8.95280374 -2.22648469 1.19274590 -1.68690289
O 18.74240063 1.57038537 9.06161086 2.82890134 0.31155334 -0.18221509
O 6.22855186 4.55168016 9.00331126 0.90236735 0.30649193 0.67497870
O 18.81842061 4.58401195 8.96385413 -0.73279785 0.32023945 -3.20674290
O 3.50149415 1.50592810 2.55371272 0.84700054 1.60225830 -0.07172692
O 16.02960791 1.38313601 2.56104105 -0.89312854 1.57034575 0.30657442
O 3.46851414 4.54399982 2.47988951 -0.43337313 1.99440959 2.13317244
O 15.96770873 4.81457475 2.48072086 3.13857612 0.21979765 0.00331200
O 2.07754698 1.61009491 8.32620339 -0.66854448 0.05870860 1.37136265
O 14.61109980 1.52190846 8.33907987 -0.36536500 -3.51726778 2.13608527
O 2.04626103 4.66642884 8.34705063 1.22559854 -1.42225793 -1.38463287
O 14.64845487 4.59486785 8.35899547 2.20502084 1.25732625 -0.20062858
O 12.22293250 1.64074433 1.51400330 0.74462425 -0.75834174 1.08247415
O 24.71909991 1.55756791 1.42241210 0.02003166 -0.77541476 0.33380083
O 12.20409728 4.62440506 1.42016642 -0.50276897 -0.16376124 -1.25008100
O 24.72519338 4.58355081 1.52403507 1.75628110 1.23483459 1.79209788
O 10.79065673 1.51329115 7.22020413 -0.00744618 -1.26791188 0.37163973
O 23.28115448 1.50109933 7.28710917 0.56593034 1.67611000 -0.38242776
O 10.70731546 4.77275757 7.26265511 1.15338073 -1.59616286 2.67014470
O 23.35299829 4.57007845 7.26277111 -2.09096045 2.76645307 -1.47723741
O -0.94387126 1.69827292 4.34132402 -0.48808031 1.15545075 1.14497006
O 11.65007577 1.61023473 4.25437340 1.99157755 -2.44866812 1.80439022
O -0.94282833 4.73480494 4.32809227 -0.05125793 0.55287344 -0.93831547
O 11.49057825 4.58815670 4.23897854 -0.57713933 -1.33757838 0.80788642
O -2.40977687 1.51916777 10.02142160 0.77645244 0.25672063 1.47968636
O 10.09350503 1.62747183 10.02235130 1.05876752 0.57224803 1.53635186
O -2.29008645 4.68006615 10.06669662 0.86113414 -1.85596013 -0.77795497
O 10.04585157 4.77801069 10.00452307 -1.32229276 0.08370632 0.38536810
O 5.85112599 6.13784334 1.55404831 -1.37460300 -0.30161596 1.71776038
O 18.45544096 -0.06373381 1.49142042 0.87489818 0.21010770 0.22939423
O 5.97592642 3.10474319 1.47986024 0.17239280 -1.16743752 2.62424467
O 18.36273525 3.08679919 1.37416657 -0.97259520 -0.61946400 -1.46968937
O 4.48568694 6.28817911 7.21345292 0.85545362 -1.16391260 -2.10118258
O 17.15079745 0.08513870 7.20383103 1.31266625 -0.21741079 -0.44710552
O 4.45428418 3.13251945 7.30447460 0.19574692 -0.04144373 -1.27776609
O 17.10850151 3.07275387 7.17599799 -1.89380135 -1.68227897 1.78985012
O 5.24007474 6.15861213 4.29944413 0.01567426 1.23328681 2.15336322
O 17.81947341 -0.06599731 4.20875431 -0.37797787 -1.50690170 0.20615570
O 5.29066013 2.98631937 4.31533254 0.64764744 1.87296294 -3.58819710
O 17.88330392 3.11621724 4.23091502 -2.74992599 1.56713883 0.95050191
O 3.88285781 6.24623432 10.13859033 -1.45621009 -0.34741107 -1.25952050
O 16.60825688 0.00225923 10.10163431 -2.09660286 0.89609607 0.24580611
O 3.87452315 2.99939765 10.03117755 -1.00589036 0.85026064 -1.64168999
O 16.44438625 3.10781932 9.98298987 1.46806853 0.55965576 1.64916223
159
Lattice="24.909044 0.000000 0.000000 0.000000 6.167139 0.000000 -2.778649 0.000000 11.418123" Properties=species:S:1:pos:R:3:force:R:3 Energy=-622.459214 Virial="-58.803166 0.010930 -0.867661 0.010930 -40.171887 -4.459713 -0.867661 -4.459713 -39.301107" pbc="T T T"
Ga 0.01706656 0.06152294 4.58021240 -2.22722848 -0.20603806 -2.13973214
Ga 12.48886347 6.11561857 4.60004400 -1.41250899 -0.14663965 -0.06440564
Ga 0.07725763 3.02475463 4.53637366 0.00825504 -1.00382479 0.46340310
Ga 12.52488220 3.06105361 4.42704569 1.34301015 0.85245062 -1.21519509
Ga -1.39569014 6.19537803 10.26277187 0.75044208 -1.21302618 0.09949788
Ga 11.06189335 6.09495278 10.19297365 1.13140992 2.04151137 1.28464049
Ga -1.36108007 3.02038479 10.19303152 1.20262744 -1.77538435 -1.49414703
Ga 11.10733511 3.09619517 10.29250427 -0.10164192 -1.44283496 0.05142114
Ga 11.01796696 0.04279497 1.14663717 0.93620028 0.60164083 -1.33168858
Ga 23.40167119 0.00131779 1.15614209 -0.90756312 0.09971281 -0.08070760
Ga 11.06085367 3.10320333 1.18375965 0.11346001 1.19242355 1.60791281
Ga 23.53556122 3.14933929 1.16555075 -0.21831163 2.02394886 -1.70131809
Ga 9.63361879 6.18099909 6.91624015 1.71693362 -2.65418595 0.59434269
Ga 22.18600635 -0.05991418 6.88887410 1.61165373 0.77182593 -1.79565950
Ga 9.68669034 3.08315341 6.83968945 -0.35549512 -1.05535406 -0.73712327
Ga 22.12302343 3.11779269 6.85596746 -1.56312948 -0.83676551 -0.13565423
Ga 6.16952144 1.56932647 4.52834371 0.39925649 0.41192335 -0.72114836
Ga 18.69750169 1.59497266 4.53292569 -1.52064429 2.65501009 -1.33728656
Ga 6.21666571 4.57116972 4.50560711 0.73797354 -0.26863674 1.16272897
Ga 18.65600968 4.57860830 4.58325868 1.27442420 -0.67140129 1.34378829
Ga 4.92373461 1.52485871 10.24617036 -2.24694597 1.06024298 0.06474261
Ga 17.28421972 1.49388453 10.20978517 -2.36044804 -0.84675236 0.48241626
Ga 4.79653057 4.61988317 10.32844565 -0.98755192 0.87119764 0.25707578
Ga 17.30096682 4.52728394 10.27839345 -0.92157514 0.08106737 -0.13503499
Ga 4.82020743 1.49067619 1.16102809 -0.66589254 1.59540326 0.10152902
Ga 17.33865050 1.59254928 1.15470061 -1.50381920 -1.84538351 0.23398155
Ga 4.81753610 4.59311613 1.15038987 0.37086370 -1.07401418 -1.60633958
Ga 17.30338262 4.66596031 1.13672573 0.90225556 -2.00177233 0.60052468
Ga 3.41180973 1.57957802 6.81642541 0.88374653 0.57882041 0.81318082
Ga 15.95873117 1.57860027 6.85664159 0.13010044 -0.77870170 -0.01107075
Ga 3.46986145 4.58587470 6.79675528 -0.55671393 -0.30741676 1.43036339
Ga 15.89885867 4.68560312 6.81961372 2.17542318 -0.20762972 1.68520444
Ga 1.56106803 1.52401839 1.81566442 -0.12572506 1.45659819 -1.04050958
Ga 13.93307015 1.52776333 1.74177518 -0.19687554 -1.05085230 0.54238736
Ga 1.54150417 4.61710102 1.77377843 0.72842358 -0.25492842 -1.34095220
Ga 14.03781601 4.54569929 1.76261668 0.54524135 1.09058238 -1.29373126
Ga 0.05444022 1.53023722 7.42366430 -1.64253356 0.70003067 -1.01703981
Ga 12.72989910 1.58076270 7.58613634 -0.03124695 1.19009896 -0.61847327
Ga 0.12066067 4.59841085 7.57434731 -1.41790483 0.25581381 3.32029430
Ga 12.61534930 4.66248552 7.56256427 -1.06033177 -0.41661131 0.78609505
Ga 9.63714585 1.50288801 3.93370814 0.34081190 -0.34968816 -0.47825650
Ga 21.97604716 1.54240771 3.84816755 -1.45049428 -0.28724876 0.54781727
Ga 9.55424302 4.69342107 3.85033021 0.05704304 1.73830753 0.28731192
Ga 21.93848093 4.67463523 3.94451530 0.05849169 1.02430900 0.48678411
Ga 8.22487195 1.49679821 9.63278954 -0.10025443 1.29636947 -0.54577042
Ga 20.63829135 1.53689525 9.64563800 -1.10592471 -0.07409700 0.71607010
Ga 8.14474022 4.62887428 9.66244806 -0.54633046 0.67445496 0.39855601
Ga 20.61953791 4.58878956 9.58565479 0.61842309 0.07382961 0.76646931
Ga 7.67460368 0.01744021 1.75511702 0.11716816 -0.02716442 1.20774371
Ga 20.21901577 0.07658033 1.73788945 -2.33592808 -0.01993636 0.43112888
Ga 7.73257467 3.06421726 1.84052669 1.51504147 -0.96497459 -0.57548992
Ga 20.24593061 3.08956898 1.72223922 2.03399615 1.47291915 1.06889831
Ga 6.34987204 -0.01808793 7.51602945 -1.22784112 0.30677248 2.20302706
Ga 18.79813837 0.05690257 7.46367614 -0.21953551 0.04012474 2.43993458
Ga 6.35542857 3.02765988 7.44781275 -0.48223325 -0.98533456 -0.51028823
Ga 18.79558654 3.22241153 7.41467778 -1.26151678 0.95316498 -1.00455649
Ga 3.31372958 0.00914336 3.92669499 -0.23348570 0.32685642 1.98994166
Ga 15.69769167 6.14098674 3.85979826 1.08621986 1.83739755 -0.61834683
Ga 3.34937665 3.10618104 3.91914532 0.11359021 -1.88944440 0.95285297
Ga 15.73449506 3.10442120 3.92233376 0.25953910 0.99813122 -1.13773105
Ga 1.84002095 0.01675133 9.64738765 -0.69791656 -0.23422166 0.32802657
Ga 14.40370721 6.21226189 9.65907986 0.78888974 2.04242361 0.81824815
Ga 1.87184198 3.11737528 9.60614496 1.23737984 -0.21583549 1.06882410
Ga 14.27340016 3.12575888 9.58199035 0.22837777 -0.91798497 1.03080303
O 1.92470487 6.08837323 0.59975322 0.21461830 1.43547905 -2.46372632
O 14.28355968 6.11021840 0.58316318 -1.37406439 -0.39827864 1.21278808
O 1.82513711 3.12422261 0.62309058 -0.42030848 0.75342393 -0.93221274
O 14.37419767 3.08008622 0.66080710 0.00848504 -0.07378399 -2.09383317
O 0.48321632 0.03480355 6.30602166 -1.07485504 -2.04637660 -0.43329614
O 12.92574072 6.26463841 6.33412980 -0.92274631 -1.36086704 -3.23083715
O 0.42168441 3.05845196 6.36717558 -0.05135424 2.05509426 0.04948012
O 13.00607652 3.12539862 6.40128954 -1.64886256 -1.43677471 -0.60756407
O 9.19781028 0.00739959 5.05829024 -1.48806507 -0.97337994 -0.30012118
O 21.70981781 0.03661955 5.14937349 1.08666068 -0.66853696 1.54802563
O 9.12238220 3.03320718 5.10501362 -0.61613699 1.08117762 -1.96848360
O 21.62342908 2.98315972 5.15667702 0.33240898 1.76356357 -0.04307695
O 7.87986250 6.19672544 10.79287900 2.01728718 0.51667237 -0.34540669
O 20.30199850 6.16336001 10.78580951 -1.35875535 1.04267162 1.14114958
O 7.84931788 3.10917071 10.78619639 -0.29984182 -3.41025540 -0.26139494
O 20.29820839 3.02803581 10.82828496 -1.13407045 -0.28024099 0.29280724
O 8.14666035 1.51308342 0.55448465 2.07723061 -0.74574919 -1.18508006
O 20.61880958 1.59869830 0.61018760 4.56158848 0.86811862 0.14965693
O 8.18490692 4.59484099 0.59138213 -0.02706387 -0.69612589 -0.40569035
O 20.60673267 4.58129141 0.55549944 -2.54241852 -1.42877990 -0.12872213
O 6.75040084 1.53186339 6.32166092 -1.93720610 -0.25861839 -0.27378053
O 19.20202808 1.62931671 6.35019533 1.43191142 -0.92068492 0.59913561
O 6.69335971 4.63642595 6.38492195 -0.26670989 -1.09448225 -0.03751437
O 19.18156695 4.60984117 6.33485390 -0.36579531 0.07796869 -0.06701439
O 2.98767470 1.53913396 5.09000736 -1.11693237 -0.04181578 0.08774667
O 15.40136750 1.53736064 5.13843219 -0.47846204 0.52058536 -0.34507077
O 3.00741783 4.64107017 5.11528333 0.06376133 -0.75523637 -0.09634454
O 15.45666319 4.59561001 5.03703115 -0.47816321 -0.18687770 -0.86974230
O 1.63754811 1.44043190 10.68793910 0.90380992 -0.54658225 0.48206856
O 14.00256616 1.50931197 10.82182881 1.74965070 1.34096448 -0.71465736
O 1.55600531 4.62589408 10.81118793 2.87670634 -0.14975929 -1.53178160
O 14.00940349 4.61597617 10.78071242 0.56367606 0.02769966 2.29565621
O 1.38928042 6.09163316 3.19354460 -0.12764863 0.57215862 -0.60638843
O 13.80586046 0.05474710 3.23022476 1.05287221 0.29199909 -1.74771095
O 1.33392730 3.05311659 3.20647489 -1.12288456 -1.67984280 -1.11674244
O 13.86201094 3.06067478 3.29724996 -2.64838426 1.02188002 1.62235354
O -0.01625806 -0.03167341 8.93070543 0.92048323 1.59852698 0.07188211
O 12.45503947 -0.05817812 8.92555271 0.11634860 0.02985123 -0.93142822
O -0.00878626 3.12278707 9.01772484 -0.10260130 -0.61325364 1.50578366
O 12.48553534 2.98665908 8.96953578 -0.31209865 1.41464282 1.34888324
O 9.72482250 6.16036743 2.46956875 -2.94478676 -1.06787490 0.58577617
O 22.10096191 6.15517882 2.43381507 -0.01005811 -0.59758140 0.12043148
O 9.69706510 3.07407879 2.48802459 -1.03946788 -1.09085456 -0.05799087
O 22.13435482 3.07240479 2.46308747 -0.17239553 -0.89641451 0.20856283
O 8.30531024 0.03557265 8.12474021 1.30881002 0.04466176 -1.33946393
O 20.76695680 6.16690339 8.13046336 -1.03115925 -0.83630676 -1.32978134
O 8.29297896 3.09173648 8.24911407 0.13153241 0.41648522 -1.24040401
O 20.77793822 3.07619208 8.17843459 -1.27394987 1.00488052 -0.26977764
O 7.56118095 1.53531755 3.21880708 0.65752924 0.04929483 -0.27160494
O 20.12229554 1.55447824 3.17798681 0.51336694 -1.97840775 -0.57952588
O 7.54566588 4.69285440 3.17061025 0.53383242 0.54792633 0.03478424
O 20.11431468 4.58701749 3.17919798 -2.05878799 1.27797123 1.50234495
O 6.24638193 1.65338513 8.91458738 0.45263129 0.98727031 0.32164921
O 18.60586607 1.52334128 8.91889704 1.43456240 -1.03656241 1.61341679
O 6.18266512 4.59074152 9.01207645 -1.30634765 1.01860427 -0.73815476
O 18.66285139 4.63776782 8.93382033 -0.80528765 0.20133856 1.18879089
O 3.40553849 1.47767299 2.58020660 -0.44877326 0.47215918 1.55427675
O 15.89705280 1.56565835 2.52399031 0.08941438 0.09293323 -0.29942925
O 3.41526166 4.64001699 2.47600570 -1.42353915 0.66663352 1.08531934
O 15.83490783 4.63143400 2.54569733 1.07614637 0.31643942 0.82665407
O 2.08836299 1.50614503 8.20416733 1.12282757 -0.49719020 1.23210015
O 2.12920105 4.73524684 8.20227332 0.83077566 -1.35966053 -0.30005745
O 14.54599867 4.68978828 8.10431755 -0.03459864 -1.57235333 0.48976603
O 12.14879914 1.56706115 1.52264469 -1.68102524 -0.79787125 -1.63805172
O 24.57429288 1.54803403 1.48871184 1.15388254 2.75123324 -2.28765550
O 11.96721756 4.57588824 1.40920591 1.69833212 -0.50350118 1.07667812
O 24.48070821 4.62450059 1.46409662 -0.55766809 0.63754775 2.04326798
O 10.65235287 1.55803745 7.13961195 -0.76127128 1.24260480 -1.59496608
O 23.14343788 1.61701599 7.10471264 0.15872695 0.69091374 -0.28501987
O 10.58332772 4.68348343 7.14079295 0.51349100 1.15037127 -0.10661230
O 23.11457687 4.67369091 7.12516223 0.21848421 -1.28068258 -0.15668185
O -0.92909804 1.57243832 4.23519236 -0.05006423 -2.47982166 -0.74827154
O 11.49224565 1.55670566 4.32501235 -0.63252485 -0.32782586 1.08281857
O -0.96745153 4.62199666 4.16695129 2.00826366 2.50130887 0.12193976
O 11.47541405 4.56384084 4.29894045 -0.12546956 0.22087801 0.42476238
O -2.42374987 1.48426021 9.87724368 1.23606740 -0.35310329 0.74646906
O 10.09563235 1.59165806 9.89763718 0.41486274 -0.53658809 1.14558355
O -2.33730804 4.67062260 9.93535084 -1.07885579 0.01675512 -0.69254926
O 10.02703597 4.54213190 9.94654647 0.59397896 1.27971739 1.25447743
O 5.82722767 6.07946628 1.49204197 3.23977256 -0.82347880 0.01659225
O 18.27698756 -0.03735120 1.43913194 1.86325170 2.40581136 -0.06295125
O 5.79326118 3.03281151 1.53042880 2.99560797 -1.42216862 -0.57870532
O 18.28648307 3.05515412 1.46790055 -0.56365867 0.94032660 0.64780147
O 4.42544959 6.12106077 7.13846462 0.15969452 0.00930757 -0.22044500
O 16.88649374 -0.04479419 7.12680094 0.66389007 -2.18378460 -1.14230699
O 4.32452492 3.11910916 7.20581849 0.39007294 -0.50629089 -1.29845734
O 16.94321200 2.98524155 7.23344835 -1.46971178 -0.21001605 -0.41860583
O 5.20218262 6.20678439 4.19137872 -0.22360187 -1.24013297 0.36544194
O 17.69914605 -0.01626321 4.18283061 2.06701415 -1.39861980 -0.12043193
O 5.22823264 3.09310580 4.20397127 0.27316593 -0.40172467 0.18102071
O 17.63953148 3.15884767 4.18490041 -1.80143621 0.08244069 -0.62260369
O 3.79688236 6.14195477 9.91119255 1.27779755 -0.25061600 -1.07089821
O 16.28793663 0.03506764 9.87709895 -0.33200507 0.51905777 0.48727144
O 3.81167143 3.06659099 9.88579467 -0.20457350 0.75954680 0.28044210
O 16.37125424 3.10813070 10.00874265 1.16003799 0.40755867 0.18285690
159
Lattice="24.742736 0.000000 0.000000 0.000000 6.125964 0.000000 -2.760097 0.000000 11.341888" Properties=species:S:1:pos:R:3:force:R:3 Energy=-623.775214 Virial="-48.960334 -0.817930 0.761226 -0.817930 -50.359533 -2.934088 0.761226 -2.934088 -42.960424" pbc="T T T"
Ga 0.03888840 0.04117014 4.42778436 2.28850192 1.79199821 0.94182051
Ga 12.32816384 6.21705067 4.50346222 0.16403302 0.29127514 -0.20176180
Ga 0.04026177 2.96694371 4.46469101 2.02192788 0.82657592 0.27820667
Ga 12.49677425 3.04100130 4.42181132 0.58044862 -1.11832961 -0.49631165
Ga -1.32900732 6.11189315 10.16499442 1.63127169 -1.02697828 0.34314222
Ga 10.95015461 6.15483231 10.20947140 -0.52343137 -0.69933477 0.52139817
Ga -1.40722434 2.99511406 10.07043505 0.61590441 -1.70879118 -2.15998569
Ga 10.96250838 3.06935933 10.19814944 0.90528211 1.10414869 -1.98893620
Ga 10.83575288 0.05907861 1.27670206 -0.55303490 -0.61054098 0.80654533
Ga 23.36763103 0.11863703 1.19140125 -0.97065010 0.06654831 0.00269155
Ga 11.02723216 3.08633664 1.23018782 -1.48831251 0.02586174 -0.26163400
Ga 23.44269934 3.06677384 1.16064155 -0.10944447 0.79691297 0.48787232
Ga 9.58001289 6.19848054 6.83811617 0.90151538 -0.41972412 -0.03873660
Ga 21.98597412 0.02318657 6.76672265 -0.09849086 -2.07256765 1.28066731
Ga 9.61008216 3.08682984 6.82357716 0.59746292 -1.92073340 -0.40954265
Ga 21.85042015 3.00790118 6.93885562 0.46024206 0.11510714 0.26567141
Ga 6.21508720 1.63427124 4.53206111 -0.90240028 -1.52585994 -1.28812143
Ga 18.58556887 1.60803794 4.40364440 1.03765432 0.68419665 0.66321216
Ga 6.10440819 4.58754700 4.53766774 -1.74153297 1.98148004 1.32953078
Ga 18.43688341 4.65598601 4.48516873 0.50568457 -1.45313035 -0.06699853
Ga 4.90834575 1.48418256 10.18176895 -0.41147549 -0.25632890 -1.51256626
Ga 17.35097342 1.55682649 10.09663474 -0.05939049 -0.08740974 -2.10982856
Ga 4.79952376 4.51907374 10.16516600 -0.17835445 -0.33310826 0.85056113
Ga 17.29209426 4.58164444 10.13259487 -1.06318726 -0.46856431 -0.04514849
Ga 4.81305506 1.52691346 1.24001564 0.85892818 1.86320101 0.66393858
Ga 17.09333034 1.46618725 1.11999445 -0.78168840 -0.87466827 -1.79448374
Ga 4.76098943 4.70023065 1.13106830 -0.18224239 -1.25364080 -0.92321175
Ga 17.30840134 4.57669004 1.09454142 3.18550543 0.42558060 1.42800212
Ga 3.31018173 1.63848279 6.92106616 0.61219684 0.45637463 -3.76430384
Ga 15.75771284 1.59690890 6.91056482 -1.37720322 0.92346634 -0.29109875
Ga 3.35712863 4.69222287 6.88389326 -0.06351455 -0.33163051 2.09588586
Ga 15.78196243 4.46843434 6.74884608 -1.55811026 -0.65541383 0.55202550
Ga 1.50090462 1.55468984 1.73792537 -2.85446944 -0.02752180 -1.42343698
Ga 13.87737709 1.54388579 1.73800652 2.66521290 0.30899767 1.82721198
Ga 1.65306583 4.61878535 1.77136045 -0.71648623 1.59181575 -2.30451899
Ga 13.91024788 4.61959359 1.64961573 1.84100431 1.29043143 -0.58124766
Ga 0.17433154 1.39359573 7.42028865 -0.03361102 0.64189133 -1.04085770
Ga 12.47266178 1.67258683 7.50473144 0.87529619 0.84437968 -1.72386147
Ga 0.06428575 4.63785087 7.45456965 0.58039833 2.17176418 0.62330818
Ga 12.49809002 4.49946003 7.39688654 0.20515002 0.00065014 0.49547582
Ga 9.39884000 1.54688334 3.91307699 -1.66574370 1.12847478 -0.94198298
Ga 21.90715204 1.59265639 3.92705363 -0.57538475 -1.34762999 0.83386442
Ga 9.34397553 4.52009206 3.82497603 -2.39205449 0.13119275 -3.11943044
Ga 21.85942577 4.52547520 3.87165947 -0.55828445 0.21958457 -0.50443254
Ga 8.00877700 1.62978972 9.62837684 1.60380722 3.26752027 -0.40309836
Ga 20.46613918 1.52718089 9.60409708 -1.29012506 -2.07734205 -1.86598202
Ga 8.10954542 4.62438998 9.50731647 0.86902968 -0.64663199 1.38650505
Ga 20.46112952 4.54793620 9.51326589 -0.70610520 0.53801246 -0.97069927
Ga 7.76234129 -0.09565396 1.90795520 0.56671086 0.49383859 -0.70432080
Ga 20.11543841 -0.03629768 1.74677859 -1.66557546 -0.42987733 -0.92272015
Ga 7.73456504 3.04441925 1.82938780 0.06308655 -1.84112677 0.17086286
Ga 20.08952326 3.01902752 1.76775095 0.16268480 0.16853181 -1.49210980
Ga 6.31242518 0.05455105 7.50898502 -1.57159873 0.97835904 -0.38391580
Ga 18.61643830 -0.03975105 7.40056538 -1.45183581 -0.19611597 -0.99789490
Ga 6.44692914 3.05856192 7.49840904 0.60392717 -1.50282408 -2.53467349
Ga 18.73038455 3.03542814 7.40499198 -0.37034256 -0.36339141 1.68260460
Ga 3.13623913 -0.12747792 3.79051667 -0.48873960 1.23748589 3.59754480
Ga 15.68664405 6.20395981 3.74404515 2.71043518 -1.76173252 0.55195457
Ga 3.28828214 3.08475835 3.92393010 -0.38376377 -1.38843181 0.25974300
Ga 15.70114299 3.15716230 3.85763213 -0.11672866 1.51886215 -1.15668564
Ga 1.85605056 0.13046069 9.46742266 2.40328663 0.97252923 1.29760472
Ga 14.28936853 6.18460686 9.51513337 0.30616240 1.75767318 -1.70102308
Ga 1.87491680 3.01278507 9.48085339 -0.28112368 -0.00328640 2.08153936
Ga 14.37490809 3.09213402 9.60311045 -2.17299866 0.51317461 -0.03795048
O 1.85449132 6.23302350 0.59513622 0.71022283 -0.35714052 1.02292605
O 14.24645673 6.13909686 0.62161451 -2.28042726 -0.64067406 -0.35734567
O 1.84139719 3.05540353 0.71478639 -1.71285818 0.92011957 1.05436431
O 14.28877093 3.13087931 0.56899956 -1.72134551 -0.32769197 2.37948299
O 0.58385210 -0.05881343 6.19376412 -1.11125992 -0.88101023 -1.50240816
O 12.82899668 6.20160123 6.29880297 2.25176441 0.55630949 0.37535256
O 0.46215557 3.03689682 6.42645926 -1.26451166 -0.62569147 -0.44422788
O 12.81726736 2.97413495 6.30760305 -0.43825424 0.36316963 1.81715887
O 8.94471609 -0.01811107 5.09105051 0.57182814 -1.61266413 1.30823806
O 21.48409186 -0.12345149 5.07964851 -1.55912482 0.19583623 1.38070799
O 9.13819808 3.03357097 5.05426215 0.37902193 0.59461396 1.34741899
O 21.53347962 3.07841517 5.16847545 0.27401797 0.24335934 0.77034597
O 7.65663078 6.12800199 10.71408875 -1.43607882 -1.27539941 -0.49854495
O 20.17535245 6.10638690 10.72446499 -2.26011518 1.75650173 -0.83365065
O 7.85893807 3.04899114 10.55773819 -0.97644896 -0.18115429 -1.59779329
O 20.02745407 3.10904579 10.76505522 0.04768068 1.86141002 0.19329729
O 8.13466752 1.56542674 0.59582678 -0.06567692 0.19299783 -1.45816329
O 20.45653682 1.51011447 0.68149174 -0.21384335 0.31718602 0.03029378
O 7.97343874 4.54063157 0.62705938 -0.72638905 -1.84376018 -0.48675230
O 20.40033487 4.50255414 0.66918520 -0.62035507 1.56365190 -0.40170162
O 6.65893793 1.62989243 6.26005461 1.11664126 0.07696848 0.42631555
O 19.09478877 1.49907242 6.28698211 -0.09619990 -0.60381436 1.79740288
O 6.84242274 4.63692805 6.43121080 1.01495880 -0.49880860 1.05737224
O 19.05346950 4.61452225 6.38105531 1.14288412 0.65345702 -0.16668787
O 2.97294282 1.57243107 5.15232593 2.24950737 1.13119407 -1.14933466
O 15.27211812 1.44543925 4.98458836 -1.32070451 0.77978363 -0.57690261
O 2.95108425 4.57812870 4.99922063 -0.80173215 -1.24338336 1.47260958
O 15.38612195 4.62322538 4.94043559 1.39535164 1.51224681 -0.87545573
O 1.74226751 1.42775744 10.71812234 -1.19976856 0.75248881 -0.08501411
O 13.92605891 1.48319884 10.71620649 1.49579350 0.21522390 -0.22336369
O 1.47386277 4.54791747 10.63215773 -0.27590863 2.89811103 -0.81349689
O 13.89115846 4.47903289 10.74439358 0.07911257 -1.35068886 -1.75351233
O 1.32976584 6.13111853 3.15367099 -0.65745120 0.81714585 -1.40555801
O 13.78771695 0.00564278 3.25948486 -1.53065086 -0.82229019 1.38637864
O 1.50118541 3.06072944 3.30778366 0.06962745 0.88040390 0.08411596
O 13.71734670 3.11574443 3.19592935 -0.23080443 -0.90271354 1.09851728
O -0.01424819 -0.04301659 8.85726205 0.46033821 -1.78187284 -0.00466810
O 12.36971763 -0.07742873 8.79803434 -0.64747457 0.23938236 0.22236436
O 0.02814531 3.14990732 8.93077036 0.52491304 -0.74837836 -0.47199154
O 12.29110478 3.11795161 8.80823609 -0.96149927 2.03926107 -0.63789438
O 9.61010398 6.03522508 2.41805014 2.55120942 1.78481514 -0.74618990
O 22.00002029 6.14018658 2.44706197 -0.73746082 -0.98304796 0.41623149
O 9.52094488 3.13382325 2.45893231 0.65793741 -1.25287771 0.00420782
O 21.99629900 3.18595247 2.55054348 1.16581662 0.65605193 0.22551831
O 8.32973986 0.03887922 8.23060583 2.22187289 -0.92881261 -0.43108782
O 20.66885612 6.04750618 8.21607435 -0.21303808 0.68752012 -0.33773762
O 20.65649874 3.01246939 8.16062211 1.37763622 1.66621127 0.64195470
O 7.57737281 1.48024738 3.06105014 1.24259898 0.12089858 1.18437270
O 19.82672714 1.57360233 3.21776673 0.86174432 -1.06952790 -0.11503059
O 7.55320211 4.54695384 3.17575659 -1.00986629 -1.75495844 1.43780584
O 19.90382062 4.52837432 3.05394228 0.28476402 0.28595154 -0.63208207
O 6.23607341 1.59312726 9.10136712 -0.51310331 -0.05367907 -0.33526373
O 18.61581097 1.45398537 8.90933650 1.92435284 -0.28071713 -0.51742871
O 6.20038637 4.74757608 8.84986526 0.67568602 0.42131315 2.50754958
O 18.58647343 4.58224188 8.77970677 0.28220603 -1.88646017 0.89651496
O 3.44469863 1.59146282 2.53560718 -0.98779903 0.32662203 0.21984694
O 15.89807066 1.53732237 2.37534906 -1.45811403 0.30813355 -1.86082229
O 3.55676896 4.54712162 2.52543980 0.30172743 -1.21034586 0.95044191
O 15.80661470 4.50005352 2.57731030 -0.55290061 0.56178729 -0.10466549
O 1.97998981 1.49131710 8.23661732 -2.12328987 0.53735509 0.10172387
O 14.44475059 1.48889120 8.19698018 -1.34747519 -1.01661496 0.66041076
O 2.08084783 4.52375553 8.17628381 -0.72394905 -0.00073091 -1.29357869
O 14.37562179 4.49251722 8.14357471 0.45768227 -0.86188719 0.89995082
O 11.81168377 1.55808520 1.43429722 1.35235786 1.44126369 -3.16356737
O 24.32249379 1.53427132 1.52061163 -1.11877808 0.47461194 0.90429711
O 11.84198607 4.50349738 1.40062767 1.56216457 -0.00317227 -0.60954267
O 24.35540257 4.59088019 1.43966261 -0.22611291 -0.04326491 -2.39879511
O 10.51050921 1.60437190 7.15673062 0.03942145 -1.07146586 -0.87865363
O 22.95053013 1.56330459 7.06372207 -0.15933676 0.16817987 0.33192202
O 10.74605797 4.63443706 7.13590661 1.61763548 0.81340191 0.60588309
O 22.92639539 4.60603691 7.00676790 0.63047150 -0.15208730 2.17072405
O -0.96281136 1.73310322 4.23211800 -0.03196281 -2.53195385 0.64438209
O 11.41475448 1.59155822 4.25624502 -1.66188013 1.48844489 1.18942797
O -0.93678617 4.47568566 4.21691297 1.65372453 -2.47772147 1.84178363
O 11.40390083 4.62597701 4.24741983 1.11932692 -0.31479962 -0.58840877
O -2.38501403 1.65539796 9.92328217 0.15198756 -2.53925640 1.17686868
O 10.12069847 1.46829119 9.89171712 -1.60940732 1.62769148 -1.81571778
O -2.26343388 4.70134048 9.88040949 -1.02572120 1.64497813 -1.81109118
O 9.99309920 4.60263621 9.93254394 0.54357430 1.34057520 0.96620049
O 5.81774033 6.20490711 1.54143364 -0.16541411 -0.15879191 1.50605975
O 18.06265576 -0.12483120 1.47669951 -1.73019721 -0.39521824 1.35994374
O 5.81240378 3.07362673 1.50809377 0.70555801 0.95594723 1.04797664
O 18.09989991 3.14677169 1.37831444 0.09465896 -0.12241670 -0.09951621
O 4.52807723 6.05940309 7.19413281 1.40344797 -0.18223811 0.23987798
O 16.76223914 0.02306972 7.16871066 2.83804629 0.18524475 0.15277570
O 4.34560738 3.11601137 7.08611525 -0.97119192 -0.74519576 1.22901071
O 16.82800301 3.13756502 7.11351565 0.43273480 0.54649166 -0.24954301
O 5.16878032 6.08582921 4.18002143 0.08067584 -2.17855624 0.82166864
O 17.59472346 -0.06037157 4.20027176 -0.11205133 1.98459859 1.12306359
O 5.16702997 3.12277448 4.27631083 0.29550930 -1.48431698 -0.04883442
O 17.60225043 3.07006135 4.23574260 1.85412660 0.59824324 -0.03569647
O 3.89236589 6.11815130 9.81691591 -0.09930818 -0.88459095 0.92650551
O 16.19741106 -0.07547427 9.86437209 -0.74477171 0.09105747 -0.37136306
O 3.87978658 3.12725523 9.98625496 -1.22982487 0.20520307 -1.39496580
O 16.17497367 3.06487977 9.93738041 0.03220121 -1.92680249 2.81860725
159
Lattice="24.866656 0.000000 0.000000 0.000000 6.156645 0.000000 -2.773920 0.000000 11.398693" Properties=species:S:1:pos:R:3:force:R:3 Energy=-622.649143 Virial="-55.331074 2.848931 -2.737955 2.848931 -41.968774 -2.949709 -2.737955 -2.949709 -41.283451" pbc="T T T"
Ga 0.02859690 -0.00992926 4.53488697 -0.70694748 0.10408927 1.09988481
Ga 12.62895943 6.22135081 4.66035389 1.30602905 0.37817411 -0.06170929
Ga 0.06454716 3.03461493 4.57640678 -0.05616687 0.67912221 1.16528477
Ga 12.40994129 2.92220195 4.63417992 2.19886399 1.15713820 -0.54362426
Ga -1.41360543 6.01983588 10.23857734 0.75299808 0.63241187 1.22869168
Ga 10.95604641 6.23697946 10.18905205 -1.03199961 -0.01858202 0.74005093
Ga -1.35340749 3.05151294 10.22827105 -0.31421487 1.80349797 -0.79087201
Ga 11.08023733 3.16109734 10.32753094 -0.77422829 0.72707166 -0.19461741
Ga 11.10722602 -0.07806785 1.14084131 0.65343122 -0.70035642 -0.04486343
Ga 23.44870291 0.11516400 1.08953879 -1.11370827 -1.76582511 2.46956216
Ga 11.11294767 3.06037851 1.07552362 -0.75217739 2.02630369 -1.62323639
Ga 23.47149607 3.02680628 1.11515968 0.53963543 -1.23450970 0.15726824
Ga 9.67754492 6.13714793 6.94226981 -0.14987171 -0.08150995 -0.04513552
Ga 22.15070351 -0.04913797 6.89305040 -0.09220211 -1.03668614 -0.07798479
Ga 9.71123986 3.18297998 6.83482762 -0.54570571 0.36592112 0.78603503
Ga 22.02314702 2.94766547 6.91074991 -0.25052504 0.92580507 -0.51305027
Ga 6.21161594 1.51442259 4.39330025 0.79034634 0.87954459 -1.34384513
Ga 18.64057590 1.61453076 4.55082566 -0.46199796 1.96763520 -0.43730951
Ga 6.16222676 4.53811440 4.59208682 -2.36600541 -2.16704647 0.77359349
Ga 18.60632849 4.62471353 4.52106691 1.59598670 1.26204306 0.20976277
Ga 4.87811806 1.48573212 10.33420901 -0.04981695 0.13023983 -1.42164065
Ga 17.43316316 1.52886519 10.20845464 -0.09672972 -0.85581938 -0.27189291
Ga 4.79221726 4.54960365 10.35382069 2.34368698 1.54516113 -1.73474205
Ga 17.27971948 4.57684197 10.13643318 -0.47597006 -0.71506545 0.65326644
Ga 4.92172986 1.47265926 1.17002452 -0.35592634 -0.39784916 0.52918356
Ga 17.30463950 1.60803268 1.22470202 1.57056889 -1.24746268 0.26767307
Ga 4.84467949 4.56198302 1.24496902 0.54356447 0.54238800 3.11658062
Ga 17.26624623 4.60215937 1.01978070 -0.23809885 0.13104723 -0.44501472
Ga 3.36674839 1.51591937 6.86439851 -0.58993862 0.66394355 0.16622376
Ga 15.85880484 1.61703295 6.84283341 1.47866609 0.56924702 -1.46756947
Ga 3.41455838 4.68788436 6.96385516 -2.08382572 0.45111718 -0.57976354
Ga 15.76506910 4.63029847 6.76156466 -0.41720422 1.13301845 2.40375450
Ga 1.56801556 1.55695335 1.95735124 0.67366699 0.47416185 -0.69115619
Ga 13.95518131 1.48010116 1.91963058 0.66855048 0.37448061 0.54466109
Ga 1.69183433 4.65055856 1.76885647 -0.98980452 -1.65512613 1.61772565
Ga 13.96617303 4.46354179 1.87348403 -1.75078893 -2.66194272 1.08841785
Ga 0.09897624 1.64510398 7.47859886 0.27614889 0.45410766 1.30769153
Ga 12.46104246 1.61666414 7.35943704 1.28503390 0.37645490 -3.20016272
Ga 0.14748331 4.67764317 7.55487974 -1.53859069 0.76376020 -0.06098582
Ga 12.58623390 4.62243552 7.58038008 -1.96304817 -0.51662504 0.92779758
Ga 9.56753523 1.46775700 3.99727057 -0.38827477 -2.18122246 1.74197961
Ga 21.94863954 1.52563153 3.92663972 0.58111696 -1.75455019 0.04568712
Ga 9.50441500 4.70473589 3.90440390 0.91503263 -2.43269888 -1.23970032
Ga 21.98073072 4.61456694 3.88907729 0.19014197 0.49392687 -3.12147236
Ga 8.09942034 1.40069308 9.53855396 0.76020238 1.21254285 1.13164404
Ga 20.52714666 1.68745491 9.60128153 1.55179210 -0.09334212 0.10041393
Ga 8.11496491 4.51760362 9.62394757 -0.18072356 -2.39730718 -0.68207023
Ga 20.61367241 4.50706375 9.68818130 -0.53289345 -0.30064302 1.52873128
Ga 7.72078262 0.02137499 1.77536357 -0.35114099 2.75949540 -0.89534185
Ga 20.10508532 -0.17558058 1.83082262 -0.26107658 1.48701772 1.59175717
Ga 7.74960767 3.09959268 1.75588568 0.48208837 0.79343563 -0.64975187
Ga 20.21657231 3.12480221 1.91313192 -1.60729146 -0.68483761 1.00151238
Ga 6.33074322 -0.11529249 7.45286857 1.08331621 -1.38778865 0.15824591
Ga 18.92248712 0.01073059 7.59084432 -0.02658813 -2.38702469 1.46256034
Ga 6.47845117 3.07956808 7.36826876 0.88467176 1.51167271 -0.19328700
Ga 18.87883137 3.13080524 7.48308180 -1.03585893 -2.18563972 -1.49405985
Ga 3.09599235 0.04394611 3.86275474 0.05743402 0.58463723 -0.58938249
Ga 15.73095619 6.16817888 3.79224543 -1.27989322 -1.77246783 0.31193244
Ga 3.28246133 3.03414080 3.83988522 0.81882497 1.70390526 -0.07197329
Ga 15.62474202 3.18293562 3.90147122 -1.58955055 1.69345386 2.10726772
Ga 1.93167419 -0.05655505 9.52113541 0.48026064 -0.34731942 -1.22673826
Ga 14.27576403 6.13419652 9.56564862 -0.01764274 -0.06607535 0.48173486
Ga 1.92826102 3.07629631 9.72777152 0.00347667 0.84200204 0.02875492
Ga 14.31619806 3.10183290 9.66512892 -1.41064631 1.20979691 2.23016226
O 1.81931322 6.11369500 0.61762222 0.07112840 0.66320092 -1.04139817
O 14.29010595 6.13586568 0.67651521 0.24786084 2.46491415 0.27595082
O 1.80176319 3.09619275 0.61055701 -1.69580981 -0.41977353 0.64112220
O 14.26657971 3.12064219 0.59110867 1.70782486 -0.28016547 1.24547341
O 0.52783089 0.06944124 6.22331112 0.49865149 -0.50928299 1.72122565
O 0.42176760 3.09319866 6.34901965 0.92228486 -0.41826477 -1.52659650
O 13.05399973 3.13409097 6.30869415 0.39222046 -1.78423760 -0.84597933
O 9.12213640 -0.06925854 5.03564503 1.23659853 -0.19463765 0.33823160
O 21.64346065 -0.00768635 5.20660498 0.15561290 1.27728568 -1.24503043
O 9.12260273 3.01048478 5.00268371 -0.67576140 0.94183246 0.70546741
O 21.75864941 3.16317562 5.19555509 -0.84456185 1.69829816 -1.02977128
O 7.82223696 6.03651802 10.91675363 -0.59359411 0.76372691 -0.27247213
O 20.19777660 6.19469277 10.75704037 -0.22490271 -0.78558358 0.08337617
O 7.83181545 3.05826772 10.64089946 -1.63135366 -1.95069981 -0.88199194
O 20.18116632 2.84005816 10.71735110 -1.35304664 0.08535510 0.51157991
O 8.09011202 1.65201251 0.64068690 -0.41968026 -2.18206521 -2.32438666
O 20.55186593 1.65576083 0.61456142 -1.34005385 -0.99266196 -0.54334009
O 8.12572409 4.53709469 0.48884147 0.70056952 2.26977385 -1.34747021
O 20.54319477 4.73899441 0.65884259 0.06617959 -0.54095126 -1.03389748
O 6.73025666 1.55929194 6.26726568 0.39333739 -0.20282389 0.85514257
O 19.08259323 1.61331191 6.47914974 0.19505291 -1.22653471 0.55598930
O 6.81331219 4.68768008 6.43011191 -0.08247522 1.25731574 -1.43932230
O 19.23273846 4.56638989 6.41936975 -0.23026047 -0.56105233 -0.03408920
O 3.02182453 1.47013967 4.95982274 -1.75759805 0.67838931 -0.26889951
O 15.34054147 1.61681771 5.02444874 1.44948057 0.02866379 1.92735515
O 3.00894790 4.55969491 5.03778444 2.07936441 0.29408618 0.44840918
O 15.39374616 4.62524420 5.19572633 -0.53121030 -0.73389379 -0.02384048
O 1.67929206 1.51667549 10.77203334 2.54008046 -1.23124214 -1.29358498
O 14.09018054 1.59716369 10.83932527 0.45643206 -0.81931122 0.12779880
O 1.61281422 4.86147131 10.92404771 2.19825540 -0.94875577 0.07309763
O 14.01963599 4.74930260 10.81998767 -0.00721588 0.29934706 -1.61369426
O 1.37476471 6.20341732 3.23890091 0.87574973 -0.74946641 -0.33264059
O 13.78031924 0.04771076 3.21539706 -0.26561294 -1.36645982 -0.05307249
O 1.29860226 2.97514859 3.38147677 -1.26657035 -0.22232448 0.43088977
O 13.80168583 3.10910917 3.32438690 0.18164244 -1.27529362 -0.55347441
O 0.10500127 0.04225140 8.90143281 -1.09189191 1.65648484 -0.13306411
O 12.44746868 0.00865592 8.89520757 -2.70508982 -0.98372133 1.28019407
O -0.03442847 3.09275100 8.97031345 -0.07255207 -0.00076553 2.02939062
O 12.39962404 3.08641914 8.96519335 1.21361939 0.94273877 -0.46632266
O 9.63632760 6.13448982 2.57629173 -0.78465773 1.99042741 -0.43582165
O 22.01611574 6.16377241 2.45262379 -2.23352247 -0.31030340 -0.12182107
O 9.55068947 3.06163724 2.38278061 1.29191628 0.16819559 -0.68181040
O 22.14644975 3.00748370 2.41933536 -1.23610852 -0.23247237 -0.24552314
O 8.27295189 -0.00833697 8.25294293 1.50886398 2.39605296 0.11865923
O 20.69388499 6.08242607 8.25185843 2.39813449 -0.13446282 -3.11210303
O 8.19391608 3.01336694 8.07127460 0.78451589 1.22051093 -0.57032675
O 20.76377309 3.03828761 8.24759384 -0.80993251 1.10400740 -1.15875304
O 7.62894850 1.49676382 3.04390415 -0.86346644 -0.44395807 0.08521989
O 19.93823709 1.40918651 3.30288887 -0.06753688 1.02667432 -0.71332578
O 7.50496013 4.51291008 3.15288572 0.58147427 2.03198371 -0.16097212
O 19.89551885 4.57776434 3.17916121 0.35575526 -0.28371250 -0.36690182
O 6.25106954 1.42655839 8.89484246 0.88726532 0.06582165 0.60973477
O 18.63178107 1.45413156 8.86921708 -0.20539788 1.96811446 -2.46592317
O 6.17964682 4.66173857 8.93757696 -0.35191638 1.70272461 1.40648275
O 18.56651671 4.48576311 9.02249172 -2.26555174 -0.64342458 0.46742509
O 3.36878552 1.54515860 2.43980549 -0.85411141 1.08070762 0.77746389
O 15.70803074 1.57190258 2.50742065 -0.96870388 -0.43929819 -1.62583471
O 3.37284124 4.63592197 2.39647796 -1.58439368 -1.22744406 -1.83168713
O 15.94393038 4.64832543 2.49728437 1.04156913 -1.90563595 -0.43055038
O 2.05180114 1.48875339 8.12095858 -1.17587753 -2.71767663 0.42361872
O 14.51487087 1.58883086 8.25909449 0.05161045 -1.51362904 -1.21686157
O 2.21171560 4.56525865 8.19329322 -0.47556021 0.97335332 0.08275007
O 14.37565184 4.72151446 8.18680539 1.13798806 0.34061610 0.85338049
O 12.00217493 1.37787349 1.37373893 -0.51109397 -0.13445312 1.21514156
O 24.51748765 1.44348439 1.45754867 -0.95168758 0.18342653 -2.38762346
O 12.20568233 4.65870803 1.45479333 -0.18914034 -1.03692497 1.72980262
O 24.54347596 4.56443528 1.42172504 -0.38578412 0.29927410 -0.13154600
O 10.75365050 1.45822115 7.19039341 0.82789758 1.39790533 -0.85637579
O 23.08135690 1.57365508 7.14035003 0.93121968 -0.88410735 1.84101867
O 10.53341926 4.66513306 7.07797475 -0.41949770 0.83170459 1.53359340
O 23.14398417 4.64786599 7.22394772 2.02191779 -0.86291363 0.95067418
O -0.84474856 1.64930143 4.25082577 1.34786559 -0.09406574 0.43613649
O 11.37888342 1.35026529 4.25983617 0.40301696 -0.82405506 -0.07386467
O -1.09466306 4.60747281 4.32303774 -0.20037399 0.23827953 0.62976300
O 11.34689658 4.59239228 4.10311747 0.67369225 -0.47374468 -2.26803626
O -2.41581694 1.47514533 9.98414934 0.26631877 0.41451292 0.83289714
O 10.06729113 1.45373083 9.70345158 0.72284239 -0.35686040 0.26039546
O -2.31571808 4.62081118 9.92996275 -0.47122102 -1.79005364 1.14006047
O 10.07580274 4.69389633 9.85931010 0.38035402 -2.05204408 -0.84250460
O 5.79060295 6.16286085 1.49416011 1.02136064 0.85580277 -1.59354574
O 18.29032017 -0.08551074 1.56733542 2.03705363 0.17215851 0.37950089
O 5.83239487 3.02344738 1.46764808 -1.98367654 1.20255116 -0.10430999
O 18.25950073 3.04466678 1.49461789 1.32765534 -0.30356434 -0.00395911
O 4.36654083 6.14295815 7.10910467 0.29509954 -1.66630647 -0.55195228
O 16.82279633 0.12641524 7.04533668 -0.60335450 2.20949736 1.19718175
O 4.37274638 3.01525379 7.22224968 0.36987850 2.07652033 -0.45972193
O 17.02004680 3.09777639 7.27369107 0.60550510 -0.85947329 1.28560669
O 5.25158189 6.14780270 4.22296476 -1.37609289 0.14021868 1.91548418
O 17.68264414 -0.07931779 4.26287181 1.30864383 -0.48462587 1.93908096
O 5.28047402 3.05061515 4.33626737 0.27364125 1.21549001 -1.45852003
O 17.62069673 2.98529312 4.19670505 -1.39216234 0.02269891 0.58056932
O 3.90772764 6.07768284 10.00957733 1.51275652 -0.04933519 -1.13264354
O 16.28116123 0.09077337 9.90976766 -0.29925654 -1.32321976 -0.55175389
O 3.67941966 2.98617444 10.02857318 -1.66748935 1.33416908 -0.35799162
O 16.28693763 3.10734547 9.86033475 0.53058869 -2.32152734 0.81202798
159
Lattice="24.962827 0.000000 0.000000 0.000000 6.180455 0.000000 -2.784648 0.000000 11.442776" Properties=species:S:1:pos:R:3:force:R:3 Energy=-623.147275 Virial="-58.493388 0.400179 -2.290057 0.400179 -47.097885 -4.518101 -2.290057 -4.518101 -44.132055" pbc="T T T"
Ga 0.08448243 0.07889681 4.63268400 0.31780825 -0.11748200 0.37141430
Ga 12.55338069 6.15153178 4.61427791 -2.66859863 -0.19007433 0.76814791
Ga -0.01483990 2.96485413 4.47407251 0.37941976 -1.03384836 0.14960623
Ga 12.59162194 3.16210457 4.52473674 -0.41573484 -0.47890311 -1.99153787
Ga -1.29589250 6.28742151 10.19515507 -1.10210814 0.72622764 -1.51490706
Ga 11.05497380 6.18356919 10.29507954 -3.37461302 1.32674913 -0.67781796
Ga -1.48391331 3.01795103 10.23228553 1.38201909 -1.91088533 0.18001982
Ga 10.97610267 3.04993426 10.25034603 0.99982687 0.19888662 0.58239583
Ga 11.18993335 -0.03100822 1.16839154 1.70621791 1.14133119 -0.14022391
Ga 23.57892559 0.12759308 1.13766762 1.79040218 -0.75643659 -0.44590657
Ga 11.01020468 3.04664086 1.08504442 0.51699821 1.08092879 1.16293441
Ga 23.60818148 2.99969379 1.16212408 -0.33550569 1.11325046 2.84414498
Ga 9.62060660 6.19228252 6.91526231 -0.71972805 0.95664721 -1.72534058
Ga 22.21670392 -0.00680733 6.81270648 -2.71862460 -0.41304106 0.72750243
Ga 9.96844794 3.12496781 6.91674634 -1.77117477 0.26230777 0.46737042
Ga 22.18792250 3.11099268 7.01586737 -1.04846168 -0.97254217 -1.35036503
Ga 6.25072525 1.60031600 4.43232104 2.76743188 -0.29931781 0.32873989
Ga 18.72870380 1.44179921 4.58439510 0.71929817 -0.00157981 -0.60968714
Ga 6.25024345 4.70811678 4.44682080 -2.60719576 -0.46617809 0.93636997
Ga 18.71524220 4.73890299 4.63179788 0.70338615 -1.24161661 -1.23405949
Ga 4.91451509 1.47511547 10.19157454 -3.35278818 -1.38383919 -0.33030689
Ga 17.23672818 1.66725726 10.11204803 -2.02678695 -0.28719874 1.18118490
Ga 4.84452330 4.60016901 10.33703113 -0.90192495 -0.23614296 0.34597369
Ga 17.41213536 4.66298314 10.28149305 1.62808229 2.48816870 -0.21605221
Ga 4.82611481 1.61379682 1.13841886 0.08958147 -0.42475143 -0.41783442
Ga 17.32434591 1.71412551 1.17902604 0.84848804 -0.53025432 0.88889661
Ga 4.75624750 4.63807739 1.19658965 -0.20301081 2.27334394 -0.56421874
Ga 17.32631652 4.58767835 1.06370516 1.22001926 -0.29953260 0.84258431
Ga 3.35154997 1.52640983 6.82782420 -0.79475199 1.08114083 -0.67838241
Ga 15.95586409 1.65524384 6.92962940 -0.13996405 0.37394306 -2.56952977
Ga 3.43655046 4.62959201 6.90449688 0.12735707 0.43683370 -0.25765770
Ga 15.85874302 4.65453652 7.03192822 -0.71132999 -0.28106149 1.32417228
Ga 1.60210847 1.52581725 1.90928393 -0.56691449 0.29046578 0.30076244
Ga 13.98838380 1.48482646 1.80232328 -0.04619244 0.10147594 -1.07135984
Ga 1.53240927 4.59132523 1.78020131 0.29672480 0.95559529 -0.42448471
Ga 14.05463541 4.53945402 1.69128223 0.59509624 0.96629223 -0.46066528
Ga 0.14929561 1.52288536 7.52372692 0.45039587 -0.77043655 -0.39482697
Ga 12.53135212 1.45865415 7.59475525 0.38543577 0.08743096 0.90090484
Ga 0.21525759 4.63669274 7.40379541 0.56203117 0.20085953 1.18665968
Ga 12.64128544 4.63835957 7.49305336 0.97612976 1.64468714 0.42873241
Ga 9.59586601 1.61687592 3.86972158 -1.04367050 0.13797187 -0.00638695
Ga 21.99424206 1.50128287 3.83008490 0.78589239 -2.98119415 -2.02612961
Ga 9.57929275 4.60727348 4.04982501 0.30799309 0.05580937 -1.14480828
Ga 22.05224668 4.56933293 3.91992869 -1.20445325 0.39519362 -1.59266707
Ga 8.31673411 1.59741520 9.57971241 -1.38669760 2.86819649 -2.21418565
Ga 20.64313064 1.55011843 9.61801409 2.30980183 -0.31834517 -1.19306337
Ga 8.08356728 4.66415779 9.64175965 -1.14458274 -0.00891825 0.59714384
Ga 20.76834748 4.53486810 9.64336653 0.16009440 -0.24860917 0.51253256
Ga 7.78749502 0.04175804 1.78640496 0.17176552 -0.89738500 -1.14364088
Ga 20.17481204 -0.01233126 1.81493513 -0.98897249 -1.20735954 -0.21568956
Ga 7.71099371 3.01797672 1.77176496 0.94267846 0.35139096 -0.39095433
Ga 20.22802688 3.13235238 1.81220960 1.13418731 -0.43440059 1.01605038
Ga 6.51211825 0.09654452 7.45791907 -1.42583868 -1.04659254 0.85646351
Ga 18.88277946 0.08048936 7.73569981 -0.71720198 -0.17050298 1.11872205
Ga 6.43133612 3.13596267 7.47613183 -0.51845841 0.65785678 0.05398440
Ga 18.93227144 3.03441842 7.61680520 0.02651052 0.27160605 1.56555481
Ga 3.32395891 -0.08284050 3.96109042 0.17023722 1.91546583 -0.76707447
Ga 15.69457585 6.08438762 3.92963499 -1.01406748 -0.21523654 -0.83736606
Ga 3.30759703 3.06979583 4.00121438 0.05533392 1.80649980 0.86096262
Ga 15.95929051 2.99162057 3.87875052 -0.49079490 -0.11340528 0.15915417
Ga 2.02721610 0.01351287 9.61922861 0.52377032 -1.10050641 -0.87526240
Ga 14.38236105 6.20195686 9.62156011 0.63354662 -2.58833444 -0.69621704
Ga 1.95612497 3.09838091 9.56665575 0.47715966 0.50712328 3.14674652
Ga 14.39685757 3.18283285 9.65874163 -1.30331325 -0.05170180 0.41742714
O 2.00090489 6.33825400 0.59940750 1.05790042 0.24455099 0.89297892
O 14.45890805 6.23026119 0.55122723 -0.97427686 -0.46586740 -0.13843226
O 1.84410101 3.19596062 0.57659842 -0.69444495 -1.99422917 1.03092555
O 14.43819161 3.01755486 0.66286743 -1.52887839 -0.14088047 -0.68903908
O 0.55213973 0.00275920 6.28722363 -0.02452340 -0.94463416 -1.52894008
O 12.96440580 6.17757094 6.33508922 -0.26581054 -0.48816738 0.59186902
O 0.58797687 3.01211638 6.30199084 -2.51852019 0.26211505 1.59469846
O 13.01070759 3.15608002 6.20362760 0.16243257 -0.53243812 1.17259789
O 9.28180445 0.08608663 5.09496627 -0.87363865 -1.26322602 -1.12538724
O 21.73639996 -0.05282904 5.19707537 1.33980738 0.10953651 -0.11367504
O 9.23475748 3.18717087 5.03215999 0.40952067 -0.49955480 -0.95004617
O 21.74126335 3.19152489 5.08525079 0.97910007 1.06420463 0.89250868
O 7.81885432 6.38075817 10.90138091 -0.68567765 0.45553235 2.48177081
O 20.36796050 6.12467703 10.79008403 0.15805617 0.54468289 -2.00553607
O 7.80489801 3.11600477 10.97435618 0.83425213 -1.44914182 0.38492087
O 20.23760582 3.00063690 10.70342567 -1.57957414 -1.48305619 0.32580492
O 8.06895236 1.44727940 0.54722367 -2.19972791 -0.63014159 0.47263953
O 20.63514333 1.54937407 0.66526785 -1.93276901 0.25446499 -1.17599027
O 8.10416126 4.65416374 0.64234882 -0.40617915 -0.27507879 -0.20050760
O 20.61219122 4.66002867 0.67911924 1.06156561 -0.55012239 1.06460137
O 6.80392547 1.49070567 6.34955540 -1.48818417 -0.43663876 -0.71895078
O 19.26964897 1.43315005 6.29528226 -1.17100289 -0.55941350 1.06993714
O 6.81162223 4.58098108 6.35201408 0.26192196 -0.24917688 -1.46301554
O 19.21215373 4.65687792 6.35406686 -1.01930263 -0.69467178 1.33817120
O 2.86470187 1.59708077 5.07587523 0.45827375 2.72241758 0.95994059
O 15.44863239 1.49282705 5.09120518 0.37613223 -0.89718898 1.42563962
O 2.94320022 4.67469588 5.21158994 -1.90700627 1.92206936 -2.25086213
O 15.52057937 4.61768949 4.99923221 0.01276850 -1.08883082 1.62435871
O 1.64969095 1.49420786 10.97346756 0.34426088 -2.19820919 1.20457212
O 13.97206167 1.48210090 10.88507414 2.10878406 -0.78497398 -0.16603641
O 1.53524863 4.52685026 10.92216002 0.50943750 -0.23192768 0.16441847
O 14.03336086 4.73453910 10.84753861 1.42312100 1.04388508 0.03637489
O 1.42970299 6.29441895 3.19322937 -1.74982704 -0.05920897 -0.46226328
O 13.89349319 0.00915779 3.15424114 0.10035624 0.95346305 0.07758867
O 1.39380631 3.10640424 3.25533863 2.45392775 0.13934927 1.06456754
O 13.89613656 3.00401253 3.18546376 1.46840578 1.05476271 -0.41949824
O -0.11264708 -0.00475935 8.97669777 -1.55349968 -2.39966465 -0.53129220
O 12.47821638 0.08312807 9.05536377 1.33116379 -0.27143438 0.39294394
O -0.01670434 2.95824892 8.93236806 -0.52489682 1.78236128 -1.39619999
O 12.45640550 3.08867955 8.96160537 1.73925062 0.04928235 -1.08775121
O 9.53143040 6.22687398 2.42516880 2.32945218 0.49111309 -0.37682673
O 22.21551330 6.19866626 2.50816238 -1.52426937 -0.29773174 0.45803253
O 9.83227631 3.08654934 2.33403870 1.21740040 0.79588295 1.20108571
O 22.16419724 3.08375575 2.43135362 -0.96028702 0.86758109 1.91221795
O 8.26544057 0.00276934 8.23970559 1.72587534 -0.91974106 1.54605434
O 20.82292560 6.15499521 8.25059127 1.30695769 -0.03080407 1.06891069
O 8.35011248 3.04865606 8.19474013 -1.01166048 1.42011445 -0.62890032
O 20.76128925 3.17397033 8.14587015 2.08042499 0.29724776 0.63341145
O 7.62069378 1.56232368 3.25369906 0.15082203 -1.68259813 0.09231132
O 20.05178967 1.53957812 3.32130732 0.29361953 -1.19500320 -0.43118634
O 7.63362829 4.59137191 3.27253104 -0.06603598 0.97754946 -1.17274337
O 20.14784143 4.67003400 3.24887159 1.68119371 1.98968201 0.31085099
O 6.25008412 1.43151533 8.95711882 0.72282365 1.81713130 -0.79833702
O 18.75315168 1.46902922 8.99037760 -1.60204339 1.73232477 0.45190293
O 6.29382045 4.51862692 9.02080754 1.80133457 2.27795844 -1.39110391
O 18.75910912 4.60441799 8.79041395 -1.90473292 -1.41304171 0.47332609
O 3.48395717 1.53611657 2.41164260 0.87268337 -1.96242396 -1.06168393
O 15.92003403 1.45554932 2.46153920 0.65236447 1.31633198 -0.63480700
O 3.46988582 4.59334564 2.65896200 3.01868456 -1.69956767 3.15648208
O 15.85523967 4.67116804 2.41766375 -1.62898322 -2.68532144 1.39860352
O 2.13348709 1.44758371 8.24874885 0.74014305 0.42054139 0.69324595
O 14.59267286 1.52922358 8.24412889 1.05801829 -0.42225327 -0.01711847
O 2.06428679 4.66030636 8.36433947 0.36137402 -1.42722156 0.79009156
O 14.61199229 4.61562503 8.17402946 2.05517908 1.07745347 0.33297918
O 12.02787326 1.47841295 1.50706888 -1.99129851 -0.82649772 0.25050195
O 24.45520762 1.57985945 1.48113049 -0.26755573 0.17712434 0.03793941
O 12.10831647 4.53067887 1.37743983 0.22878534 1.17834180 -1.52491518
O 24.64614307 4.63572132 1.44320872 -1.05402456 2.00914654 0.08201194
O 10.75606555 1.60051872 7.30744489 0.55706536 1.28309331 0.40391936
O 23.17336511 1.63239930 7.24720214 -0.15698431 0.31253361 2.88472620
O 23.27156320 4.63844333 7.18790063 0.20980356 0.76310168 -0.81870743
O -1.01893406 1.60945394 4.30375937 0.99847490 -0.25797318 -0.58014002
O 11.53623107 1.47066291 4.23266336 -0.93267932 -0.99696196 0.45587605
O -0.91664449 4.58485821 4.30850396 -0.26834494 0.38812067 0.66149213
O 11.51818273 4.64463383 4.18032542 0.03313521 1.06545817 0.07900975
O -2.43034108 1.54871777 9.86596674 0.45681941 1.22575320 2.35712059
O 10.06351820 1.53042305 9.88496531 0.46840623 0.31195414 -3.39321747
O -2.44739638 4.73986678 10.00633854 0.95090466 -0.54454345 -2.56932145
O 10.12666322 4.51287010 9.86440332 -0.54808364 -0.79933778 -1.93484444
O 5.74296774 6.16610198 1.37986745 -0.63171805 0.97997500 -0.79446955
O 18.34045290 -0.05970454 1.34617226 1.84093829 1.09757979 -1.78460224
O 5.88464320 3.04818577 1.33091350 1.04553060 -0.71529778 1.61090221
O 18.40580416 3.04813507 1.46736071 -0.00117015 -2.50431093 1.55515271
O 4.37563529 6.28602565 7.27739864 1.20137468 0.24533350 0.36430053
O 16.99093947 -0.02729837 7.18634189 0.05222787 -0.52266688 -0.05159280
O 4.42527272 2.98174981 7.17389622 -0.58639876 -0.90438464 -1.20741219
O 16.93842880 3.13619694 7.24377093 1.74633457 0.60640394 -0.58505741
O 5.30636496 6.18649539 4.29301724 1.19103919 0.44698716 -1.49286577
O 17.78502113 -0.03591561 4.27030761 -0.74810895 0.76936668 -0.76238838
O 5.25934604 3.09663833 4.18139023 -1.03528741 0.55106542 -0.50842685
O 17.90033585 3.24655747 4.32364728 -0.42303854 -0.60312373 -1.05142456
O 3.85484419 6.10728995 9.87235564 0.68841890 0.68984487 1.07355522
O 16.27766884 -0.10470292 10.06541002 -2.02579869 -1.02621983 -2.21810444
O 3.78777182 3.06697694 9.97542989 -0.84047664 0.00452987 -0.19088849
O 16.33909059 3.09671838 10.03528302 1.56101102 -1.36046594 1.76001702
159
Lattice="24.707368 0.000000 0.000000 0.000000 6.117207 0.000000 -2.756151 0.000000 11.325676" Properties=species:S:1:pos:R:3:force:R:3 Energy=-624.670839 Virial="-54.648710 -2.736217 -1.574331 -2.736217 -47.444062 -0.740959 -1.574331 -0.740959 -43.873347" pbc="T T T"
Ga 0.00465872 -0.07884909 4.43938393 -0.92850512 -1.05105012 0.34261521
Ga 12.43345364 6.15697866 4.41836488 -0.77840519 -0.47322633 1.87612168
Ga -0.02436983 3.04923685 4.40002251 0.21769326 0.94674171 1.96343517
Ga 12.32414570 3.11195118 4.45229210 0.02357871 0.72262002 0.01721745
Ga -1.23265153 6.03618871 10.13680416 -1.51926223 -0.65777324 -0.65444567
Ga 10.96479237 6.16943120 10.10935858 2.48349342 1.42003174 -3.12855230
Ga -1.39868594 3.13654416 10.12036228 -0.73496062 -0.34821430 2.11560200
Ga 10.95383891 3.09642540 10.20591979 1.05224273 -0.38331908 -0.28771667
Ga 10.93544507 0.01774983 1.15311663 -1.19835380 -0.72564460 0.78227275
Ga 23.34132547 -0.05026195 1.21136156 0.16984398 -2.12318892 0.19175487
Ga 11.00620441 3.06846139 1.19242782 -0.40327392 0.33965292 2.38210471
Ga 23.28787653 3.02369918 1.12425523 -0.78412139 0.15385859 0.84063297
Ga 9.56880766 6.08016001 6.85421037 -2.28928797 -0.01804648 -0.12336846
Ga 21.83634264 0.10913226 6.74988581 1.03928671 0.40815295 2.11725927
Ga 9.55914080 3.06115337 6.94966233 -0.11742760 -0.37289983 -0.83525384
Ga 21.90472385 3.01999359 6.88094558 -0.18633135 -1.38167439 -1.39755282
Ga 6.20916453 1.54117671 4.57087733 2.56686229 1.02956726 -0.77555409
Ga 18.57557532 1.49993799 4.46006806 0.08163301 -1.13081890 -1.39939513
Ga 6.19220483 4.53009066 4.50089817 0.60152108 -0.57482610 1.09601663
Ga 18.57241530 4.58826636 4.42234515 -1.60554553 1.52297875 -0.73709752
Ga 4.79341708 1.49478105 10.10414549 -1.01348917 -1.06064279 -0.73167258
Ga 17.27830449 1.53909473 10.20973989 -2.29994410 -2.30100981 2.19970637
Ga 4.81715278 4.60993965 10.22726008 -0.25562124 1.79658604 1.57209154
Ga 17.08546389 4.51689471 10.09886014 1.43694485 0.04693872 0.87965960
Ga 4.81255068 1.46284956 1.31316909 -1.85469407 0.47769938 -0.28697289
Ga 17.11345652 1.56910876 1.07576896 0.09243148 -1.37902530 0.04850485
Ga 4.84818215 4.58889228 1.13219087 -2.54661789 -0.82348721 -0.09284810
Ga 17.14212582 4.55813663 1.12521411 -1.89414659 -0.35778837 -1.35175237
Ga 3.38413453 1.51942484 6.87882277 -0.94297928 0.02680016 -0.59030222
Ga 15.87000502 1.48538134 6.80837874 1.01435465 2.09083327 0.64732775
Ga 3.45273468 4.52482174 6.88494726 -1.78305447 0.73508287 0.95761508
Ga 15.73756622 4.58974065 6.73272645 0.35114460 -1.53964145 -1.44617113
Ga 1.59341491 1.50854745 1.77772322 -0.34023926 0.24686372 -1.39805633
Ga 13.83573519 1.54745170 1.74117343 2.36384231 -0.10796163 -1.23071339
Ga 1.59341973 4.51982932 1.68532550 -2.03136786 -0.47283161 -0.50543482
Ga 13.94729468 4.63224843 1.79010949 -0.67330702 1.44663850 -1.27148982
Ga 0.20257067 1.49728943 7.49058349 0.07997047 -0.40923152 -0.05528683
Ga 12.43409792 1.53980445 7.39188817 -0.84662404 0.72905150 -0.81210072
Ga 0.12320900 4.52517640 7.41165296 1.70245169 0.11258042 -0.02189988
Ga 12.48642420 4.64884205 7.36758792 -0.15739333 -1.26426011 -1.39965466
Ga 9.48575633 1.61064521 3.92010813 1.46537097 1.16552234 0.18486242
Ga 21.83157171 1.53230354 3.94745664 -0.74920758 -0.30450633 -0.01869232
Ga 9.49503622 4.57149329 3.90451290 2.03761814 1.12563189 1.99724798
Ga 21.76117691 4.56672346 3.85464345 0.67876466 -0.18009204 -2.09073455
Ga 8.10155839 1.50534833 9.56234662 0.13224434 1.15641289 2.11360487
Ga 20.44098403 1.40396732 9.51026642 0.09387323 0.30086873 0.17704541
Ga 8.08906132 4.58857881 9.56773865 -1.93148284 -0.21145684 -1.67636084
Ga 20.47526867 4.66475686 9.47342993 -0.28525375 1.55608712 0.88733401
Ga 7.76893259 0.01668359 1.81683067 -0.20614719 1.79281644 -0.27830070
Ga 20.04019363 -0.03137999 1.79866030 -1.51380233 0.13810378 0.02586470
Ga 7.70254675 2.98976962 1.80530103 1.03964801 -2.42207339 0.14362104
Ga 20.02994691 3.01898031 1.77508373 0.05820407 1.76374090 1.54670215
Ga 6.36150082 -0.03215355 7.45579650 -0.81730579 1.45366034 -0.62265322
Ga 18.66383830 0.08765317 7.44647664 -1.05474045 -0.56079637 0.27879658
Ga 6.40049822 2.93294528 7.56818042 -0.57139288 2.52722867 0.94498431
Ga 18.56867113 3.05864649 7.42987761 -1.43941087 -0.19752663 0.91994978
Ga 3.25144359 0.00216509 3.95230583 0.37853299 -1.40066354 -0.65272684
Ga 15.65886578 6.08519954 3.85001924 2.52879649 0.32133773 -0.85331668
Ga 3.30940473 3.13544879 3.80734548 -1.38339122 -0.18249757 -2.33276471
Ga 15.63850229 3.04110741 3.94765930 0.55092064 -0.10083859 -1.79216035
Ga 1.85363882 -0.01543894 9.54463329 2.08029848 1.07874370 1.31288113
Ga 14.22908890 6.09929819 9.51829496 -1.26762186 -0.79843423 0.08972707
Ga 1.84721519 3.10857211 9.56032978 0.57895969 -1.82550626 -0.97971152
Ga 14.21529371 3.15504199 9.48081230 0.53257845 0.19465802 -0.52419793
O 1.91886362 6.14136439 0.66264001 -0.26679144 1.79505597 0.02140277
O 14.25322462 6.20666654 0.64360766 1.21386285 0.16855566 0.68787341
O 1.88147206 3.11091319 0.69929403 -0.37450125 1.67551955 0.23990009
O 14.10601772 3.02275600 0.65100332 2.47015076 2.03832130 -0.69664702
O 0.43150935 -0.04629801 6.29795975 -0.48567589 1.33810970 -1.37923038
O 12.79711579 6.04453696 6.25170536 0.03269555 0.67983736 -0.25021356
O 0.54867790 2.96807860 6.37712051 -1.94542432 -0.77113829 -1.08032073
O 12.88896534 3.07738040 6.07786215 -1.61799674 -1.51648646 -0.45097726
O 9.05343010 0.04872566 5.08602946 0.66227405 3.18339635 -0.70886230
O 21.36436856 0.01760174 5.07681593 0.57651178 -0.49567501 0.87142202
O 9.09809446 2.97904738 5.04935760 0.49548028 -0.68738635 2.77006705
O 21.54400604 3.10048947 5.06914605 0.12572938 -1.50795585 1.21085798
O 7.72722894 6.11657346 10.71965776 0.39026270 -1.83145422 -1.76427142
O 20.05147759 6.08242619 10.70219585 0.57592886 0.57355323 1.91639462
O 7.71695917 3.01815229 10.65597404 0.31794756 0.52869416 0.87257609
O 20.12624565 3.03323071 10.78748437 0.92359752 -0.37370202 -0.97380510
O 8.06980762 1.59152662 0.60137688 0.01423484 2.21854395 -0.29972649
O 20.36290001 1.58381608 0.53175068 -1.17456278 0.02447304 1.54599135
O 8.06678425 4.63137728 0.58760025 0.52687782 -1.13977983 1.33500623
O 20.40811371 4.55178904 0.55509514 -1.20780639 -0.31081594 0.24039202
O 6.70147389 1.56790771 6.26259425 -2.27383364 -0.04178720 0.23965257
O 19.01262216 1.57720718 6.24708113 0.68148581 -1.83458483 -0.60002905
O 6.61929483 4.59103333 6.30823839 1.48284652 2.45667607 -0.05446932
O 19.03447400 4.55643467 6.22906980 -1.64438486 0.49044339 0.93780283
O 2.93478021 1.58505904 5.03360305 -0.45224390 -0.80552020 -2.96369217
O 15.32214354 1.50551925 5.21625649 -0.25234100 0.14263352 -1.27499898
O 3.00645708 4.53960850 5.07585699 0.24580758 -0.86828091 -0.26891779
O 15.33675377 4.60049392 5.13737607 -1.93037280 -0.28011288 -0.28769504
O 1.50119738 1.45972148 10.70433290 0.38978891 0.77525462 1.53612888
O 1.59454353 4.56888377 10.75164455 1.52315745 -0.48016673 1.48560466
O 13.94911922 4.63220967 10.63928285 -1.74492969 2.25062467 -0.95342389
O 1.36200947 6.06540245 3.31178361 0.33848449 -1.52669240 -1.72407171
O 13.78642654 0.01414111 3.17889915 0.37640100 -1.09928269 -0.96787924
O 1.40901754 3.10798600 3.23103399 0.59807098 -0.26033237 -0.30431558
O 13.77945976 3.04362703 3.27075503 -1.60475730 0.00417511 -1.04921150
O -0.04326948 -0.02967718 8.81701153 -0.61225852 0.24000903 -0.52696057
O 12.35822062 0.05337908 8.96364622 -0.36470007 -0.39729785 -0.40203331
O -0.02206778 3.07011991 8.86379910 -0.47581834 -0.55786289 -1.63947943
O 12.20226664 3.12052387 8.75559809 0.19073965 1.13183678 -0.09469702
O 9.53824100 6.09266485 2.45937000 -0.86554748 -0.61256057 0.70865024
O 21.90473532 6.11161856 2.48067883 1.43492039 0.03815742 0.47476577
O 9.64205760 3.02407859 2.52949677 0.34570978 1.29531027 0.57036536
O 21.93991830 3.02395690 2.40133918 1.37579101 0.99315194 -0.78455144
O 8.20814473 0.05646884 8.18712644 0.18343969 0.14528661 1.05643213
O 20.53281997 6.08461880 8.13634340 -1.61823181 0.80568120 1.52011829
O 8.19113385 3.08227090 8.20603977 -0.19862450 -0.54666092 -0.35452127
O 20.64812785 3.14901899 8.16108798 0.54276260 -0.86028821 0.79128303
O 7.56240526 1.47377344 3.15980915 0.50012446 -0.60011558 -1.78926922
O 19.82120070 1.49444851 3.24562647 0.13403184 -1.95187726 0.27879521
O 7.56651766 4.58826408 3.17123265 0.28360098 1.11977201 -1.29384115
O 19.88154386 4.60802139 3.25755006 0.70426898 0.94892112 2.07495072
O 6.24965145 1.51593777 8.90146766 1.60334719 0.39883558 1.20664230
O 18.51870011 1.55058151 8.91684041 0.67820602 -0.02157813 0.39186572
O 6.16304864 4.55684828 8.79703900 2.38835588 0.44610709 0.36714898
O 18.48856023 4.67345974 8.83459177 0.30079847 1.35869054 -1.78918103
O 3.40254365 1.46673547 2.41487668 -0.01158978 -1.06776049 0.11986317
O 15.75481528 1.62351612 2.46759073 0.88479615 -0.02159358 1.59524999
O 3.42029272 4.65968365 2.57809833 -0.67755812 -1.97708302 0.23623010
O 15.68110066 4.52335327 2.50470375 0.91429347 -0.96697579 1.33313672
O 2.11190165 1.52121550 8.16921446 -0.55971390 -1.97251622 -1.40982242
O 14.27693839 1.43901878 8.11394652 0.77056193 -1.43342894 2.30222755
O 1.96978284 4.53235321 8.11599089 1.38945283 0.02710758 0.69166012
O 14.46906405 4.59483356 8.21358942 0.21571344 0.62173261 0.29993662
O 11.93467403 1.46048031 1.51440117 -0.72050959 0.03195007 0.39533189
O 24.28762843 1.45097224 1.45262534 0.44649120 -0.39926086 -2.34703196
O 11.87010730 4.48009701 1.42617836 0.93451169 0.71688115 1.41125041
O 24.20157012 4.59943984 1.45443561 0.53815059 -1.20279571 1.64359332
O 10.56410995 1.50719741 7.00893260 0.71384671 1.64317506 0.28671870
O 22.86335851 1.66398496 7.01957711 -0.44056560 -0.47181918 -0.36139599
O 10.62074573 4.55348396 7.23044310 -1.45541339 0.36808223 -0.81013386
O 22.91702645 4.49772611 7.02359877 -0.29861990 -0.74841916 -1.00633937
O -0.90073601 1.45614317 4.19446939 -0.54822127 2.07292968 -1.81462335
O 11.42078790 1.58868143 4.18470710 1.05784740 -0.99836850 -1.32184595
O -0.80917465 4.60118701 4.28740459 -0.16544807 -1.50195790 1.81364483
O 11.37784609 4.53556727 4.15833998 0.92403609 -0.70622311 1.52029688
O -2.31012428 1.55235285 9.88060084 1.38236836 0.40431258 -0.82403782
O 10.09194029 1.59176916 9.81669633 -0.20131443 -0.87245215 -1.09880107
O -2.43092545 4.63834203 9.86141573 1.71886823 0.24607368 -0.60691697
O 9.90219510 4.66565455 9.90295353 -0.85747604 0.96452590 1.19034217
O 5.82255638 6.17169190 1.45803267 1.07054554 -0.09564364 -1.33086047
O 18.12046233 -0.00893647 1.43833888 -0.49583136 -0.75538571 -0.52532159
O 5.75566643 3.07522794 1.43042766 0.43789459 -2.01040991 0.77184427
O 18.16827856 3.07683856 1.45873024 0.42189636 1.81876038 0.14753808
O 4.35850427 6.12701104 7.09209052 -0.96432916 -2.31581601 -0.45943579
O 16.75646269 -0.05577674 7.13749944 0.26835654 0.02367633 0.40439100
O 4.43951989 3.11928421 7.08640269 0.73316021 0.47930209 -0.24561024
O 16.68534429 3.02093324 7.03836393 1.48790817 0.71359649 2.88482557
O 5.09226617 6.13199870 4.21425192 -0.95282816 0.42606048 -1.18946092
O 17.65185255 0.04472399 4.14278057 -0.04830553 1.72960588 0.35265336
O 5.10855163 3.03524739 4.22094447 -1.15312818 -2.00907641 -0.09284109
O 17.56601431 3.08385486 4.15001764 -0.00318032 0.26296092 -0.48414978
O 3.91467042 6.09536869 9.94967996 0.33428746 -0.40077962 -1.43744819
O 16.14569911 -0.00788170 9.95880381 0.07073888 -0.32611111 -1.28862162
O 3.78303194 3.09345442 9.82609262 0.24673270 0.38770385 1.22199340
O 16.08669201 3.09521249 9.85473030 0.04628773 -0.25732873 1.10952554
159
Lattice="24.849524 0.000000 0.000000 0.000000 6.152403 0.000000 -2.772009 0.000000 11.390839" Properties=species:S:1:pos:R:3:force:R:3 Energy=-622.556060 Virial="-53.082154 -1.289151 -2.803580 -1.289151 -46.627995 -5.095769 -2.803580 -5.095769 -38.399663" pbc="T T T"
Ga 0.13923372 0.02910673 4.43923529 -2.44526827 -0.20785118 -1.18893468
Ga 12.36463209 6.25419440 4.55510439 -0.08373902 -1.08415198 -0.12967602
Ga 0.08294881 3.00692653 4.53149067 -1.61057056 0.17079457 0.21897985
Ga 12.56340020 3.11346295 4.56580123 -1.88043571 -0.62429669 -0.25222478
Ga -1.40060110 6.16415630 10.17709086 -1.92938261 1.66912239 0.57451366
Ga 11.07527551 6.12077920 10.20935377 -1.94306004 1.45407641 -1.14057303
Ga -1.28651061 3.17115910 10.22459205 1.42937326 -0.82356311 -0.64967751
Ga 11.06235368 3.03151808 10.32043519 1.51699018 0.59428091 0.30735959
Ga 11.07715271 0.09287644 1.14422034 -0.49546466 -0.58215693 0.83126734
Ga 23.48852959 -0.12948518 1.18192495 0.04865218 0.09182621 0.38860309
Ga 11.13872134 3.17252639 1.21120773 -0.69576966 -0.10251705 0.83438408
Ga 23.37520201 3.02487166 1.16258338 1.08388852 0.40615338 0.01166927
Ga 9.61959748 6.16526128 6.79474438 1.69989559 0.09061197 -1.56066311
Ga 22.14028015 0.00988364 6.91896831 0.03993266 0.57700431 0.44734536
Ga 9.72768680 3.11855938 6.81015217 0.93871483 -0.01848365 1.37081844
Ga 22.04381956 2.92772948 6.78286622 1.03324367 -0.59952084 -1.06414938
Ga 6.24487829 1.52255943 4.53528536 -0.38194406 -0.53192209 0.61444749
Ga 18.70492718 1.64292457 4.53937439 -1.22108699 -0.50541641 -2.55074747
Ga 6.22691893 4.59292990 4.56951902 -0.99834753 0.16951008 -0.09963338
Ga 18.64591130 4.51727087 4.64540232 -0.77236019 1.81418219 3.25216790
Ga 4.77554783 1.41166505 10.20133487 -0.00604797 1.22341868 0.62194732
Ga 17.24710450 1.54722748 10.15799589 0.74816313 1.77626142 -0.71534830
Ga 4.74553877 4.55301088 10.31988451 0.09434609 -0.01148501 -0.16550538
Ga 17.24599222 4.54785300 10.25040847 0.65321708 1.04524371 0.69562119
Ga 4.78113296 1.55297811 1.11416930 -0.51457819 -0.05267967 -0.02412605
Ga 17.10953902 1.51942674 1.24497609 -1.50101695 0.29594523 2.73571650
Ga 4.69443147 4.54776138 1.15320741 0.71913134 -0.14424798 -1.47364984
Ga 17.28951858 4.68813595 1.16065191 3.57274044 -0.58744813 0.60650475
Ga 3.55119977 1.71624069 6.77768043 -1.05300717 0.37553843 2.51981042
Ga 15.89840739 1.50895025 6.85249413 1.25588648 -2.31673763 1.24976916
Ga 3.39626996 4.48027369 6.85661769 0.84107315 0.54189905 0.29659495
Ga 15.81212103 4.60622021 6.94762728 -1.20801132 0.84728276 0.23790019
Ga 1.51821740 1.62827021 1.78695414 0.66556326 -0.14020772 -0.57100335
Ga 13.97956817 1.56374747 1.85070237 -0.75002576 -0.30604110 -2.38848235
Ga 1.55371670 4.68794387 1.72655292 -0.07958721 -0.67328238 0.47392607
Ga 14.03474011 4.64809971 1.77565867 0.51962082 -0.16361360 -0.55954826
Ga 0.18888990 1.53114409 7.44330721 2.10635250 -0.59761583 2.33427030
Ga 12.55337602 1.59750851 7.48634909 1.83721775 0.27392661 -0.36682794
Ga 0.18970444 4.55858356 7.44556741 -0.77433171 -1.82238395 -1.88044086
Ga 12.57656745 4.48549252 7.51501862 0.04326644 0.61733036 0.13519680
Ga 9.50388805 1.53406844 3.83829897 0.72747504 2.59391916 0.41677641
Ga 21.87152870 1.53397606 3.96967002 0.77494955 -1.32668334 -1.31508296
Ga 9.40361314 4.62828971 3.72100867 -1.12072730 -2.13460510 -0.95951440
Ga 21.90480756 4.59760342 3.82435614 -0.11854305 0.59751357 1.63824613
Ga 8.09870118 1.63740289 9.66649761 1.45510446 0.23178041 2.91217761
Ga 20.49185569 1.46446769 9.68829117 0.73858610 -0.01518470 -1.03297343
Ga 8.07581843 4.57612539 9.58643714 -1.04073783 -0.97658471 -0.76713397
Ga 20.50592786 4.56682101 9.58607798 1.23318386 -0.23852991 -0.01542034
Ga 7.81937696 -0.17678394 1.79295777 0.27593588 0.26192167 -0.31093619
Ga 20.09850825 0.01941866 1.84854964 0.60507599 0.32035216 -0.42773929
Ga 7.73195236 3.14805956 1.92738088 -0.54507816 -0.14388058 2.94286726
Ga 20.13188441 3.12512743 1.60065995 -0.46607893 0.04163922 -0.52694233
Ga 6.37348859 0.03774603 7.40440781 -0.44255306 2.06960963 1.66338866
Ga 18.86444851 -0.02197308 7.43964859 1.98762267 1.27768633 0.04398208
Ga 6.38027749 3.12418335 7.53418681 1.20559975 2.60890982 -0.35994796
Ga 18.74790271 3.14926050 7.40675704 0.16187523 0.98765338 1.54069367
Ga 3.40665335 -0.10893440 4.01139223 0.76329495 -0.19914326 0.67872700
Ga 15.59645444 6.13648807 3.90724638 1.07424721 1.60571312 -1.67763680
Ga 3.28634798 3.00779012 3.85204459 2.80271707 -1.67191888 1.06263621
Ga 15.77997768 3.15828434 3.98797483 -0.78766730 -0.59749864 -0.71053311
Ga 1.77926620 -0.06707158 9.67308284 0.97998618 -1.61573948 -0.76579333
Ga 14.25742661 6.28461557 9.79496753 1.41592507 -0.12909487 -0.87777564
Ga 1.99328768 3.05868112 9.52659380 -1.20510902 2.76979704 0.35857827
Ga 14.24736424 3.09697328 9.55571278 -0.76741769 0.09947123 0.68718823
O 2.04657873 6.25551894 0.50102588 0.17466545 0.46024298 0.00390055
O 14.30155435 6.06778236 0.65517801 -0.88309275 -1.30162398 0.27857593
O 1.85169473 3.09979239 0.55685526 -0.27190919 0.32761115 -0.08503204
O 14.32518641 3.06297054 0.71246338 0.13943340 -1.67717437 1.84543930
O 0.48761224 -0.09659397 6.32784066 -0.55603189 -0.38909709 -0.73826238
O 12.85859939 6.17070142 6.31882446 -1.16025406 -3.78467349 0.27261326
O 0.53189822 3.03746446 6.26722315 -1.53513169 -0.33358647 -0.59931929
O 12.81974410 2.95649011 6.30658061 1.30310079 -0.28955755 -0.17816848
O 9.14092818 0.08417556 5.19224289 0.63896022 -0.86725316 -1.65871574
O 21.54611967 -0.04243964 5.11010862 -0.95917184 -1.60321137 -0.80035456
O 9.19957820 3.03773606 5.05986662 -2.21460387 -0.02828306 -0.89153675
O 21.64613482 3.07595442 5.15088972 0.43775286 1.14349102 -1.07133121
O 7.71657852 6.11610736 10.81251190 0.01596641 0.60884575 -0.59945699
O 20.19594438 6.20084035 10.79731683 -0.13804386 -0.56054737 -1.55969195
O 7.72359002 3.16370553 10.73789807 -2.09392931 -1.12037229 0.30138124
O 20.23636101 3.17398764 10.76794325 -0.10830842 -1.13293068 1.30926853
O 8.21999687 1.51478275 0.65684216 -0.61049961 -1.94199296 -1.44995035
O 20.47081081 1.60397609 0.58282735 1.93600496 -0.72619239 0.97169084
O 8.00045785 4.72524518 0.58230109 -0.92567624 -0.03385560 -0.30647080
O 20.47031857 4.54311701 0.70960235 1.54079790 -0.39962689 -1.16142878
O 6.71508817 1.46957480 6.38750683 -0.13477489 0.68674691 0.14669729
O 19.22289827 1.58910299 6.43619716 -0.11722712 1.09869929 0.19020226
O 6.79788323 4.54930518 6.35950861 1.64869826 1.99474251 -0.37554166
O 19.26558405 4.64448810 6.29794935 -0.49053307 -0.85876180 -1.31351798
O 2.99020476 1.64223409 5.00936580 -0.07719923 -3.17387499 1.74320450
O 15.37494552 1.52972727 5.05129278 0.90534787 -0.54289433 -0.33372397
O 2.99048469 4.54321152 5.16129212 -1.49416712 0.91363837 -1.51038259
O 15.37969294 4.61084035 5.09885004 -0.22574512 0.09557267 0.76198038
O 1.57470104 1.48840125 10.65979893 -0.44069271 1.65130096 -0.92184881
O 13.98630116 1.44040273 10.73379230 -1.89200464 -0.17385054 -0.36176329
O 1.42660362 4.63793359 10.79686022 0.47821020 -0.92344746 0.78808265
O 13.95302083 4.74716607 10.81495936 1.32001611 0.49044078 -1.27124387
O 1.37105751 6.06506399 3.21773048 -0.92472312 1.22666967 0.01126130
O 13.82300914 0.02715863 3.17208934 -0.39876609 0.98489083 -2.00373031
O 1.43062135 2.99182157 3.29119583 0.79833433 -1.55496048 0.21650111
O 13.86164526 3.16850021 3.26299322 -1.18683935 0.79343065 -1.18973568
O 0.08722990 0.02630378 8.83549314 -1.65925610 -0.90450169 -0.02372309
O 12.49656937 0.00857423 8.97617657 0.58016747 1.20271550 -0.01589661
O 0.08127278 3.07069642 8.79095411 -0.01497952 -1.21165804 -1.71402651
O 12.47885385 3.14896602 8.87278372 -0.29952747 -1.63289654 -1.35527645
O 9.62286002 6.11181749 2.49949682 1.65848173 -0.02566269 0.37546380
O 21.98150874 6.23130813 2.43574155 1.70758502 -0.09277710 -1.63304875
O 9.72417433 2.89601441 2.54270560 -1.23828746 -1.29395224 3.20688086
O 22.08466667 3.10817136 2.49824317 1.86828411 -0.79736627 1.71064127
O 8.25625962 -0.01255559 8.08385333 0.00773833 0.64767876 -1.54610462
O 20.87204130 6.19282750 8.29713878 1.33043746 -1.92149050 0.14179908
O 8.14706168 3.08660450 8.17894757 1.18593854 1.79298003 0.34090808
O 20.66206510 3.01311562 8.18763631 -1.04506103 -0.57355429 0.38249103
O 7.51992188 1.57870703 3.09729813 0.73987131 -1.13671941 -0.02334835
O 20.01747686 1.48637551 3.27165043 -2.30068975 -1.34319324 -1.84798464
O 7.60214607 4.60211777 3.19016725 0.38598074 2.66679535 1.12255690
O 20.01499427 4.69370898 3.12879554 -0.92419182 2.65249997 1.79002274
O 6.13491033 1.53302986 8.89596497 0.81133580 0.91061315 0.33662998
O 6.21716939 4.48300644 8.95625736 -2.10633783 0.05116724 -0.99409713
O 18.70409004 4.54071108 8.85541493 0.37668642 0.18154528 0.94213320
O 3.38586385 1.47219549 2.52033208 -1.34591448 -1.07138044 0.43666195
O 15.72285636 1.54031246 2.52599286 -0.19151036 -0.47741707 -0.30983304
O 3.42291992 4.54263945 2.44501978 -0.34379221 -1.91041014 1.29287450
O 15.83071656 4.71136337 2.50643363 -0.15968350 -2.77128520 0.66632604
O 2.07180338 1.50667828 7.99149598 1.26941934 1.78386183 1.59115569
O 14.42902675 1.56340787 8.17170616 0.09164896 -2.88840810 0.73924248
O 2.09507071 4.68745677 8.24744434 0.76186279 0.22139235 -0.18213481
O 14.53616576 4.62054828 8.10346158 1.05258691 3.43098673 -0.87041250
O 11.96966675 1.39844061 1.56177586 -0.87465178 1.07982801 0.17688518
O 24.56763602 1.51287277 1.48991803 -1.07808545 -0.67859315 0.12706760
O 11.94565226 4.53260589 1.47404100 -0.84029654 2.13649612 -0.57456070
O 24.37405622 4.59684941 1.37548884 0.64840467 1.45192727 -0.65653269
O 10.60097112 1.61002489 7.06511916 -0.83698931 0.84476925 0.12540274
O 22.91450073 1.53268144 7.11894859 1.23695177 -2.69601462 -0.05502943
O 10.56796930 4.72497905 7.11912589 -0.00023116 1.00179193 0.49697042
O 23.05937881 4.48525042 7.24816845 -0.03579785 0.01775804 -0.30569355
O -0.98660081 1.43591263 4.27270816 -0.27977548 0.49609859 0.69949389
O 11.37752752 1.58406387 4.16147410 -1.41643672 1.79421363 0.10857525
O -0.98489084 4.64706423 4.27638082 1.68979725 -1.30464066 -1.31086832
O 11.35198122 4.55349293 4.27897383 -0.55977105 1.65365871 0.83202123
O -2.41586213 1.54901420 9.94329689 0.41822486 -0.27001523 0.30098357
O 9.88163954 1.44351051 9.88615486 1.55303438 -0.60286657 0.51191969
O -2.39986004 4.64840671 9.91373378 0.02121175 0.27483850 1.45719574
O 10.03717546 4.56429533 9.97029553 -0.02593425 0.44756425 0.57564567
O 5.89740664 6.19811288 1.47547285 0.53304159 0.62750722 -0.41513524
O 18.24952919 0.10449446 1.46850199 -0.60310932 0.61535181 -0.32531020
O 5.89083128 3.02954821 1.51786683 -0.25787145 -0.94732285 -0.98414594
O 18.13247246 3.11286476 1.45534346 0.81826566 -0.17732808 0.36308460
O 4.50467304 6.15122462 7.19381694 -0.77510380 -1.48734013 1.22444219
O 16.78739670 0.08664407 7.16713334 -1.13436196 1.88709069 0.88771533
O 4.43480558 3.13073910 7.24388495 -0.77278540 -0.41539380 -0.14717988
O 16.79898439 2.98507842 7.17289142 1.92782480 -1.69211363 0.29822705
O 5.20509329 6.15466060 4.24215818 -0.71600109 1.01278294 0.43880464
O 17.73461105 -0.09254616 4.28116722 0.92687270 -0.78661964 -0.51262192
O 5.28092213 3.24244832 4.32345037 -3.15502168 -0.09831715 -3.81800158
O 17.63405875 3.06002953 4.22744600 -1.09188105 1.79947554 0.36386187
O 3.78119150 6.09768849 9.92558761 -2.19745004 0.21088396 -0.17181447
O 16.20654928 -0.04567716 10.02505100 2.56187131 -0.24590735 -1.71062759
O 3.90658328 3.03022952 9.95974688 -0.39383092 -0.70644272 1.70297062
O 16.24692542 3.23635543 9.86687254 -0.19777186 1.65287168 -0.89867239
159
Lattice="24.863994 0.000000 0.000000 0.000000 6.155986 0.000000 -2.773623 0.000000 11.397472" Properties=species:S:1:pos:R:3:force:R:3 Energy=-625.203419 Virial="-53.316971 1.236677 -4.121301 1.236677 -44.328645 -6.031859 -4.121301 -6.031859 -41.183296" pbc="T T T"
Ga 0.01565119 -0.02871848 4.48697691 0.57274897 1.10078783 -1.30698756
Ga 12.41109125 6.19049473 4.61047371 1.12314318 -1.25046196 -2.13874640
Ga 0.00673865 3.08262477 4.45813179 1.72522994 1.08748999 0.46156296
Ga 12.43792586 3.07246536 4.56361815 1.59469145 0.23377261 -1.15592089
Ga -1.37537646 6.10789573 10.20384072 0.07787245 -1.06586175 -1.31430686
Ga 11.08153438 6.19132624 10.23442127 0.08967683 -2.60753032 0.14452974
Ga -1.43048133 3.13927308 10.22349322 0.29278222 0.18979307 0.60604335
Ga 11.05923421 3.05350366 10.30568483 0.06625743 0.27824512 -2.42931031
Ga 11.01020461 -0.05694904 1.15712712 -0.82913852 0.22146427 1.18978317
Ga 23.39917006 0.01479913 1.14845838 -0.13860443 0.46481475 -1.02015218
Ga 11.06604912 3.12766202 1.11490096 1.05875560 0.20222616 -0.68748524
Ga 23.50061236 3.12566898 1.10254976 0.97395986 -0.24217099 0.24769869
Ga 9.63165197 6.15537430 6.91577820 0.81867841 0.52711793 -1.11304702
Ga 22.08660273 -0.03817452 6.81261706 -0.09858331 -0.23856749 1.10322873
Ga 9.61520476 3.00433364 6.84460581 -1.01611436 0.28006514 0.85933527
Ga 22.11525275 3.14865404 6.92416083 0.50195795 1.84124672 -0.22584260
Ga 6.31889454 1.62533431 4.51090972 -0.14008533 0.11586631 -0.82629018
Ga 18.65201889 1.62253200 4.51023419 -2.09202927 -0.86287685 0.33418256
Ga 6.22342824 4.66966753 4.54036451 -1.14940328 1.40197561 -0.72975385
Ga 18.62550158 4.66614427 4.53657806 1.24686379 0.31847833 -0.77727834
Ga 4.86827236 1.59124335 10.18720723 1.11853724 0.95767546 0.12849421
Ga 17.30985339 1.56743065 10.24544073 -0.82495419 1.21352775 -0.99609784
Ga 4.82172115 4.65196432 10.21783530 -2.05171773 0.32604775 -0.59463251
Ga 17.29562854 4.57662843 10.17651119 -0.20528107 -0.00159602 1.48170718
Ga 4.83311110 1.55175170 1.23088001 -1.25749959 -0.43414164 -0.81439898
Ga 17.17038835 1.56054315 1.12288967 -1.32746189 0.44744974 0.80338347
Ga 4.87938306 4.67461997 1.22437467 2.11921986 0.83717170 -0.74163371
Ga 17.21782663 4.63258792 1.24499536 0.97120959 -0.71541384 -1.54583776
Ga 3.44097210 1.51998544 6.87656703 0.77358506 -1.02736266 0.19858983
Ga 15.78075865 1.46361961 6.84505793 -2.28199936 2.73214130 -0.97754437
Ga 3.53907686 4.63467881 6.83906266 2.15856742 0.22641029 -1.50268738
Ga 15.79487951 4.66816362 6.91113310 0.35415189 -1.24690716 0.56444417
Ga 1.54012376 1.57444836 1.74616140 0.13667325 0.88794289 -1.68915848
Ga 13.94121937 1.52636940 1.74193096 -0.25072122 -0.63635511 -1.12767357
Ga 1.49588729 4.64616865 1.66897712 0.96083081 0.28322112 1.80053733
Ga 13.93307941 4.63176946 1.67306719 0.45453874 2.45853833 0.54933185
Ga 0.16648836 1.48175972 7.53124015 -0.93080984 0.42689310 1.54214350
Ga 12.60437041 1.57654565 7.47478180 -0.14601247 0.89773643 -0.03007800
Ga 0.13722594 4.59095949 7.54613357 -1.95967910 -0.43945032 0.77218751
Ga 12.56846245 4.69832553 7.39902791 -0.47112058 -0.86281892 -0.15166931
Ga 9.47790546 1.59917518 3.90755505 -0.52586490 -1.29426439 0.26241403
Ga 21.92352272 1.58049334 3.91078121 0.10633389 -0.38420590 -0.70074485
Ga 9.55087941 4.51777039 3.92362464 0.45041928 1.72149476 -0.81418992
Ga 21.80175882 4.63628226 3.82331551 -2.25630390 -0.17317069 -2.44224841
Ga 8.11206084 1.50869604 9.60789796 -1.11854263 0.27991385 2.16885636
Ga 20.58415685 1.51988526 9.60255593 1.14578789 0.59438337 0.55450788
Ga 8.13078029 4.58354626 9.58782278 -0.87978774 -1.05578848 -0.50840150
Ga 20.59930475 4.62726924 9.64782650 0.12743665 0.28318344 2.36029453
Ga 7.76456141 -0.05978424 1.77163790 1.40323040 -1.29146377 -0.18357113
Ga 20.15968275 -0.01013659 1.78387997 -1.12581909 -0.79132544 1.50223183
Ga 7.77926533 3.14052290 1.83834090 -0.90308809 -1.57461798 0.90564173
Ga 20.22437621 3.11232353 1.78047607 -0.55403236 -1.05777783 2.14048315
Ga 6.36905538 0.06216437 7.49296412 2.52729719 -0.62924753 -0.38972466
Ga 18.72657771 0.07216584 7.44855502 1.57564037 0.15918468 -1.02395452
Ga 6.28246075 3.02750189 7.49750348 0.29138348 -0.24058340 -0.01055379
Ga 18.78611596 3.06746213 7.49909353 -2.01267832 0.35739954 1.34923573
Ga 3.32881899 0.01202453 3.96911144 0.79015865 -0.74298696 -0.10664714
Ga 15.69235312 6.16879429 3.88405008 1.01293335 -0.94137455 1.14812745
Ga 3.26026542 3.01393435 3.87916517 -0.48305440 -0.91173258 -0.97186582
Ga 15.68553001 3.03818610 3.87827384 2.49994942 0.02961484 0.45378753
Ga 1.97308535 0.00035462 9.65181214 -1.76338912 -1.06312360 -0.04830389
Ga 14.30945879 6.16054144 9.58000611 -1.41424665 -2.17230856 -1.87571730
Ga 1.88523843 3.10613432 9.58115071 0.74125863 -0.81813094 -1.39558345
Ga 14.45511395 3.10533940 9.57523769 1.10486774 -1.56751591 0.79018947
O 1.85192391 6.26869952 0.58471703 1.32426229 0.96005900 -0.52614001
O 14.34649038 6.06683555 0.69741220 -1.23562795 -0.55244889 1.26302009
O 1.86862045 3.11128082 0.64299357 1.43339659 -0.87190324 -1.41446648
O 14.31113263 3.04098294 0.63875769 1.15892805 0.25685395 1.43956494
O 0.48686248 0.03210256 6.28763736 -1.58681901 -1.62994012 1.84336516
O 12.92945209 6.12322992 6.25425336 -0.06522846 0.13039809 0.67501951
O 0.49725904 3.12347009 6.39903935 -0.27737289 0.47067943 0.19653691
O 12.98122949 3.01728527 6.27548629 -1.11974818 0.63530203 0.58281327
O 9.18379193 0.03498905 5.14484155 0.28076949 -0.41823913 -0.18357548
O 9.15784076 3.03810234 5.14286035 0.99532213 -0.18698709 -0.86580298
O 21.62582355 3.02535532 5.08196907 1.80694400 -1.99638756 0.76807711
O 7.78448853 6.21435040 10.76543319 -2.42164637 -0.74497936 -1.01478639
O 20.22761889 6.15032284 10.71667782 -0.90791348 0.04844668 -0.23222851
O 7.87773524 3.14170572 10.81745167 -0.34758807 -1.39249951 -2.43845392
O 20.17095092 2.98101380 10.68589644 0.01149653 -1.48586138 -0.41656881
O 8.00312364 1.55622079 0.59054204 -2.37705073 0.09945675 0.91053717
O 20.56687615 1.55156370 0.62618847 0.33586471 0.75815718 0.09867923
O 8.15524834 4.57384921 0.61515091 0.50831268 1.80541823 -1.48697198
O 20.55911032 4.51764598 0.58688313 3.07474270 -0.56272863 0.79420906
O 6.65949673 1.53152067 6.30894378 0.79681819 -1.80838180 1.66186275
O 19.06032086 1.53632212 6.32443039 1.27505197 -1.22186367 0.30278904
O 6.69921173 4.62381883 6.40223122 -0.94987908 -0.77874785 0.30707451
O 19.20171132 4.58609347 6.29279939 0.66641365 -0.99920235 1.17150165
O 2.93654807 1.51366966 5.07980865 0.02135828 -1.28814666 0.38100978
O 15.35581788 1.56237598 5.07606970 -1.80723082 -2.53901135 -3.31814275
O 2.96365591 4.57327992 5.05699224 0.44095234 1.23693505 0.40518958
O 15.35993328 4.58441298 5.07884525 0.15743089 -1.17074319 -0.76351119
O 1.58013875 1.46859898 10.80495396 1.75242894 -0.06227681 -0.07937520
O 14.01504957 1.62000151 10.69106624 -0.62030194 0.58247913 0.19454030
O 1.53705295 4.63285688 10.77834733 -0.62037679 0.10642896 -1.18696534
O 13.90879593 4.65326185 10.74852183 -0.87454603 -0.20830019 2.71997069
O 1.29454697 6.20626786 3.11896059 -0.68729602 -0.61709559 2.45015323
O 13.81782039 0.01021699 3.21876510 -0.61199934 0.46814131 1.50563578
O 1.36011143 3.04024142 3.23949087 -0.90332761 -2.73329663 -1.88952439
O 13.80358742 3.02654244 3.24935836 -1.06720961 -3.14682622 -0.58301765
O -0.10860660 -0.02889402 8.86887667 -0.14922193 2.98128959 -0.84901621
O 12.32708221 0.06309343 8.94555621 -0.71560429 -0.80445196 -0.23348383
O -0.06465034 3.08861461 8.88416399 -0.47536285 -1.33333772 0.70146091
O 12.36160307 3.06979655 8.92337732 0.79255848 -0.83175615 0.20785326
O 9.62010876 6.11376751 2.42704062 -0.74611775 -0.27062525 -0.01055546
O 22.13671022 6.14095100 2.45868561 -0.36666142 0.62203842 -0.56769181
O 9.59988371 3.11949201 2.49979968 0.86816888 1.79213514 -0.05369638
O 22.06513709 3.05596687 2.50029699 -1.01636217 1.73521439 -0.15897223
O 8.31927531 0.01672681 8.18946453 1.05713778 1.77922449 -0.90679835
O 20.64667897 6.24324564 8.14324002 0.34281917 2.23382523 0.27295143
O 8.29824249 3.05174307 8.20783571 -0.64763454 0.15911394 0.40091242
O 20.67515004 3.09637377 8.20245327 -0.30500542 -2.47535354 -0.72920412
O 7.65251635 1.51031515 3.25546550 0.56274201 1.55677037 1.00194056
O 20.08442303 1.47383087 3.28407286 -0.14267297 2.01178178 0.65720402
O 7.58900025 4.54719000 3.18248545 -0.61313560 4.53141356 1.56093118
O 19.99683807 4.61830549 3.23273610 -0.35504770 0.27599302 1.21885074
O 6.15045281 1.52271099 8.95746142 1.94718306 0.26445542 -0.15070352
O 18.60719964 1.58595300 8.94400371 -1.60028215 -1.57050131 0.42937797
O 6.18167388 4.64283936 9.01273856 0.02630873 -1.04181626 -1.79132268
O 18.57897081 4.57372893 8.89242368 -1.51960211 -0.61024672 0.52118018
O 3.49797344 1.57548517 2.46932393 0.12185694 0.32760315 -0.82410792
O 15.81680398 1.58531196 2.51963222 1.37606109 -0.56970844 -0.29560463
O 3.51918689 4.64625622 2.60112029 0.68583956 1.01608415 0.47002628
O 15.90041224 4.65665603 2.46780608 -1.39999529 -1.86989312 -0.59979599
O 2.07774863 1.54606130 8.16302324 -1.84069786 0.73846469 -2.10158571
O 14.42471106 1.52708933 8.14305987 0.54482115 1.00008027 1.04184147
O 2.06374590 4.62482615 8.23587865 1.42922358 0.74621346 -1.22850004
O 14.52882320 4.62331544 8.18478269 1.33253871 -1.56877669 1.41181600
O 11.98137488 1.48537880 1.42859098 2.48058918 0.00259191 0.59009253
O 24.44332492 1.64530019 1.49238858 -0.64930629 1.46534143 -1.51855528
O 12.02625459 4.53464250 1.40149126 2.34449350 1.74644210 -1.63516715
O 24.47542271 4.60898411 1.43084314 -2.55574465 0.25823305 1.32374717
O 10.56754793 1.56428579 7.19036996 1.71167814 1.16264324 -0.32758668
O 22.99573656 1.59599308 7.20497905 -0.24248743 0.94793393 1.51932958
O 10.56435784 4.66346126 7.15978058 -0.18564123 0.59122677 0.72860190
O 23.04543020 4.63632294 7.23598352 -1.00995678 1.71300864 -0.57652731
O -0.95673681 1.52437274 4.28022427 -0.05153177 1.24421223 1.38387219
O 11.48787736 1.53838927 4.16974169 0.11274069 -0.95424957 -0.03599621
O -0.99399851 4.62903926 4.20013514 -1.92826492 0.96502225 0.78442685
O 11.52149803 4.64440070 4.25031110 0.22189666 1.58197937 1.04661446
O -2.33846123 1.53562522 9.94187831 -0.50534784 -0.45979653 -1.31036430
O 10.09422198 1.46115307 9.95599947 1.72466649 -1.58275445 1.67454574
O -2.33869298 4.71340364 9.95655322 1.26830522 1.25342694 -1.72362646
O 10.03964225 4.61238146 9.93747853 -2.87801506 -0.24887985 0.89678378
O 5.84925818 6.14145041 1.47694315 0.09190005 -0.79306892 -0.19946719
O 18.29182145 -0.03606064 1.49048037 0.35374751 3.58606590 -0.71600527
O 5.87641132 3.10304714 1.47058074 -1.34322287 -1.68728239 -0.06864078
O 18.22647409 2.97588663 1.48982309 -1.58060570 0.87624743 -0.64554817
O 4.35566083 6.18574018 7.06763922 -0.68729405 -0.49544962 2.73751277
O 16.93979048 0.08372465 7.18017740 0.85572876 0.46163193 -0.02193610
O 4.42454392 3.06750137 7.17248880 1.60788237 0.73018174 -1.46536386
O 16.91313399 3.07254445 7.23478711 0.54012288 -1.00743417 0.53940225
O 5.16133566 6.19547853 4.19981524 -1.00696106 -0.16125083 -0.68738411
O 17.68936705 -0.04968465 4.20767608 0.91454193 0.40966541 0.81616001
O 5.25936934 3.06281246 4.22081803 1.21392306 1.22913838 -0.46400069
O 17.76255691 3.09435806 4.23926474 0.86024305 1.96149211 0.93574262
O 3.84113005 6.14836481 9.97413467 -0.47067120 -0.04036467 -0.00129090
O 16.28109868 -0.04375106 10.01418135 1.08774010 -0.16798031 1.60712623
O 3.89262734 3.05832552 9.92110441 -0.75317539 -0.80093348 0.70951837
O 16.25646482 3.06773579 9.95339770 -1.05376564 -0.79730307 -0.61825572
159
Lattice="24.955160 0.000000 0.000000 0.000000 6.178557 0.000000 -2.783793 0.000000 11.439262" Properties=species:S:1:pos:R:3:force:R:3 Energy=-624.642185 Virial="-57.198931 -1.374248 -3.651759 -1.374248 -41.836791 -5.716084 -3.651759 -5.716084 -45.564100" pbc="T T T"
Ga -0.00965258 0.06483641 4.58276555 -0.01218621 -1.32951881 -2.03389662
Ga 12.49984516 6.26587036 4.55352519 -2.06099871 -0.64815792 0.64580749
Ga 0.05400280 3.00944133 4.65630526 0.27178468 0.50336714 -1.77008439
Ga 12.60771064 3.13383378 4.46365649 1.26805273 -0.30073434 0.57225431
Ga -1.36105049 6.20239542 10.23755541 0.64906336 1.16526468 -0.23185197
Ga 11.20661330 6.14425795 10.11381354 0.30974011 -0.69976541 0.07274618
Ga -1.42009023 2.97932913 10.22247244 2.72895334 2.44694640 2.93656302
Ga 11.09909287 3.04623328 10.17930722 -1.50103556 -0.87308467 -0.80854720
Ga 11.18474669 -0.01254200 1.18937837 0.68614527 -0.36624037 -0.21280598
Ga 23.64128986 0.05615434 1.18504683 1.25871866 1.77471039 3.22752109
Ga 11.02770730 3.05758129 1.20456385 -0.87787867 -3.48183018 -2.85516051
Ga 23.58406035 3.16152148 1.13529682 0.71499674 1.02467356 0.67691343
Ga 9.66998013 6.14178105 6.93248540 1.33789074 -0.07619902 -0.29548815
Ga 22.09313877 -0.01306838 6.71204469 -0.06189437 0.44177613 1.82594387
Ga 9.62679132 3.13419251 6.82594652 1.07244665 -1.84737677 0.61125392
Ga 22.21034965 3.04690353 6.81183150 -1.80785606 -2.01862728 -1.30727762
Ga 6.28077230 1.53294656 4.50775391 0.49436194 0.47736152 0.77322009
Ga 18.70196598 1.55461387 4.54430855 0.44151700 1.17472056 1.61213093
Ga 6.20227585 4.51976154 4.47440100 1.19247843 -1.67073881 0.07578279
Ga 18.67862769 4.73105780 4.55250547 -0.14524996 -2.27553507 1.14122818
Ga 4.81776275 1.55856882 10.24576039 1.46625954 0.06837636 0.13904497
Ga 17.32113011 1.44592665 10.39926551 -0.40979550 1.32648186 -0.07396384
Ga 4.86654953 4.66722101 10.19387982 0.89167057 -0.05681618 -1.05538296
Ga 17.44373773 4.50839691 10.16578726 -1.22254192 0.07994831 1.19590370
Ga 4.97484403 1.49503420 1.31009306 0.69601097 1.69068209 0.34942669
Ga 17.39587813 1.54352871 1.04752497 0.88862708 0.36863747 -0.07967987
Ga 4.89326327 4.74524355 1.14316253 0.44551954 -1.20293650 0.57636583
Ga 17.23970797 4.64503380 1.20983356 0.20373233 -0.28206763 0.36127916
Ga 3.58473930 1.53036769 6.93275551 1.28294538 0.44115994 1.69588343
Ga 15.92442865 1.45457121 6.93201510 -0.15725781 -0.52956424 0.08303617
Ga 3.41471328 4.66569740 6.82345549 -2.31018487 -0.28059822 0.73211531
Ga 15.85875634 4.52478754 6.89283334 0.88151369 -0.00297717 -0.03797358
Ga 1.51963914 1.52518774 1.83906197 1.82266705 1.16480222 0.47245273
Ga 14.06969065 1.47063259 1.81635393 0.80140420 1.81137742 0.09235533
Ga 1.49310785 4.57047731 1.62195884 -1.38032653 0.19455178 -0.67871347
Ga 14.07889690 4.52411185 1.84124403 0.92832899 -0.35732058 -1.95305551
Ga 0.11119120 1.65943546 7.59241137 -1.18194308 0.60265010 0.07629939
Ga 12.50620915 1.54964371 7.52283232 2.02371495 0.87272504 0.22561568
Ga 0.16063391 4.71772837 7.60086566 0.83518508 -0.51827823 -0.64465612
Ga 12.68935978 4.69259112 7.61527713 0.47177191 -1.04508556 -0.08221524
Ga 9.56736782 1.64415604 3.84959012 1.44691479 0.60758771 1.29390258
Ga 21.97974115 1.58187825 3.99188674 -0.00092973 -0.16077021 -1.26495226
Ga 9.60530049 4.51042137 3.92811359 0.49331258 0.82301529 1.69663666
Ga 21.99519566 4.70377893 3.88698399 1.70743421 1.22993869 -1.22565206
Ga 8.16414902 1.54796522 9.60795300 0.25996985 -0.91912430 0.35944894
Ga 20.67161993 1.53364500 9.68608656 -1.66143721 -2.30215397 -0.96368458
Ga 8.15487494 4.74536486 9.63367622 0.22257643 -0.18229923 0.78738830
Ga 20.66196063 4.54121284 9.56156475 1.76232936 -0.68896855 1.82207131
Ga 7.70558932 -0.10191256 1.75330842 0.43411207 -0.77664931 0.74906187
Ga 20.20607218 0.04140634 1.75298324 0.54826494 1.28053033 1.34826121
Ga 7.73805902 3.15678461 1.95603207 -0.97931946 0.44308207 0.96650044
Ga 20.38621356 3.13262511 1.82437650 -0.13327038 0.72143067 -2.17904400
Ga 6.34191267 0.02974333 7.66357339 1.16698781 1.43327605 -0.11815881
Ga 18.86524076 -0.04538323 7.53442137 -2.42353648 0.04158611 0.40116269
Ga 6.35354866 3.24118517 7.57514471 -0.19403007 0.83307146 0.90696639
Ga 18.90616419 3.03495487 7.45962927 0.36797872 -0.74055121 0.15583120
Ga 3.30495900 -0.08729035 3.89176695 0.51620567 0.58199237 -1.37154119
Ga 15.69428654 6.06738572 3.97094301 -0.86618000 1.08128710 -1.72335011
Ga 3.25048096 3.22124945 3.89654697 -0.53125891 0.58926940 0.09600219
Ga 15.81272510 3.23910903 3.83661576 0.71772180 -0.72233266 -0.51881366
Ga 1.81424253 -0.02358799 9.65851563 -0.51074944 -1.40122802 1.45532853
Ga 14.49633550 6.19924214 9.75743895 0.47095201 -1.85813578 -1.13233579
Ga 1.95912664 3.09187693 9.58764312 -0.05959734 -0.23833997 0.33417738
Ga 14.38971159 3.15652087 9.66903728 0.99599255 -1.29507985 -1.14356374
O 1.84592164 6.21064634 0.66568190 -1.69349429 0.15125901 0.21769314
O 14.34734647 6.19941192 0.62003769 -0.52617917 0.68162413 0.45683126
O 1.92753763 3.11940752 0.69052332 -0.28088319 1.32116472 -1.60879867
O 14.30580409 3.12210759 0.60226261 0.16974398 0.54133771 -0.48672916
O 0.47415919 -0.07188933 6.29587545 -1.70711451 0.57460752 -0.23315693
O 12.84744434 6.33131019 6.34355537 -1.49938167 3.02363237 -0.69637967
O 0.61343815 3.09109741 6.45207927 1.68209761 0.08037199 -1.31382210
O 12.89099982 3.19032904 6.29132751 0.76730500 1.81043954 -4.21616313
O 9.28029010 -0.01382716 5.17685336 -0.32402110 0.04436269 -2.21572523
O 21.59394043 -0.07499207 5.09194558 -1.21853194 -1.12033833 1.74666666
O 9.11046316 3.04053228 5.15699567 -0.79006306 -0.26879096 -0.38034045
O 21.64889654 3.10361404 5.10154913 1.60675816 0.34545960 0.22158963
O 7.81641617 6.17367913 10.79014563 -0.12847359 0.04952465 0.34741346
O 20.19398135 6.15635620 10.73554764 -1.45220251 -0.13880043 0.09515052
O 7.86103670 2.96482490 10.90778369 0.99398478 0.23332233 0.92959185
O 20.10588949 3.09877041 10.86721520 -3.86205563 0.98248668 -0.14093319
O 8.19315774 1.46838309 0.59131336 -0.77420275 -0.91632054 -1.02825605
O 20.59203617 1.49759858 0.54086359 -0.48779857 -0.51613002 -1.05950576
O 8.10407207 4.78607219 0.59174289 0.00353818 -0.39637858 -2.30397077
O 20.60731462 4.78202508 0.55761869 0.88903611 -0.08813247 -1.53460190
O 6.68934098 1.39778260 6.38158071 1.28859765 -0.40067587 -0.98161614
O 19.01011144 1.40817674 6.33968976 -0.04615189 -1.22283439 0.75756890
O 6.68815286 4.68371995 6.27256494 2.20309683 0.16768727 -2.36056168
O 19.17876913 4.67864145 6.40869720 -1.62293602 -0.59380520 2.33213004
O 3.13793169 1.49830265 5.16725247 -1.12127853 -1.52708185 -0.19120706
O 15.41386059 1.59933954 5.20876437 -0.51052621 1.13672656 0.96184375
O 2.93081995 4.72780444 4.92004882 2.72640503 -1.11699831 1.77288770
O 15.32824876 4.64308001 5.16136258 2.55664058 1.59022377 1.11971192
O 1.50632637 1.52285720 10.77399464 0.21451712 -0.36954615 -0.39245330
O 13.98567668 1.48697365 10.90225603 1.30857523 -1.02668775 0.50113277
O 1.46283356 4.59676883 10.70939351 -1.52300462 -0.67678898 0.07686456
O 13.99841751 4.63889351 10.81677378 1.62709701 -1.32323823 1.66465600
O 1.47277502 6.23369238 3.22526919 1.37143650 -1.04573432 -0.33923296
O 13.89288962 -0.05675967 3.27358985 -1.10249121 0.59735428 0.23832710
O 1.39764892 3.00893121 3.22719923 1.97917202 -0.02223435 0.40893428
O 13.99204368 3.11789077 3.19486470 -0.07004713 2.39207584 -0.59369251
O 0.00890254 -0.00974008 8.86436861 -0.69980333 -1.06899993 -1.09661037
O 12.40336807 0.00352536 8.95508306 -1.59414621 0.70401457 -1.82310097
O 12.43676139 3.17664996 8.96572682 -0.30901322 1.05772892 1.19102116
O 9.69928027 6.34318473 2.43955745 -2.32013099 0.03300836 -0.42855141
O 22.13576894 6.20363691 2.53217694 -0.70587237 -0.10774467 -0.61684975
O 9.62186259 3.07882901 2.49420099 0.19562506 -0.48049999 -0.82160629
O 22.24152330 3.11364655 2.48849612 -0.42503814 0.96807587 -0.20123292
O 8.45548529 0.05893610 8.30503120 0.01054306 0.01164464 -0.91063696
O 20.89151220 6.15695825 8.31838290 1.38195823 1.22074802 -0.44413630
O 8.27315607 2.95567829 8.25773774 -0.07978788 -0.08508348 -0.16328767
O 20.65783975 3.07647971 8.09082602 0.07627791 1.27178661 0.62759494
O 7.66648358 1.55210096 3.17704530 -1.55924750 0.32639581 1.19689324
O 20.18246649 1.49743057 3.14151697 -0.87492905 -0.22705969 0.26329726
O 7.78992881 4.64329511 3.19447574 -1.43209305 0.30752153 2.12061881
O 19.93412419 4.57448741 3.10621796 -1.83572424 -0.89155838 -1.34896124
O 6.24350095 1.62093507 8.96938176 0.70401166 -0.71416183 0.50340924
O 18.59553696 1.67870940 9.06223646 -0.63955724 -3.03143711 0.49088183
O 6.26711406 4.63345257 8.94717659 0.31416737 -4.06407973 2.20076151
O 18.73606598 4.70527096 8.95674164 0.09976634 -0.82475413 0.58600310
O 3.51163086 1.53401271 2.54151995 0.28929552 -0.56175922 -0.42047182
O 15.95396082 1.58322763 2.56784428 -1.46213121 0.42384904 0.24109667
O 3.61107032 4.71779444 2.38341765 -1.99605925 0.93592386 -0.06568089
O 16.02191559 4.46959151 2.51068394 -0.50480799 -3.09615478 0.28870100
O 2.06724286 1.64201729 8.20315018 0.21454143 -1.70003952 0.28353523
O 14.50913459 1.62537576 8.26246566 0.27235575 0.57703371 0.01424745
O 2.06413027 4.64406392 8.10403675 1.71822974 0.20393006 -0.02728815
O 14.53513634 4.59894638 8.18084549 -1.16938648 -0.12194739 -1.91151235
O 12.06008522 1.48824476 1.54982941 -0.26845108 0.69458737 1.30426138
O 24.71124211 1.59421023 1.28580584 -0.27374011 -1.12054489 -1.70040661
O 11.99179628 4.58687008 1.36360203 -1.09756404 2.29747667 0.41439567
O 24.52839188 4.59638344 1.48236275 -2.21303862 0.01297539 0.04638446
O 10.70188140 1.54828587 7.15017843 -1.05986668 0.51731155 0.96297047
O 23.04627392 1.59857563 7.15583230 -0.58221737 0.41848117 -0.24291020
O 10.68254176 4.55442776 7.27653319 -2.24595489 2.30285428 -1.87606010
O 23.19452486 4.59340954 7.03382186 -0.48211328 0.09960753 0.53369557
O -0.96678227 1.52282312 4.17029446 2.19439333 -2.12335918 0.07666536
O 11.45738727 1.42322785 4.31414479 -0.02985465 2.99303210 0.74578453
O -0.93568398 4.75213352 4.30492227 -1.06165451 2.32968660 -1.54128177
O 11.46481256 4.50074344 4.20519161 0.95252776 -0.14369852 1.45766042
O -2.29811371 1.65869785 9.95571998 -0.70927826 -0.29711974 0.83744893
O 10.13884782 1.46483495 10.08644093 1.09764893 1.35284124 -0.61810978
O -2.54205007 4.60815238 10.06959157 0.32580215 -0.24847442 -0.61967255
O 10.19077538 4.71289375 10.00910049 0.75255115 0.80356791 0.42396556
O 5.78807701 6.28600605 1.45494664 -1.43874547 2.08767645 -1.04043393
O 18.22226607 -0.04429156 1.37331567 1.52676862 0.53467810 0.01156048
O 5.88604395 3.11179163 1.52049554 0.31994828 -1.59200337 -0.42077688
O 18.31813670 3.23313687 1.46486132 0.30510608 -0.00423894 0.53962290
O 4.39598509 6.15075577 7.20004684 1.83833785 0.25987543 1.58566851
O 16.76567554 0.08078958 7.18529560 -0.95295173 0.20493606 0.11524940
O 4.38571170 3.14857449 7.18250197 0.33819332 0.83333897 2.32111197
O 17.04189520 3.05520371 7.15841513 1.20369531 -0.39886848 -0.09556512
O 5.24668360 6.14126330 4.34173264 -1.76248609 0.91968968 0.13680850
O 17.88143987 -0.04216715 4.25833632 -2.68515249 -1.16893464 0.58416733
O 5.28476725 3.15181670 4.22499809 0.57943786 -1.38287844 0.56026788
O 17.82697561 3.05577646 4.18363253 0.57156289 -1.55015392 -0.64760113
O 3.99627109 6.17172967 10.06591940 -2.92939459 -0.32901306 -1.84636181
O 16.20803593 -0.15104912 10.03355092 2.01702926 1.29957487 0.41058472
O 3.80714785 3.14932266 9.96627649 1.83193964 -0.83538546 0.00134817
O 16.27522673 3.11910222 10.05428123 -1.06548212 1.06576242 -0.70245771
159
Lattice="25.097475 0.000000 0.000000 0.000000 6.213792 0.000000 -2.799669 0.000000 11.504498" Properties=species:S:1:pos:R:3:force:R:3 Energy=-623.871946 Virial="-57.353828 -1.234572 -3.492465 -1.234572 -42.710419 -3.050204 -3.492465 -3.050204 -42.104177" pbc="T T T"
Ga 0.03508976 0.02362666 4.56291492 0.14356674 -1.36307826 -0.67681832
Ga 12.58318110 6.15479918 4.49616338 -1.20757132 1.87182484 -0.04192510
Ga 0.02252718 3.13196133 4.54059207 -0.76815530 -1.64002795 1.02182780
Ga 12.55692132 3.13119558 4.65422618 0.08086017 -0.57211380 -1.39531487
Ga -1.45983072 6.10745025 10.24972502 -0.86660498 -0.19814477 1.01429069
Ga 11.08173511 6.26187265 10.33746160 -0.97352875 -1.13749308 -0.56016270
Ga -1.37651327 3.19771880 10.27106515 1.17527573 -2.24306312 0.28593303
Ga 11.21398510 3.15513670 10.33675628 0.57492507 -0.64724003 -1.78543396
Ga 11.23274753 -0.02243287 1.19702886 -0.91685532 0.96177311 -0.16968279
Ga 23.72666489 -0.07315726 1.21220347 0.21057002 -0.42327416 -0.40510560
Ga 11.08914011 3.20961468 1.16243396 2.26708944 -1.90653627 -0.84618659
Ga 23.68399668 3.13763625 1.26244974 -0.27802902 -0.63611776 0.09794529
Ga 9.77581445 6.20187095 6.91456579 -0.91386295 0.23006068 1.40353744
Ga 22.31369820 0.06355133 7.04075296 0.10119229 -0.49962950 -1.46402704
Ga 9.79910677 3.10173791 6.90850306 -1.63432461 0.75471434 -0.34055750
Ga 22.33454542 3.12183364 7.02143153 0.43027620 -0.02718214 -0.11225542
Ga 6.29327673 1.55286644 4.54908918 -0.48426935 0.76311811 -0.19809148
Ga 18.82811323 1.62702609 4.48276794 -0.68158518 0.41953440 -1.48785846
Ga 6.21864886 4.61863034 4.62520925 0.24398840 -2.05819019 1.39715367
Ga 18.76785493 4.53022641 4.59307635 0.69438395 -0.87980556 0.08562974
Ga 4.81886217 1.50905112 10.31443298 1.34142554 -0.51822109 -0.10841253
Ga 17.48007919 1.55640302 10.35027503 -0.31603656 0.73767576 0.34879764
Ga 4.95191406 4.65658988 10.34515554 -0.00171160 1.15899307 -0.25490166
Ga 17.45145618 4.54288493 10.28189592 -0.67662804 0.53445392 -0.15249195
Ga 4.81819074 1.63559941 1.14055607 -0.37842366 -0.64497952 -0.89514009
Ga 17.30982543 1.55948142 1.22406771 0.85746040 0.32116021 -0.80138832
Ga 4.87679535 4.58786607 1.13492189 1.74514776 0.16717281 -0.79328928
Ga 17.41821063 4.66166352 1.20621191 -0.14973852 -0.34396893 -0.32721528
Ga 3.43434167 1.57091013 6.88613519 -0.69513481 0.83241636 -1.84564494
Ga 15.96998673 1.58996780 6.84875373 0.57611769 -0.69898457 3.50513236
Ga 3.49058707 4.72050663 6.89892014 -0.29604115 0.73086037 0.84179736
Ga 16.00607724 4.63044081 6.93744004 -0.81237426 2.60418269 0.06610764
Ga 1.59168732 1.53620254 1.77483822 2.04797959 -0.73417937 -1.63977710
Ga 14.09566807 1.54528624 1.80867996 0.78412194 1.40607925 1.25819261
Ga 1.50724442 4.65957810 1.72233989 -0.44364827 0.01621112 -1.13985535
Ga 14.07523201 4.65007072 1.77100979 0.50144797 2.81635212 0.64480323
Ga 0.14791694 1.52017584 7.62850694 0.32497081 -0.30159619 -1.65296719
Ga 12.71344467 1.59453197 7.62888109 -0.42778721 -0.68790130 -0.93838166
Ga 0.13277913 4.65329402 7.44277234 -0.69597927 -0.46483620 -2.84091357
Ga 12.72382293 4.71464994 7.64244356 1.38324968 -0.68470279 -0.10482552
Ga 9.58902726 1.62858995 3.91856847 0.75858381 -1.12648436 -1.49124037
Ga 22.16490974 1.66252976 3.93036260 -0.80454719 1.91656176 1.48736534
Ga 9.55463773 4.62558807 3.95267832 -0.66896499 3.36155332 0.73293281
Ga 22.14682756 4.59313340 3.94905346 0.59432536 0.18213566 0.45904941
Ga 8.21669910 1.47489463 9.61866694 -0.70907480 -0.92282520 1.14885210
Ga 20.74958622 1.64424605 9.73025736 0.65394813 -0.99022012 -1.53112057
Ga 8.12294844 4.71771250 9.70806042 -0.68463319 0.16467019 -1.09073677
Ga 20.78449314 4.69330861 9.65170392 0.96268078 1.12641455 0.31984897
Ga 7.76881161 0.01566295 1.69366840 2.45458172 1.84989688 -0.30641708
Ga 20.32813615 -0.02414615 1.85275881 0.82316573 -1.34451997 -0.38814930
Ga 7.77026118 3.11467502 1.81951311 0.41647746 0.74224968 -2.11169690
Ga 20.38234692 3.14642895 1.87015664 -1.57145720 -1.18100220 0.77896777
Ga 6.40167760 0.09039568 7.62853643 2.88806665 -2.01582506 0.32402122
Ga 18.89890516 0.10481754 7.61917251 -2.60812290 2.05825858 -0.34344672
Ga 6.36384484 3.18993114 7.58210757 1.21178480 0.52577731 0.00539683
Ga 18.92211778 3.06838022 7.49218535 -1.03179682 -0.77075205 0.76097068
Ga 3.28785065 0.03363338 3.94859468 -0.55473847 0.60372577 -2.10607808
Ga 15.89334940 6.16842529 3.96175025 0.11033238 -0.11753026 -0.29792580
Ga 3.31538718 3.06554634 3.86647274 1.11156746 2.07101067 2.57130176
Ga 15.92885031 3.12339646 3.98997784 -2.68387725 1.42390457 0.78455910
Ga 1.93389649 -0.00945454 9.64873306 1.80344517 -0.07666413 -0.31602051
Ga 14.47157114 6.21390870 9.61716183 0.12037037 -0.77079380 -1.46998855
Ga 1.91780422 3.17796938 9.68752059 -1.34260625 0.71362907 -0.10773431
Ga 14.47397155 3.12210667 9.73335162 0.60432695 -0.70155137 0.28294435
O 2.00156112 6.26532946 0.54993603 -0.26555156 -0.07928742 2.35461649
O 14.50240284 6.27304117 0.63280846 -0.68118380 0.88185700 -1.44646173
O 1.86170577 3.14144788 0.59633135 0.63624606 -0.92575526 -0.31011663
O 14.41658529 3.12587220 0.65998171 -1.60542767 0.64318336 -0.28971389
O 0.53298543 0.01001763 6.35059091 3.33973060 0.33668604 0.81742702
O 13.00812901 6.19602488 6.38986950 0.35334335 0.51285289 0.65974466
O 0.54941746 3.10356523 6.26301761 0.98629389 -0.26130495 0.95955762
O 12.99724156 3.05106107 6.38940325 0.93302125 -0.19174800 1.13451961
O 9.30162143 -0.04902848 5.08695174 0.75576148 -1.14081034 -2.47600864
O 21.79901135 0.00441379 5.06714716 -0.84761894 1.34565164 0.21995950
O 9.16545685 3.12137113 5.14439824 -0.32182674 0.73553736 0.04138653
O 21.73626584 3.12250341 5.14968021 0.70684496 0.09885685 1.18110637
O 7.93077335 6.20459304 10.87024934 0.73738566 -0.10474887 0.76668396
O 20.42210081 6.19749272 10.79550877 1.67987664 -0.46077401 0.02041530
O 7.80556238 3.09336790 10.85341936 0.73661494 1.09051781 0.99626625
O 20.38227661 2.98947475 10.98114031 0.04760859 1.18924778 -3.64367454
O 8.14748671 1.54499960 0.75059151 -0.15515758 -1.87362473 1.83922310
O 20.63457065 1.58329420 0.62680441 -1.25764933 -0.06355228 -0.38789738
O 8.16580827 4.66047208 0.59802243 0.75676555 -1.19586944 0.22345931
O 20.74393615 4.76166222 0.75689347 2.01572971 0.02318889 1.03825012
O 6.71468628 1.57575930 6.37533998 -2.12056389 0.83593725 -1.12063156
O 6.77063599 4.67696801 6.39024735 -1.65442473 0.36694078 0.36680423
O 19.32821973 4.66359643 6.27763439 0.76749774 0.08058630 -0.87056168
O 2.96663957 1.52816850 5.15745518 -0.84375034 1.08049411 0.40634176
O 15.49342067 1.52056835 5.13356302 1.25438598 0.89283334 1.67273434
O 2.96939133 4.65004294 5.10637671 -0.76995388 0.19315788 -0.05878362
O 15.56186890 4.70951837 5.11596852 0.92048932 0.25549749 1.91848153
O 1.57554066 1.66486010 10.85639802 -0.28991733 1.33592968 -0.26889818
O 14.11471768 1.43709521 10.86590856 -2.10376509 -1.82700256 0.67273687
O 1.56156314 4.59843187 10.84387622 -1.30264131 0.01482294 0.53364973
O 14.11415579 4.71247236 10.93618938 -0.86329648 -1.58891976 1.20716917
O 1.51562038 6.20425020 3.22924452 0.27075917 -1.74237653 -1.39191204
O 13.87647743 -0.02116794 3.17959184 1.58783576 0.39634774 -0.04525766
O 1.29731888 3.00692324 3.15189358 -1.41927757 -0.25032700 0.27796432
O 13.93512420 3.04953877 3.29726596 -2.33739418 -0.86725820 1.80668699
O 0.02661015 0.03364062 8.99023290 0.68525605 0.08369157 0.85782969
O 12.61806938 -0.05286293 8.89253420 -0.67921327 0.94413939 0.33949766
O 0.03532658 3.17337918 9.02518278 -0.05479821 -0.52377175 -0.41864973
O 12.57464982 3.15110374 8.93681354 0.70440749 1.12012443 -0.89083902
O 9.81133491 6.18827904 2.45274352 0.05718941 0.38802143 -0.05590242
O 22.30471816 6.26781242 2.47898381 1.09154775 2.04482182 -1.41705478
O 9.73382727 3.09536501 2.51676335 1.02464588 0.77127386 -2.93662222
O 22.35803929 3.06304027 2.54015605 -1.84640444 0.16480550 0.83342289
O 8.31832056 -0.06780497 8.27137293 -0.10815138 0.56718186 1.49741021
O 20.95808710 6.27139660 8.22285051 1.62424951 1.19941551 1.04079212
O 8.30108358 3.15506089 8.35137713 -0.99606548 0.07392192 0.17391208
O 20.79273122 3.05374218 8.28280224 -0.00890049 1.24456206 1.68146170
O 7.61023786 1.59865058 3.12012030 -0.81496886 -3.04339844 0.80142563
O 20.26972468 1.57375004 3.35142042 0.51531381 1.13135468 -0.71721456
O 7.60599968 4.66132676 3.30463916 -1.04860974 -1.43347946 0.07032540
O 20.16109552 4.71786679 3.23202294 0.11538890 -0.53527923 0.82395381
O 6.24734596 1.55960608 8.93665560 -0.72867936 -0.54021512 0.02648623
O 18.85251754 1.53984574 9.07250516 0.33965869 -0.21117506 -1.15974371
O 6.26452104 4.67256783 8.91212241 0.50579350 -2.03588897 0.22008496
O 18.86261306 4.68885489 8.96488451 -0.29791146 -1.15045869 1.52447548
O 3.53133689 1.62510785 2.48428669 0.88582747 0.36503449 -2.23129569
O 15.99832860 1.54044659 2.58551609 -0.88524171 0.90073405 -0.20351685
O 3.44470810 4.64706070 2.53086060 0.24393267 0.01684283 1.15908311
O 16.03413226 4.60584100 2.62992020 0.11338593 -2.58330328 -0.08472055
O 2.12379562 1.61613258 8.24484629 -0.82583989 -0.47270183 2.32047404
O 14.53821735 1.56280741 8.27732905 1.71214820 2.13981927 -1.15437942
O 2.15454126 4.68873152 8.16405687 0.06528151 -0.39765590 0.38084183
O 14.62093544 4.61889200 8.26504748 -1.51224596 1.92816386 -0.23731142
O 12.16645643 1.57353320 1.51057045 -0.05040392 -1.28400354 -0.18459351
O 24.59846987 1.53721731 1.54866684 -0.12246097 1.20102609 -1.09128019
O 12.21796745 4.56380483 1.51864835 0.88780489 0.75918086 0.30289340
O 24.67143092 4.59541747 1.43380145 -0.07195074 -0.33070666 1.12281037
O 10.78154783 1.53997303 7.18043087 -0.57448496 -0.74029075 -2.59303042
O 23.31380400 1.53703906 7.23746950 0.78967429 1.21400508 2.05557301
O 10.79770633 4.66798748 7.18916064 -1.14513779 -0.86806112 -1.62296213
O 23.31706108 4.67751399 7.23771938 -0.62002372 -0.59964513 -0.00732603
O -1.05581211 1.68901863 4.27550527 1.36731727 -0.35298214 0.41123517
O 11.48872846 1.53930807 4.28968940 -1.39888476 -0.65755770 -0.38194998
O -1.03024908 4.74344990 4.32099350 0.58837426 0.70348524 -1.40969140
O 11.67202513 4.70952632 4.36699822 0.01978655 0.89247451 -0.01679621
O -2.46052771 1.52859841 9.92889014 -1.71158011 -0.65862486 -0.10993043
O 10.15352575 1.57036514 10.02915053 -0.87792407 1.67991053 0.07997938
O -2.37993333 4.71484150 10.08055305 0.79206174 -0.98265183 -1.59503464
O 10.09561636 4.62481460 9.96055740 -0.23896391 1.21988300 0.43189173
O 5.78000055 6.15241045 1.48856066 2.85315102 0.26919255 -1.00707942
O 18.50200319 -0.06680279 1.44582004 0.17822079 -1.99710087 1.09219991
O 5.78391091 3.04062849 1.50461369 0.15442838 -1.50980786 1.89556353
O 18.39853083 3.07323384 1.45919800 -0.24478721 0.85455707 0.84970807
O 4.39745098 6.11174949 7.25276482 0.49801668 0.41188123 -1.32266787
O 16.90549882 -0.07884316 7.26291136 0.09793970 -0.50570350 -1.40244596
O 4.45549849 3.05703538 7.25668445 -2.30875698 2.34951524 -0.53970714
O 17.08343064 3.06328603 7.22842524 -1.27565503 -1.69331228 0.37852296
O 5.27531723 6.09394564 4.28265383 0.27916393 0.16890717 0.66690728
O 17.82731975 0.08162394 4.29492167 0.14672192 1.59113953 -0.94301996
O 5.28640947 3.11300995 4.19670403 -1.51088041 -2.65111014 -1.49422207
O 17.85389782 3.04187666 4.34933192 1.89233108 -0.94321264 2.84968648
O 3.89235952 6.23681266 9.99683260 -0.31696520 -2.76822342 1.05455040
O 16.36793680 0.06699248 10.01414230 -1.39468664 -0.88357608 1.10578449
O 3.87013341 3.11043776 10.10231042 0.28494074 0.10798037 0.59870495
O 16.37274705 3.05700334 10.08694100 -0.20977052 0.37314737 2.68805294
159
Lattice="24.773152 0.000000 0.000000 0.000000 6.133494 0.000000 -2.763490 0.000000 11.355831" Properties=species:S:1:pos:R:3:force:R:3 Energy=-624.090941 Virial="-53.420899 1.357292 -0.599915 1.357292 -44.911028 -4.046264 -0.599915 -4.046264 -45.900335" pbc="T T T"
Ga -0.00714549 -0.02057399 4.49348103 0.25746364 1.23315835 -0.07872178
Ga 12.39359110 6.15224506 4.50785043 -0.56785115 -1.72318035 0.04707383
Ga 0.02447690 3.13402439 4.50754209 -0.50688780 -0.98833358 -3.28761691
Ga 12.42156297 3.02711690 4.54435754 0.85653898 -0.97143904 1.10365811
Ga -1.32759245 6.10080498 10.20863629 -0.37559991 1.77018229 -0.78526904
Ga 10.97583016 6.17895727 10.18350063 1.45038171 -0.69348561 1.83861213
Ga -1.33167104 3.07389210 10.20834289 0.58286315 2.34213582 1.34842026
Ga 11.02930059 3.08063162 10.13926620 0.59384723 1.32906716 0.51973809
Ga 10.97009743 -0.05203237 1.11964321 -0.55637137 -0.59589673 -2.60182020
Ga 23.38576635 0.01823195 1.11814891 -0.79124495 -1.01293967 0.24489365
Ga 10.99712864 3.06903312 1.16883032 0.09613914 0.09007734 1.92233535
Ga 23.35152425 3.03003168 1.15696032 -0.48707811 -0.71756909 0.31025946
Ga 9.58576699 6.08670903 6.87541449 -0.03341352 0.12059776 0.26688240
Ga 22.03024690 -0.00596101 6.80753095 -0.05907715 -0.75557925 0.08392439
Ga 9.61337463 3.12456500 6.85512159 0.97238486 -0.63660978 -1.25618680
Ga 21.96124842 3.12795212 6.87417594 0.97619658 -0.60152913 -0.84996084
Ga 6.18011915 1.51505000 4.54901181 0.90405039 0.18802801 1.03614605
Ga 18.57164640 1.49276331 4.49314880 0.03284210 0.30712534 -0.27252452
Ga 6.17964967 4.61132433 4.55840282 0.09062592 -0.03435872 -0.47083252
Ga 18.56084276 4.63437336 4.53961420 0.55937620 0.95255901 -0.84397867
Ga 4.82731742 1.49435196 10.16866602 -1.87594389 -0.60862148 -0.46470393
Ga 17.18378766 1.50228645 10.20692402 -0.68998104 0.22944659 1.18189287
Ga 4.84241716 4.57908032 10.19761836 -0.19936842 1.03929817 -0.14902891
Ga 17.24630650 4.59168735 10.21801822 0.84599542 -0.39136819 1.04070451
Ga 4.72801964 1.54339672 1.19422280 0.02595202 0.96287033 0.36007719
Ga 17.19912441 1.55679900 1.16980645 0.87429436 -2.18766918 0.19881467
Ga 4.83562615 4.59794822 1.17277628 -1.46083044 2.30332561 -1.14890257
Ga 17.12337585 4.64203557 1.14279040 -0.19864248 -1.74863086 -0.49993103
Ga 3.43734291 1.55638194 6.81895801 -0.04328233 -1.09506379 0.06524996
Ga 15.73332032 1.48403665 6.83999867 -1.02775731 0.91208830 -1.18303460
Ga 3.45730208 4.61313286 6.80922095 0.27640053 -0.84762005 -1.61253145
Ga 15.80629597 4.61076594 6.86908005 -0.53761894 2.32054984 -1.35514926
Ga 1.55218262 1.52479715 1.83561418 -0.49292722 -1.29232479 0.29886481
Ga 13.93993333 1.48211098 1.79214054 -1.17472481 -0.67849441 -0.69375358
Ga 1.63194469 4.59192447 1.74504707 -0.30033828 -2.74014060 0.69070867
Ga 13.93491015 4.56595401 1.77103416 0.29387754 1.01023923 1.29937246
Ga 0.17178574 1.54013825 7.49322970 -0.43804237 0.31818171 -1.91937830
Ga 12.58100556 1.54066365 7.44417017 0.80327425 0.76982417 0.28738486
Ga 0.16081688 4.58633114 7.47506474 -0.47587725 0.13991364 -0.66721063
Ga 12.53422399 4.54749665 7.45558268 -0.17305925 0.19922128 1.06811303
Ga 9.44016862 1.49589979 3.93325604 0.75921151 -1.28366330 -0.51029581
Ga 21.82930942 1.53460000 3.78831080 0.98715244 0.43233098 -0.07196751
Ga 9.44444903 4.62799540 3.90610016 0.28242561 0.20386566 1.24774708
Ga 21.87511173 4.63908669 3.90819469 0.43296737 0.55783459 -0.38981292
Ga 8.04881861 1.50957497 9.60104197 -0.31130323 1.60382823 -1.53463691
Ga 20.48595382 1.52284415 9.54815308 -0.86041868 -1.16599624 -0.88584290
Ga 8.13623252 4.50365840 9.53663309 0.40981615 -1.66406236 -0.88491620
Ga 20.49147589 4.57292269 9.61658565 1.45091212 -0.38698909 1.86974331
Ga 7.74700772 0.01905944 1.78380329 -0.81680460 -0.07384111 -1.10690302
Ga 20.06388941 0.02382785 1.80247841 -0.23480610 -0.18512814 2.31086836
Ga 7.74717806 3.09472513 1.78564473 2.87016656 -2.43754903 -1.51767286
Ga 20.10098969 3.05772934 1.82370068 0.24017330 -0.10330919 -1.15989265
Ga 6.35417108 0.02540910 7.42731236 0.01262324 -1.34341045 1.23853439
Ga 18.73292194 0.08733771 7.47865656 -0.80304383 -0.30186578 -0.34649857
Ga 6.38368564 3.07361594 7.51718444 0.42608478 0.01777936 0.87982966
Ga 18.70828592 3.09107138 7.46790394 1.15722666 0.42440386 0.05944435
Ga 3.26989970 0.03687808 3.88038239 0.34616156 -0.31590924 -0.54485270
Ga 15.72273667 6.16292016 3.89738114 -0.86407764 1.87133165 -1.26127207
Ga 3.27535944 3.04309023 3.91993207 0.11375083 0.33986865 1.57595059
Ga 15.62552554 3.02645943 3.84317858 -1.16173768 2.72037331 0.73653527
Ga 1.94159664 0.06228465 9.59656915 0.48689565 -0.39036275 0.07126342
Ga 14.26786710 6.20347418 9.56213439 0.32621609 -0.78783754 2.01206030
Ga 1.89512870 3.08367991 9.58942222 -0.22409367 -0.48495134 0.26476144
Ga 14.30275957 3.09603771 9.57762001 0.82968737 0.06392531 -0.82985549
O 1.83262623 6.11574366 0.63144903 1.17013329 -0.37919364 0.15749705
O 1.88791392 3.10804494 0.63539723 -0.51744464 -0.44149080 -0.52811605
O 14.24495984 3.16836217 0.66344092 1.00082158 0.30314017 0.80795392
O 0.47821554 0.00778726 6.34239947 0.40620674 2.59243229 -0.34779917
O 12.86768360 6.13250410 6.27570260 -0.75513259 0.03653958 -1.17869029
O 0.49823729 3.05895112 6.34185070 -0.23170004 0.03684660 0.24755547
O 12.87969723 3.07370484 6.28119884 1.14170155 -1.63638799 -0.66661922
O 9.12755729 0.03467163 5.02801130 0.71449971 -0.23325172 -0.67624909
O 21.52013554 -0.01271822 5.10694460 1.73842099 -0.90745400 0.23256060
O 9.16757957 3.04165517 5.13256813 -1.17821542 -0.72466144 0.97360616
O 21.49318447 3.10673734 5.08451461 0.22216157 -0.32320118 -1.49865170
O 7.74990470 6.11664219 10.70330529 0.24645013 2.64806002 1.28154458
O 20.16286613 6.12763741 10.71953827 0.37648656 0.22525059 0.38571847
O 7.75232447 3.02292870 10.72714509 -0.26322375 0.74565681 -0.31453909
O 20.13500044 3.02562908 10.77573699 -1.87275210 0.18160260 0.06202767
O 8.01140812 1.57241054 0.64283286 1.28014347 1.16768564 0.20467152
O 20.43267163 1.53548265 0.61852731 -0.83345191 -1.39529896 -1.35252063
O 8.09031361 4.64552438 0.61688848 0.93232064 -0.29452351 -1.33034626
O 20.44306473 4.61524525 0.63761690 -0.73800358 -0.84901782 0.93086761
O 6.74347289 1.50230244 6.24550354 -0.04318979 -0.31793243 0.22461364
O 19.08146107 1.53527963 6.28990672 0.64011072 0.86986030 -0.96784154
O 6.68005368 4.62919777 6.30027992 1.42437058 0.21024011 0.65993297
O 19.04611095 4.57710541 6.22454229 -2.23116740 1.23354330 1.38981595
O 2.98423646 1.47546217 5.09269526 -0.15865292 1.14269760 -0.53322786
O 15.34137918 1.54278141 5.07702516 -0.11579885 -2.05069993 1.21637448
O 2.95725984 4.59741399 5.04483414 -2.36297913 2.84015178 -0.73609229
O 15.38241692 4.59000181 5.02453175 -0.89981023 -0.81097231 2.28457714
O 1.52387728 1.53201622 10.71494074 -1.17946721 -0.27890566 -1.78046774
O 13.94888662 1.52868977 10.75445205 1.25040383 2.07044173 -0.46828263
O 1.51976710 4.55549563 10.71973173 -0.89050076 0.03966684 0.83571155
O 13.95045371 4.65779001 10.75503771 0.88305994 0.68275719 -1.98054801
O 1.37805769 6.09765557 3.20146112 0.59526143 0.42714115 -1.11083865
O 13.78098330 0.00730663 3.18940372 -0.63798999 -0.60158836 1.07552609
O 1.37785522 3.04630857 3.20997270 -0.86202680 1.71355531 -1.45788923
O 13.80227082 3.01631816 3.19264822 2.03995961 2.30970184 3.45362425
O -0.02497313 0.04187619 8.88040413 -0.61106744 -1.45954459 -0.16755509
O 12.41712997 -0.00096470 8.96021547 -0.24617510 -2.09827956 -0.02756637
O 0.00030976 3.08573230 8.80178070 -1.68213753 0.95764119 -0.33948333
O 12.40356069 3.06983723 8.86042315 -0.33053064 1.30902599 -0.93698794
O 9.64409236 6.12259843 2.47029686 1.60682316 -1.10839407 0.37479885
O 22.00394335 6.10109490 2.47802211 1.93725642 -1.71408241 2.54019903
O 9.60154445 3.09498974 2.46415526 0.01816181 1.69693157 0.06953657
O 21.98124435 3.07754652 2.42521994 1.16572337 -1.90277753 2.16383279
O 8.24632946 0.01925410 8.14969499 -1.27053306 1.20729347 -1.57398909
O 20.67488011 6.11602739 8.09369763 -1.67530078 0.46355940 0.55844162
O 8.24554223 3.05460739 8.17926353 -3.06206768 0.92233005 -0.09703164
O 20.64284622 3.08287323 8.13070329 1.37372118 0.63508026 -0.99562972
O 7.54578785 1.51403785 3.22213475 0.07326983 0.91412683 -0.06736648
O 19.94884379 1.54687885 3.22908310 1.37148997 -1.32921867 1.16750103
O 7.58030995 4.58861925 3.21292094 0.74554686 -0.69679638 -1.08324652
O 19.96901038 4.59825281 3.21976662 0.45031722 -0.27713858 0.24369407
O 6.19318963 1.57609720 8.85544315 0.42719271 1.34668855 2.48588487
O 18.55493212 1.53306594 8.84764794 -0.61121908 0.84121836 -0.31944421
O 6.17874759 4.62266977 8.87360822 1.05268579 0.49919725 -0.34076405
O 18.62723445 4.59218519 8.89841978 2.27973025 0.71807452 0.36744783
O 3.45816971 1.52382671 2.51458098 -1.89467714 -0.52097761 1.29088101
O 15.80937836 1.53743857 2.49597135 0.21172811 -1.64416284 -2.24095967
O 3.44060147 4.61308141 2.52042702 -1.57751405 -0.21448811 -0.11724500
O 15.85276561 4.62524055 2.45451058 1.02520396 0.64981697 -1.23630442
O 2.05275454 1.57076657 8.18472598 0.11930089 0.05776896 1.85279945
O 14.41938985 1.47445004 8.15557857 -0.56923615 -1.23254332 -1.28454535
O 2.06611756 4.61906538 8.14152612 0.54937263 0.35636411 0.74727737
O 14.51203439 4.60172015 8.16602605 0.64445795 0.54240042 -0.17453811
O 11.96879616 1.56133259 1.48991340 0.54979302 1.15261452 -0.85812492
O 24.35799016 1.54001411 1.49126645 1.20087575 -0.12015308 0.83598247
O 11.96502431 4.57813731 1.41655926 -0.03811701 -0.35240102 -0.76971569
O 24.38194324 4.55272932 1.38971612 2.36591088 -0.33352890 -2.07114997
O 10.55237261 1.49351951 7.04623861 -1.32964812 0.33051030 2.49953498
O 22.98485361 1.56966390 7.16894568 -1.48407285 0.71574301 -1.36154620
O 10.62976637 4.63404216 7.15789172 0.69931635 -0.89515202 0.73327275
O 22.95383636 4.57291823 7.18768094 1.11273866 -1.47871929 -0.63124849
O -0.96793757 1.53025819 4.22179493 -2.09072309 -0.67215187 -1.02677412
O 11.42290090 1.47383380 4.25046432 0.98138487 -0.39232769 -1.33628934
O -0.96084907 4.62421858 4.26630344 -0.93813349 -0.88386111 0.99877125
O 11.41777227 4.66868729 4.23893507 -1.23031056 2.05272418 -2.05338874
O -2.34527696 1.51406537 9.87518330 0.23461782 -1.05126528 0.17949166
O 10.02417166 1.50726869 9.91301702 0.55001175 0.16265796 -0.91332579
O -2.37548793 4.56319973 9.94714987 -0.56299733 0.78563125 -0.22575309
O 10.07143679 4.57151655 9.94413261 -1.88795466 1.06023170 0.96824263
O 5.73736043 6.17559113 1.40115011 -0.66498694 0.76941439 0.20303132
O 18.18155867 -0.01994083 1.45540643 0.85395994 0.20691620 0.91704149
O 5.74566904 3.06382514 1.46901063 -0.38752517 -0.83088147 2.85379691
O 18.21728390 3.09208934 1.45708270 1.90225013 -0.22974712 0.17802675
O 4.42292061 6.08479503 7.09893528 -3.53726553 -0.12108781 0.25408825
O 16.78029812 -0.02302448 7.10763401 -1.53871027 -0.68083631 -1.85204569
O 4.40620019 2.99397042 7.12231400 -0.09258577 1.58553092 0.11881114
O 16.80998059 3.05668451 7.09493074 0.67424139 -0.24466336 2.32784846
O 5.21554102 6.11774019 4.22098950 -0.01270143 -0.14308618 2.47569051
O 17.59780760 -0.01049845 4.23116876 0.56799289 -0.07522638 0.35192255
O 5.18509974 3.14501824 4.20257052 0.77683018 0.69405144 1.41741525
O 17.62134836 3.02397597 4.26474276 -1.86166148 -0.03079810 -1.19416756
O 3.77497560 6.09651195 9.89497991 -0.11308280 -0.88069720 -0.66556952
O 16.26327730 0.04230899 9.85606919 -0.38059760 -1.03642638 0.95010283
O 3.84561928 3.07551189 9.83502766 -1.86161888 -0.54293671 -2.09085714
O 16.21700735 3.09777005 9.86692300 1.84846885 -3.19928621 0.13687816
159
Lattice="25.024861 0.000000 0.000000 0.000000 6.195814 0.000000 -2.791568 0.000000 11.471212" Properties=species:S:1:pos:R:3:force:R:3 Energy=-623.056193 Virial="-56.393994 1.496660 -2.544030 1.496660 -42.134047 -2.348920 -2.544030 -2.348920 -45.793954" pbc="T T T"
Ga 0.05692754 -0.00665360 4.53278928 0.01321991 -0.20213380 -0.40234071
Ga 12.52052833 6.27298995 4.57708678 -0.31883316 2.65219909 0.66815518
Ga 0.02946048 3.08766992 4.55530465 -0.14623194 1.20081987 -0.89960818
Ga 12.55932539 3.09231979 4.57691919 0.92689109 -0.67974557 -0.51276889
Ga -1.40054195 6.22422886 10.27838318 1.19097948 1.35463743 0.43883552
Ga 11.11480649 6.10604981 10.22907770 -1.33262374 -1.57089200 -0.10141981
Ga -1.38086574 3.09503060 10.31724297 -1.49562998 1.35487593 0.73623961
Ga 11.13186177 3.12857393 10.23177594 0.46739525 1.91038194 -0.70694652
Ga 11.16281348 0.01952534 1.10236024 1.08779451 -1.76911634 0.40199510
Ga 23.61031596 -0.03190500 1.18155419 -0.55406306 0.84761212 2.19649017
Ga 11.08065136 3.09097693 1.26468839 1.01765635 0.55153410 -0.91534842
Ga 23.71918959 3.05449395 1.16916290 -1.21722502 -0.81950730 0.42605847
Ga 9.72382324 6.22232607 6.98451448 1.23698336 0.21695654 0.72414336
Ga 22.25873828 0.00099320 6.95059055 -0.59915407 0.68266972 2.65671467
Ga 9.68542944 3.11738173 6.86082060 1.13459669 -1.42439043 0.86180663
Ga 22.27911528 3.06287835 6.82835869 -0.63062343 1.02027519 -0.36242550
Ga 6.27246091 1.51691474 4.50606188 0.66343523 -0.05276562 1.29725835
Ga 18.78994939 1.53886367 4.56612738 -0.66228133 1.19709571 1.76221684
Ga 6.28796863 4.61564636 4.57253583 0.39567741 -0.42885499 1.22528571
Ga 18.76281438 4.60870825 4.63815710 -1.26143771 0.57321017 -1.17237152
Ga 4.90241292 1.55121489 10.30200136 -0.79935105 -1.37733642 1.23492166
Ga 17.37452889 1.50833416 10.29947185 1.47664355 -1.38137800 1.90015585
Ga 4.90646496 4.74930911 10.29460051 0.32163923 -1.65546301 -0.52818867
Ga 17.39715890 4.67724256 10.32300269 -1.18712807 1.02550818 1.94832691
Ga 4.86090669 1.52160491 1.19613304 -1.34384543 -1.42684478 -1.07197396
Ga 17.38612358 1.47960901 1.22239172 1.03393316 0.95913143 0.38074838
Ga 4.83846674 4.63946998 1.16906335 -0.52119717 0.48130197 1.70584020
Ga 17.25424093 4.58888277 1.13867218 -0.05536660 -1.18167732 -0.04301946
Ga 3.42606361 1.50912041 6.88183841 1.58128256 0.25439132 -1.04502749
Ga 16.03568125 1.47607917 6.94162606 -0.24411171 -0.93698251 0.09373564
Ga 3.40676044 4.62963450 6.84384435 -0.97876193 0.86373384 -0.81024185
Ga 15.97962747 4.61868455 6.92831348 0.50479148 -0.16765058 2.11299644
Ga 1.65342074 1.50312494 1.76487393 -0.44963989 0.33669290 -0.69737692
Ga 14.00101379 1.55804694 1.75880922 0.71575723 0.34060804 1.70727066
Ga 1.56565948 4.65816627 1.84735853 -1.87447587 -0.97501993 -0.35910627
Ga 14.13556981 4.65954421 1.73887887 -2.39562660 -0.16306136 -0.04886412
Ga 0.17519427 1.61000571 7.53273156 0.73534407 -0.38122909 0.90931953
Ga 12.71159859 1.57761217 7.63387012 -0.39628037 -0.62693832 0.51502242
Ga 0.07377393 4.69020730 7.60096095 -1.79134533 -1.26859927 -0.42646010
Ga 12.68078456 4.59968381 7.61003600 1.72584354 -2.81698083 0.14043577
Ga 9.54634223 1.58234327 3.89272850 0.31029425 -2.43178383 1.20992505
Ga 22.08335585 1.54781407 3.99222649 -1.01527369 0.67242974 1.54095260
Ga 9.59369936 4.66297357 3.95305019 -0.21471107 0.73553947 0.32340903
Ga 22.07366565 4.62803495 3.94723388 0.29120315 0.86591304 -1.00863974
Ga 8.10198825 1.55511778 9.61079664 -0.23604312 -1.70183002 -0.27804803
Ga 20.68732233 1.61022884 9.68254201 0.62512999 -0.76365335 0.74642760
Ga 8.07416086 4.62115207 9.66416305 1.82148430 -0.42129987 0.57122757
Ga 20.70537803 4.69010253 9.69060944 1.50006424 0.07731030 0.31678676
Ga 7.85231847 -0.05824868 1.77003541 -0.67162753 0.14461247 0.47161757
Ga 20.37424906 -0.07076724 1.89364721 -1.95626656 0.06083577 1.19225765
Ga 7.75677696 3.13645463 1.73576749 -0.77223732 0.71677783 -1.41509540
Ga 20.33146974 3.13477908 1.80122811 -0.02679836 1.96811418 -1.87215646
Ga 6.36341398 -0.00856423 7.51287498 -0.30240692 -1.91187201 -0.77619085
Ga 18.95745914 -0.02791109 7.51110476 -0.38507893 -0.38789035 -0.42088064
Ga 6.43766315 3.04376655 7.60038652 0.50774489 -1.33309799 -1.04550035
Ga 18.96184625 3.09451644 7.50204864 -0.25402011 -1.14524227 -0.86327514
Ga 3.36654002 0.05321665 3.92534423 0.23526649 -0.65158589 -0.98849234
Ga 15.75795266 6.18988349 4.05117742 -1.43560301 1.11237255 0.19841190
Ga 3.40615717 3.09071582 3.95457693 -0.49971921 0.01228014 0.70938918
Ga 15.83176217 3.08039544 3.94441033 1.72946747 -0.24697412 0.90897435
Ga 1.91342244 0.04717846 9.66981032 1.14705639 -0.66387333 0.26380531
Ga 14.46570767 6.18477600 9.63908346 1.37712824 1.34333965 -0.88514837
Ga 1.91387900 3.14621861 9.68743237 -2.91929346 -0.23257936 -1.92247615
Ga 14.43337215 3.00988839 9.63798269 0.23045346 -3.01076938 -1.32872538
O 1.89763702 6.19189048 0.60759531 -1.55675041 -0.24466594 -0.59713934
O 14.41192785 6.15789813 0.68882977 1.46688842 -0.05053092 0.49164202
O 1.95531215 3.18989066 0.56050913 0.73441602 1.24482144 -0.63450292
O 14.36461881 3.11111974 0.70743865 2.45489107 1.01678655 -2.12551956
O 0.45081376 0.00366329 6.35422032 -0.05657207 -0.52843713 -0.44341657
O 12.98813103 6.26992781 6.40029480 -1.40305403 -0.61367133 0.97779077
O 0.56287307 3.15048274 6.41454059 -0.20307518 1.37934539 0.08703725
O 13.00006302 3.09202496 6.27627261 0.23795643 -0.95587600 0.96138129
O 9.22588371 0.03127101 5.16643352 -1.43955665 -1.06794856 0.63079394
O 21.78005239 -0.05632322 5.16805357 2.14312149 -0.32108851 0.62931670
O 9.29407662 3.10448247 5.10560530 0.50448856 0.07328363 -1.48920201
O 21.72687688 3.01993041 5.17597957 0.32595880 0.44744928 -1.19082065
O 7.83865754 6.23541139 10.87025263 -0.43554620 -0.39262118 -1.81387968
O 20.41591895 6.22058161 10.87666385 -0.69936627 -0.28550589 0.37232237
O 7.75136033 3.04675333 10.78637415 1.86114627 0.80909163 -1.01009727
O 20.27431401 3.04921352 10.81053675 0.64510356 -0.25561715 0.04964683
O 8.12252925 1.58797351 0.65727876 -0.06622986 1.26921974 -0.16480535
O 20.61216185 1.54250655 0.64903880 -1.66957374 1.40341881 -0.37832481
O 8.13967770 4.73390742 0.62806099 -0.05044518 -0.91373310 -1.13232127
O 20.56953725 4.69291499 0.69166376 0.06402907 -0.99410917 -0.58905202
O 6.74165790 1.57767741 6.34776880 -1.09852243 0.49592416 0.10778523
O 19.23173428 1.48390698 6.32182118 2.35771312 -0.18629168 0.20390068
O 6.68450249 4.61286810 6.32030638 -0.10054420 0.79839011 0.21863212
O 19.29563081 4.70216147 6.33795446 0.56592850 0.29444671 0.87893313
O 2.94763502 1.43140551 5.12087609 0.79803925 2.05134610 0.46743737
O 15.45264940 1.58840643 5.15466301 -0.83605162 -0.64137317 -0.00376119
O 2.94900707 4.56623282 5.11541692 -1.48614179 0.68309805 2.76386828
O 15.37023527 4.56798747 5.07406548 -0.95497566 -0.56589434 1.72767496
O 1.62906025 1.51978029 10.86757948 -0.74543145 -0.23147895 -1.39920811
O 14.07154947 1.54188152 10.87348177 -0.00518311 0.26770872 -0.58052888
O 1.56599341 4.72152078 10.89365463 1.07926045 1.02800408 1.76113294
O 14.09086708 4.61264879 10.90186868 0.58771729 -0.28833934 2.23493875
O 1.37507417 6.18072159 3.25216924 1.91749725 -0.49259529 0.47307371
O 13.94211711 0.01015061 3.28538499 -2.46896494 -1.11951325 0.71300298
O 1.34101308 3.04419257 3.21216309 0.91227145 -0.87828780 0.77530364
O 13.86144732 3.11801409 3.17470321 0.51420772 -0.43767188 -1.18567049
O 0.03979200 -0.08091652 8.95827354 1.30067655 -1.76057899 -3.67728374
O 12.55946672 0.03705425 9.00331259 -0.86142728 0.75980823 -0.00316612
O 0.01252026 3.06372257 8.97645090 -0.88187941 -0.03261548 -0.67626628
O 12.61757011 3.15153524 8.99094609 -1.58345525 -0.36032977 -2.10877773
O 9.73286016 6.14291288 2.46591579 1.70612790 2.09067006 0.54306214
O 22.13621489 6.14530354 2.53574532 0.98577496 1.17138826 1.42738241
O 9.75794151 3.02869889 2.50988222 -1.58360879 1.46501986 2.10108678
O 22.23965707 3.11739243 2.52666707 -1.47814491 0.20170217 -1.88808256
O 8.33005513 -0.10312631 8.20836376 1.84157482 -0.34911448 2.08905580
O 20.85548706 6.18627019 8.25717683 -1.31281685 0.32132955 -2.13334757
O 8.28553640 3.20165664 8.27692256 -0.48673159 1.75158521 0.16683315
O 20.80273796 3.16223664 8.21408932 -0.56687247 -0.33068433 -2.47661397
O 7.55637586 1.53256490 3.29027765 -0.57155655 -1.85782401 1.91078788
O 20.13619628 1.58316399 3.19663976 -1.97612754 -1.66216007 -0.26729582
O 7.62904709 4.65044939 3.22541502 0.49783588 -2.16671382 1.49861327
O 20.07993847 4.60951285 3.29104132 -1.98279086 2.72007829 -1.68537492
O 6.26596103 1.59072598 9.00980049 -0.58592622 -0.00997568 1.07248574
O 18.70971609 1.43997438 8.99649813 1.50958642 -1.44971508 1.47149484
O 6.27362007 4.60842101 8.90636644 -0.59449019 -0.32727605 0.69253205
O 18.78081270 4.68187580 8.96929505 -0.68454539 0.70609702 -0.82636382
O 3.52218466 1.56989279 2.50443775 1.11045704 -2.09102683 0.58021279
O 15.99502273 1.54376594 2.52772302 -2.19997499 1.94499428 0.31864340
O 3.46076152 4.53860935 2.46481681 2.96130947 -1.52008733 1.31930242
O 15.99742221 4.68128809 2.45287876 -2.13830721 2.51855221 0.41507172
O 2.12202004 1.57098145 8.15863931 0.08163997 0.53212354 -0.27066017
O 14.63166057 1.53851540 8.15990391 -0.00948917 -0.15941917 -1.31070012
O 2.06331184 4.63277639 8.21607136 2.19629923 1.01639050 -0.70760590
O 14.64691455 4.62662075 8.23795074 -0.11067583 3.29956196 -1.84563825
O 12.11901334 1.56688300 1.42324618 -0.41248203 -1.50065648 -1.89933086
O 24.62796647 1.53613275 1.48758756 1.32241748 0.65737257 -1.91670863
O 12.07054566 4.60126719 1.52869832 0.72754583 -1.52688592 1.00951042
O 24.68871015 4.62110280 1.41120388 -0.96109232 -1.15548270 -0.89427068
O 10.67575552 1.45685731 7.20746984 -1.17828393 0.64419449 -2.51726437
O 23.19386294 1.50132934 7.22197910 -0.20297849 -0.30408199 4.68461230
O 10.72257441 4.72743279 7.32387406 0.54958520 0.53153239 -0.14672949
O 23.21551411 4.63481937 7.16344876 -0.88083468 -1.08119707 0.01140105
O 11.48649672 1.57939352 4.21582931 0.68361209 0.19485771 -1.26184841
O -0.98867640 4.70215606 4.27264712 0.59259686 0.99993040 1.25651682
O 11.54236560 4.62367845 4.21299049 -1.31749873 -1.00653825 -0.71346905
O -2.35560266 1.54972395 9.97211584 -0.21751440 0.32099874 -2.06238004
O 10.18702963 1.54123153 10.07594154 0.83551307 2.00941346 -0.04116864
O -2.47204257 4.67449788 9.97423274 1.30038905 0.46482534 0.77454964
O 10.10267195 4.68785502 9.94821480 -1.54386240 -0.12878801 -0.62277135
O 5.83597377 6.18469984 1.44670369 0.11371760 -1.09976191 0.19042525
O 18.32077383 -0.00593827 1.43136728 -0.10733299 1.10752145 -0.51632545
O 5.83013488 3.10974505 1.40641284 -0.03177250 -0.67541935 0.36360823
O 18.36600946 3.09497468 1.45435091 -1.32451598 -0.17161319 -2.08526076
O 4.48578496 6.20219711 7.17409430 -1.87557579 1.29824270 0.22433417
O 17.01799560 -0.00722062 7.24028848 -0.44885448 0.31829890 0.54951663
O 4.44725724 3.05713370 7.23180989 1.75562756 2.27306843 -1.55646394
O 16.97281248 3.13671738 7.12312085 1.14818321 0.83866087 -0.03164203
O 5.24958084 6.21634328 4.27507818 0.33711794 1.03865421 2.50119932
O 17.72587692 -0.02425378 4.22939192 1.70225014 -0.06751042 -0.46887487
O 5.27159975 3.12842127 4.29904827 0.79861162 0.22372876 -0.57672042
O 17.83046916 3.07130025 4.17462907 1.76173949 -1.34931751 -0.30415408
O 3.91050101 6.13433224 10.06525072 1.70345596 0.99884445 0.04076842
O 16.37926498 0.01072370 9.91360231 0.57763189 -0.85475271 -1.10258423
O 3.85439923 3.17542651 10.04102709 -0.60765919 -0.80741699 -1.42195592
O 16.43433352 3.09847052 10.07676940 1.66230705 0.26627243 -0.57231172
159
Lattice="24.806619 0.000000 0.000000 0.000000 6.141781 0.000000 -2.767223 0.000000 11.371172" Properties=species:S:1:pos:R:3:force:R:3 Energy=-624.479249 Virial="-57.524698 0.126209 -1.865297 0.126209 -45.682832 -7.546084 -1.865297 -7.546084 -41.627513" pbc="T T T"
Ga 0.01126014 0.07543596 4.56963939 -0.49780935 0.13469103 -1.67346657
Ga 12.35224432 6.12016242 4.34536765 -3.69250974 0.91902076 -0.40584656
Ga 0.07550026 2.92221431 4.57467871 -1.87717144 -2.01996837 0.77092819
Ga 12.33664701 3.13031957 4.48080734 -1.37593198 1.13931677 -1.05248880
Ga -1.31823245 6.19272135 10.10744957 -0.15299493 0.45482937 -0.19474244
Ga 10.99529138 6.05708498 10.25754907 -0.63935354 0.31053728 1.52744505
Ga -1.31930493 3.10468677 10.11525540 -0.02843020 -1.25560178 -1.51649711
Ga 11.01613055 3.07851359 10.13408002 0.54233680 1.67467374 -0.44743819
Ga 10.99870504 -0.04940036 1.18169667 2.83403081 -1.71799551 0.84619503
Ga 23.49291716 -0.08912833 1.24270374 1.55631370 -0.21682726 -1.60551271
Ga 10.98425216 3.05920172 1.27880737 -0.20037092 0.32270133 -0.05437308
Ga 23.26686953 3.01804602 1.10349297 -0.44034636 2.17067172 -1.37582324
Ga 9.57715969 6.25682659 6.74457106 -0.84971343 -1.06002342 -1.50633460
Ga 21.93982561 0.15874233 6.90651452 -2.00534812 -1.00377116 0.27656156
Ga 9.55844206 2.96812044 6.86104080 0.36393357 0.99558032 0.61469281
Ga 22.00865073 3.11230483 6.80451829 -0.47128464 -0.07690149 -2.61517449
Ga 6.14294180 1.58888966 4.53266064 -1.55139185 -1.27132435 0.24912313
Ga 18.58187932 1.45696306 4.50133938 1.51539255 -2.68710091 -0.74149750
Ga 6.25073812 4.77930418 4.46137018 -1.05581801 1.19644956 0.06147040
Ga 18.60082742 4.70591924 4.42544130 -1.28027825 0.32243197 0.49053230
Ga 4.78393927 1.63005222 10.27466470 -1.82901439 0.13149674 -1.02543690
Ga 17.29492316 1.45722367 10.35762037 -1.29805191 -0.50483288 0.84447488
Ga 4.87995918 4.53450001 10.13553906 -1.89316333 -1.06974786 0.81373523
Ga 17.38227843 4.53131895 10.20674172 -2.37424165 -0.68630112 0.43234339
Ga 4.78458892 1.45535618 1.13964017 1.25469622 -0.68642807 -0.47400892
Ga 17.10478933 1.53503547 1.09668932 0.66841253 1.77046019 0.21758887
Ga 4.73450649 4.54086808 1.12252081 -1.33876210 2.39739848 1.33740912
Ga 17.21015747 4.55936595 1.20859263 1.32910159 0.94204360 -0.05385437
Ga 3.35521668 1.42359060 6.89374458 1.32152313 0.21841319 -0.23399907
Ga 15.89746695 1.45700542 6.93223178 -1.14198732 -1.11380908 1.71611004
Ga 3.48355392 4.60889995 6.86981081 3.13706461 0.36601358 0.51042222
Ga 15.83022075 4.67098915 6.91900327 0.75711148 -1.09045619 -0.39867086
Ga 1.47203153 1.50096348 1.74292801 0.45372109 -0.15507062 -0.28603156
Ga 13.89111895 1.52143970 1.78021982 -2.02075624 0.61380128 0.94996951
Ga 1.48927262 4.66299649 1.82869218 1.83630564 1.88126614 0.01856723
Ga 13.67326523 4.55802528 1.80886127 -2.05877752 -0.42115820 0.23512744
Ga 0.10818959 1.53255022 7.54479953 1.74534351 0.23105146 -1.03909257
Ga 12.48184697 1.39231858 7.27100108 1.60337590 0.07188251 0.80865190
Ga 0.16189101 4.51948874 7.45430269 1.41780489 1.09112523 1.24652175
Ga 12.54960534 4.62728767 7.61097081 -0.38063663 0.33462015 -0.93927548
Ga 9.44206171 1.54390941 3.95501202 -1.04640555 0.64994985 0.53896325
Ga 21.93495288 1.50961815 3.80885141 -0.60847666 -0.11470828 0.73797351
Ga 9.48307615 4.55758817 3.98940200 -2.02699541 0.84713022 -0.56566574
Ga 21.93568254 4.60820122 3.77801097 -0.15132389 -0.01242260 -1.21301207
Ga 8.17173418 1.53452343 9.58396839 -0.23895871 -0.06297095 0.80848522
Ga 20.43774504 1.45916153 9.70687955 0.30944199 0.17279530 -0.35065444
Ga 8.10621380 4.60361809 9.58324880 -0.80916487 -0.45017525 -0.21316116
Ga 20.53086359 4.56633625 9.66971399 0.12271501 -1.58822674 -1.75576078
Ga 7.77666930 -0.00859154 1.78316009 -1.02621666 -1.22973579 1.13880154
Ga 20.13458933 0.04757507 1.93663772 -1.36069439 -0.00887780 0.15524497
Ga 7.76801148 3.09939805 1.92384179 -1.27143612 -2.04802362 1.43077584
Ga 20.16596351 3.04541654 1.78673873 -3.20326788 -0.23750338 -0.39670408
Ga 6.35461472 0.15607552 7.44607301 -0.59849234 -1.01847798 -1.24175714
Ga 18.81178087 0.05134186 7.42174796 -0.29889062 1.45498408 0.09362877
Ga 6.29430857 3.04680836 7.44957619 -0.51597397 0.77077842 -0.48629421
Ga 18.85804003 3.13878812 7.50663273 0.77625112 -0.45937540 -0.56401290
Ga 3.37670807 -0.16616603 3.71748372 2.42771488 0.42763306 1.36656193
Ga 15.74232375 6.21466201 3.93694166 -0.68588301 0.40904991 -0.25634662
Ga 3.39769754 2.93123118 3.88390297 2.29231201 1.29139120 -1.57593357
Ga 15.65025922 3.12718003 3.82514949 -0.16381783 1.12301953 0.03764669
Ga 1.97050497 -0.00790257 9.56844043 1.22575140 0.69308380 0.38633229
Ga 14.30618976 6.07049292 9.61721120 -0.82081758 -0.79784432 1.41553776
Ga 1.94513004 3.10736460 9.49875427 3.39223491 0.56519326 -1.43309310
Ga 14.35963497 3.17258627 9.70869525 1.37125685 1.31863383 0.82855681
O 1.95267048 6.06849654 0.71807383 0.24778979 -0.48316020 0.41464431
O 14.25326266 6.16767172 0.46474417 0.99870600 0.65064675 -1.00426132
O 1.75874283 3.12289586 0.52528901 0.86578830 1.14104002 -0.75442037
O 14.29531461 3.04023261 0.75596023 0.09273115 -0.09163516 0.11439258
O 0.53049079 -0.01860125 6.20295622 -0.37933867 2.35742857 0.19036171
O 12.81637296 6.02196449 6.17935067 0.90203065 -0.29945254 0.18005525
O 0.41973601 3.05072677 6.43160327 -0.27326535 0.00243999 -0.53466388
O 12.92890336 2.98641253 6.29826220 -0.77360718 -0.55773575 0.23484363
O 9.12216357 -0.06153334 4.99622034 0.78212540 -0.12045053 -1.05018010
O 9.10121678 2.96938465 5.02618120 2.62658875 1.51071247 -1.19749634
O 21.51440419 3.14012841 5.05823237 -0.90556411 0.87356720 -2.06429075
O 7.78860303 6.07408840 10.81457370 0.51083679 0.23218157 -0.31121612
O 20.14917470 6.19776429 10.82289942 -1.48633117 2.10960926 0.45100907
O 7.56680084 3.12984713 10.86204681 -0.14686072 0.90095375 -0.03360457
O 20.05473066 3.17598267 10.83864736 -1.97767085 0.99110114 -1.43974272
O 8.02440152 1.50492691 0.69646731 0.32017789 0.61359115 -0.86024202
O 20.59993329 1.55587330 0.55662365 0.65285581 0.42923664 -0.27883261
O 8.17127627 4.68544231 0.60595395 1.65295237 -1.06093225 0.49978918
O 20.33591818 4.67646951 0.76429567 0.47580662 -1.53448042 -1.13355431
O 6.84109775 1.51264319 6.32159263 -1.78655899 -1.03589502 -1.10523748
O 19.09073926 1.59622017 6.34581369 -1.73932877 1.24386792 1.63537667
O 6.74510248 4.57789000 6.28431258 -0.26720228 0.91201299 1.19001077
O 19.22184048 4.72757883 6.16968268 0.82725436 0.88313997 0.77034489
O 3.02968601 1.57537694 5.06420766 0.39087132 -0.30919608 -1.03303268
O 15.36522937 1.50823001 5.06282754 0.63256499 -0.48426908 1.86629254
O 2.98933467 4.51462551 5.21145154 0.00292549 0.31485370 0.98436652
O 15.43242749 4.67162864 4.98994367 -1.31594957 -1.48532100 -0.70728099
O 1.65489576 1.38923781 10.63327438 0.30248907 -2.36083374 -0.99336860
O 14.02918703 1.49357398 10.84443622 -0.16390391 1.28330484 1.00436158
O 1.52139286 4.57949500 10.79930749 0.54968679 -0.35830289 0.15798921
O 13.89626032 4.69125321 10.78118264 0.74045191 0.98777972 0.72655513
O 1.41881217 6.04602780 3.24431076 -0.85481302 -0.55663580 0.78621684
O 13.82757822 -0.02859211 3.23507730 -0.71255606 -0.13800279 0.89195210
O 1.35385899 3.04618640 3.18879632 -0.71080716 1.54424621 0.16652021
O 13.85134415 3.05399044 3.26305872 -0.19709256 0.51178792 1.28123334
O -0.05420334 0.06835961 9.01510478 -0.46460327 0.91058410 1.74418455
O 12.49516550 -0.10294488 9.01685177 0.14679954 -1.51689028 0.94887389
O -0.10570713 3.15036559 8.88237686 -0.85687044 0.00707819 -0.46862693
O 12.40752256 2.95830942 8.93210368 0.91617957 0.04595767 -2.21249523
O 9.62784881 6.08232834 2.51676872 0.37995933 -2.56481497 0.25543909
O 22.02206799 6.12611684 2.45360877 -0.78962419 -2.51871991 -0.55313399
O 9.76988715 3.19277652 2.51983860 -0.74766823 -0.56987912 0.49092858
O 22.04203947 3.13341409 2.40818699 -1.47443134 -0.27623592 0.40984816
O 8.35802855 0.03818157 8.12246900 -0.26083917 -0.38931249 -0.12596875
O 20.67019742 6.16864850 8.04017039 0.96232157 -0.86089159 1.18274279
O 8.34213849 3.10504783 8.13121745 1.46545617 -0.25187672 3.04128650
O 20.56022252 2.98267609 7.99839107 0.32607768 -0.31876309 -0.00417031
O 7.56914466 1.54084275 3.23483493 0.04209387 0.49718647 0.60961480
O 20.00162054 1.65312009 3.26547280 -1.15816692 -0.93491290 -0.05514609
O 7.64674296 4.56090994 3.20227848 0.84536000 0.48113737 1.47210543
O 19.96971866 4.72257889 3.34552368 1.54571091 -1.50616552 0.29386576
O 6.24326089 1.39882914 8.79875725 1.59327454 0.16214693 0.73152674
O 18.65008515 1.47363316 8.74798873 -0.31787798 0.29222794 -1.09648912
O 6.27325550 4.77273253 8.85773117 3.06038981 1.09725970 0.92327073
O 18.47468113 4.62329325 8.96365428 1.52561224 -1.21998509 0.03433788
O 3.54071183 1.76402909 2.50014462 0.79977596 1.94085388 -0.35403733
O 15.98076196 1.50710889 2.48016052 2.64923830 0.19509111 0.30327144
O 3.40238900 4.61838296 2.67788863 0.78539701 -0.59178022 -1.32899059
O 15.83415042 4.48339668 2.59719896 1.02185047 -0.31312995 0.80176476
O 2.03349991 1.62258930 8.18998072 -0.64630012 -0.23993910 0.46117603
O 14.53197308 1.60361445 8.10880361 0.09881345 -0.46252259 -1.71179907
O 2.05054428 4.60181644 8.26917509 -0.41146171 -1.78193666 -0.28465866
O 14.46463276 4.56755986 8.15715925 1.24906759 -0.68231821 -1.69215230
O 11.92720978 1.44655811 1.41990213 0.23619433 1.43470582 0.86809153
O 24.21448398 1.42560334 1.46874688 -0.57644342 -0.46107812 1.38587942
O 11.96342730 4.45718485 1.47669711 1.61675013 -0.28719854 -0.48385618
O 24.24180004 4.50907203 1.38421839 -0.09821194 -0.94926673 0.35024028
O 10.58756152 1.37804222 7.25152580 -0.12558304 2.87833339 -0.20388243
O 23.02413049 1.45399380 7.25392217 1.35797116 -0.73949745 0.87568147
O 10.78017800 4.57739613 7.09708528 0.25948993 -0.23553965 -1.44337791
O 23.20096310 4.54671914 7.18288247 1.52570143 -0.62456632 0.30295065
O -1.06029576 1.53320723 4.18418384 0.13208418 -1.84352112 1.08917417
O 11.47736147 1.57176306 4.30870420 0.96150627 -0.22039278 1.96542675
O -1.02405732 4.58420829 4.06807603 -1.62142465 -0.26524885 -1.19203559
O 11.33449205 4.58609956 4.14053521 0.99766952 2.70642100 0.01477777
O -2.49425966 1.44087714 9.94453985 -0.40209475 1.04374156 1.19445049
O 9.93414456 1.51219702 9.89298674 -0.54956792 -1.19376289 0.50669533
O -2.51270334 4.64595960 9.90852437 0.54783314 -1.79890299 -0.93287100
O 10.17676227 4.61270035 9.98233435 2.00540300 -1.09550991 0.66620740
O 5.70422851 6.08751582 1.49580718 2.14315296 -0.18308096 -1.12148169
O 18.20037343 -0.06780481 1.50756771 -0.51016443 0.43815123 -1.41287635
O 5.77052096 3.00350969 1.46741753 -2.24884051 0.70214582 -1.42884847
O 18.14594769 3.00193640 1.45608618 -1.45271883 -1.32600436 0.74879876
O 4.41226922 6.08031420 7.17511328 1.38079110 -2.46153574 -0.40186595
O 16.66656771 0.04421039 7.18311301 -1.94947868 -0.46076590 1.65510446
O 4.39795545 2.99237635 7.21218265 -0.24044803 0.78675848 0.39011209
O 16.87788142 3.04200678 7.18307984 0.30075327 0.67274992 2.01065452
O 5.28811924 6.18141482 4.25145491 0.41494632 1.25298123 -0.04694712
O 17.57507437 0.04507962 4.32603603 -1.14814718 1.34278231 -1.49348624
O 5.19944112 3.06311915 4.22875040 0.13487176 0.44828747 0.24260388
O 17.64423592 2.97718001 4.18204853 -1.17720905 -1.00407189 -0.92498347
O 3.75418603 6.23026298 9.89434192 -0.57707518 -0.36046738 -0.26074713
O 16.16810282 0.04944032 9.92936670 -0.73293502 0.19212544 1.36859236
O 3.78004487 3.02291019 9.88023316 -1.33074158 0.00687890 0.28682412
O 16.14458074 2.88822227 9.82450313 -0.41653883 0.00924298 -2.65088318
159
Lattice="24.812715 0.000000 0.000000 0.000000 6.143290 0.000000 -2.767903 0.000000 11.373966" Properties=species:S:1:pos:R:3:force:R:3 Energy=-623.542720 Virial="-52.296246 -3.749473 -1.060288 -3.749473 -46.919608 -2.197743 -1.060288 -2.197743 -44.426606" pbc="T T T"
Ga 0.05147731 -0.05902387 4.54542303 0.08553695 -1.52465487 -0.70868267
Ga 12.40147101 6.12288192 4.41461130 -2.15688922 -0.33002658 -0.17477738
Ga 0.00844244 2.98326285 4.53080791 -1.50942487 1.62765434 1.46097963
Ga 12.38856430 3.05348698 4.60391603 0.83056248 0.02071156 -0.16417311
Ga -1.32539781 6.19520183 10.13358084 1.42121654 0.43127794 0.29700172
Ga 11.01895199 6.09658207 10.25455858 1.01021748 0.73141125 -1.02710632
Ga -1.27294382 3.09691663 10.28761838 1.46821288 0.64355533 2.32210001
Ga 11.02461774 3.12175930 10.04862603 0.82119114 -1.74886215 0.10420782
Ga 11.05437002 -0.07696944 1.11133947 -1.19898487 -0.82287041 0.89735802
Ga 23.43157742 -0.04667634 1.20185903 -2.63715119 0.60639655 0.05080929
Ga 10.96740874 3.08856702 1.20139166 1.07297854 -0.94268917 -0.91007278
Ga 23.44861181 3.10469823 1.17747143 -1.00601616 -0.12697064 -0.81834134
Ga 9.60370244 6.09176260 6.81173764 1.13250797 0.05134226 -1.06149012
Ga 22.03701040 -0.03894535 6.94492101 0.05221808 2.42957217 -0.53369335
Ga 9.58720666 3.10899360 6.83395806 1.16891422 0.41693455 1.91605627
Ga 22.02263499 3.17418072 6.79806557 -0.60217710 -1.98758599 1.47271344
Ga 6.22574293 1.54096295 4.57007268 -0.36491876 1.43453466 -1.90479795
Ga 18.57243795 1.48163371 4.48718922 -0.65414890 2.56175546 -0.48867754
Ga 6.17537633 4.63971933 4.57792497 -0.39486692 -1.23370930 -0.66314827
Ga 18.63240873 4.62093993 4.52590591 2.02939937 2.18780860 0.66846556
Ga 4.83475162 1.55801336 10.17954562 0.34342592 0.58635888 -0.89450862
Ga 17.21302820 1.56155796 10.24441829 -1.48805929 -0.52987170 -0.23996631
Ga 4.83084639 4.53190684 10.17352799 1.25532744 -0.05394942 0.04101173
Ga 17.30805124 4.62883584 10.21916123 0.66098895 -1.89543744 -1.74932441
Ga 4.85279515 1.43731367 1.15015133 0.03912053 -0.35447156 1.12718324
Ga 17.21978780 1.54206602 1.28932734 0.59534474 0.60179009 0.35455964
Ga 4.81758265 4.59273227 1.18653059 0.67346612 1.13543852 -0.75313939
Ga 17.14385733 4.65092972 1.22798122 0.69841385 1.21760545 1.95094194
Ga 3.43403740 1.55860144 6.74693493 1.50597608 -0.59664967 -0.76116793
Ga 15.85942825 1.63886250 6.83019822 -0.94231459 1.64683277 -0.95449390
Ga 3.44979124 4.64480591 6.82386016 -0.19741787 -0.75646235 0.15184540
Ga 15.87064934 4.67692737 6.84310910 -1.56930111 -0.65101669 -0.52300567
Ga 1.55658041 1.53937550 1.84411399 -1.38228915 -0.46310034 2.51843212
Ga 13.92637442 1.53450260 1.68796126 0.47640270 -0.20366753 1.07417858
Ga 1.42514484 4.59314400 1.74511595 0.18507194 0.34582642 -0.70153118
Ga 13.92544277 4.58415274 1.78163377 -1.39141877 0.13441903 -0.54837802
Ga 0.16628022 1.41714512 7.49916804 -0.84153466 -0.75323431 -2.57114280
Ga 12.52384326 1.51892536 7.56549734 -1.06089715 0.27339149 1.24441945
Ga 0.04599791 4.57216468 7.48342027 0.08585222 -0.34603967 1.43937641
Ga 12.57396557 4.59553235 7.51968482 -1.03949424 2.00335362 0.16571238
Ga 9.49930244 1.53571098 3.90097119 0.29193010 0.83564316 -0.15919113
Ga 21.94781653 1.43903947 3.85558010 0.31407500 0.65681436 0.29191615
Ga 9.47838655 4.65048331 3.99639227 -0.24625616 -0.17584767 -1.85525176
Ga 21.85220481 4.69299305 3.86602583 0.04434448 -1.01328635 -1.08468677
Ga 8.08096988 1.48408614 9.48217147 0.31786088 -2.27648898 0.93548512
Ga 20.55114056 1.58331447 9.59231758 -0.98560798 0.18274408 -0.08412842
Ga 8.15079704 4.63614294 9.58637400 0.30244847 0.69869945 -1.39901718
Ga 20.50683375 4.62426766 9.64165742 0.48752717 -2.43154474 -0.20779458
Ga 7.74082944 -0.00150367 1.74078364 -0.80721870 1.72745034 2.24104638
Ga 20.05108572 -0.08477117 1.68767691 -1.91118480 -1.06325924 -1.19246954
Ga 7.77234166 3.07402639 1.78768575 0.03889758 0.64585546 0.47659379
Ga 20.07666364 3.09485448 1.63942186 -0.28264998 0.89829550 -0.60709582
Ga 6.28725344 0.09892700 7.46477952 0.13845168 -1.72086902 -0.01461974
Ga 18.73257340 0.07012393 7.43613011 1.66628170 0.18760278 0.63131637
Ga 6.37300709 3.11454668 7.50095854 -0.77999217 0.03510672 -0.11390561
Ga 18.72635205 3.06834359 7.45904725 0.80981505 -2.07345691 -0.13192057
Ga 3.26334904 -0.00261205 3.86109748 -0.41490749 -0.96886941 -0.67953323
Ga 15.66782946 6.13022136 3.93514296 0.18018421 -0.50013063 -0.75371070
Ga 3.27058621 3.03428312 3.85897385 2.36916371 -1.61733719 0.51588125
Ga 15.63138391 3.10713345 3.87070695 -0.34753238 0.35047235 0.03149771
Ga 1.99146471 0.03110564 9.56487900 1.32285903 -0.54334629 -1.96691639
Ga 14.32807017 6.18537712 9.57254677 -0.73225393 -0.11597183 1.19252761
Ga 1.90484851 3.07773109 9.71138700 0.50809981 -0.00262169 1.67264965
Ga 14.23268490 3.16788975 9.64493937 1.66503719 -0.03335459 1.63214628
O 1.89356591 6.00181297 0.59201255 -3.02949205 -0.44424228 -0.52558108
O 14.27522273 6.12443963 0.56871810 0.57773767 -1.43426296 -0.22086368
O 1.89168806 3.07983554 0.64192934 -0.79301605 0.86137724 -0.44051686
O 14.31152714 2.96398673 0.52628289 -0.76162248 0.44305300 0.58008750
O 0.49433315 -0.08309462 6.33662522 0.40632842 0.33924888 -0.96539908
O 12.80140030 6.23801640 6.22934767 2.66561761 0.46667608 0.52270319
O 0.53400834 3.11681199 6.22005089 -0.18916709 0.69952852 -0.40044300
O 12.85487980 2.94419994 6.31915645 -1.40733961 -0.42672121 0.54099551
O 9.16415017 0.00235565 5.11009895 -1.50791053 1.31213536 2.06562249
O 21.60533891 0.07514713 5.11323919 -0.12718538 0.30179605 2.84695605
O 9.25547583 3.14650425 5.08618870 0.01476385 -0.48065678 -0.65653486
O 21.59785722 3.06196077 5.09161637 -2.26621215 0.50667781 -0.07639232
O 7.71869002 5.96357709 10.81909171 -1.94133637 -1.93880067 1.02776019
O 20.19331844 6.13644566 10.71608714 0.41147716 1.37478683 -0.37977005
O 7.75293346 3.04726985 10.68569459 -1.28475017 -1.69786403 0.60442774
O 20.21764284 3.08330560 10.76068570 1.00969039 -0.38693068 -0.80996850
O 8.05211228 1.50976544 0.54802580 0.85076676 2.06954773 -0.81103166
O 20.50725273 1.49198862 0.60862914 0.11150390 0.02185062 -0.70304177
O 8.01275309 4.68733757 0.71747046 -0.34079496 0.70271797 -1.42181103
O 20.39844434 4.50917719 0.63990078 2.15183272 -0.23165518 0.24661603
O 6.77126929 1.52488602 6.30922745 -0.31761562 1.60618647 -1.63543293
O 19.11705916 1.58923342 6.31241712 -2.79225524 2.61917173 -1.39374852
O 6.66403501 4.49449593 6.21273171 0.87448655 1.22475061 -0.48515616
O 19.06016587 4.67629597 6.29719529 0.51488243 -0.19867933 0.50822801
O 2.91259944 1.53338317 5.07974833 -1.17472505 -1.45450831 -0.89153676
O 15.39197609 1.55900721 4.99524727 0.74413393 -0.41107860 -1.99938223
O 2.94329626 4.63642770 5.04819164 0.51702799 -1.43461042 -0.06586933
O 15.24492332 4.61123615 5.13533383 0.29912422 -1.25232289 0.05296163
O 1.56809821 1.56375714 10.79025477 0.26729316 1.42580024 0.75142291
O 14.06168513 1.50065365 10.78286774 -0.83208028 2.32956858 -0.42769784
O 1.56592183 4.59991274 10.76468708 -0.22498360 0.52594117 -0.06211558
O 13.93386275 4.53726808 10.62045019 0.48937858 -0.23707990 -0.60473790
O 1.36238333 6.12876514 3.26787624 0.16521793 0.88991195 0.02751255
O 13.74442552 -0.02831039 3.20714867 0.21698096 -0.77389730 2.29093130
O 1.32066225 2.98695281 3.13790455 -0.95765903 -0.78613894 1.65134239
O 13.72852013 3.02914900 3.20009810 -3.32604335 -2.30225487 0.88692418
O -0.04409311 0.06031353 8.93225980 0.65896795 1.74264413 1.04283630
O 12.42209077 0.01586500 8.90198973 -0.65789090 0.36801196 -0.09365009
O 0.03131515 3.10931875 8.95491965 1.34330843 0.63190668 0.86258059
O 12.41454029 2.93463501 9.01584224 1.95052307 0.66947110 -2.41832946
O 9.72049171 6.14445950 2.53916568 1.47254206 -1.14968879 -0.46362872
O 22.03194831 6.15866270 2.49885149 -1.09247602 0.10590566 0.57161958
O 9.67428917 3.08593409 2.46555924 -0.30786521 0.45813922 -0.70815778
O 22.03648743 3.19144466 2.59469626 0.70566191 -1.00830816 0.57859747
O 8.30890549 0.03087436 8.13535465 0.46054872 0.77871736 0.51389067
O 20.64075726 6.14062755 8.13358925 -2.04426220 -1.93394249 1.11099188
O 8.28721114 3.07248088 8.20755731 2.14116201 -3.09853917 0.71300753
O 20.72908459 3.10826077 8.06821651 1.85591914 -2.60589042 -0.56818019
O 7.52496178 1.49967611 3.25530047 -0.26881145 2.00856849 0.35191443
O 20.01917143 1.53654200 3.31704617 1.11692126 0.56169064 1.86925883
O 7.57147299 4.59743521 3.22799224 0.81298653 0.60523383 0.54505107
O 20.03537641 4.52005019 3.17316819 -1.14583503 -0.35996510 -0.08602673
O 6.17722941 1.55532346 8.85160306 2.65209092 1.83845240 0.18550868
O 18.56640999 1.59577139 8.85098067 -0.88878310 3.10580405 -0.62817832
O 6.18645965 4.61823941 8.87541235 1.49836121 3.26868095 -2.37600205
O 18.57327458 4.60604277 8.85547132 0.96874144 -1.17537910 2.13972600
O 3.38803090 1.50579722 2.44111680 0.58670707 -1.74404992 -0.01610603
O 15.89772383 1.54488896 2.53299042 -2.15063473 0.22141241 -0.41182523
O 3.44753994 4.63538357 2.51696040 -3.34577452 -1.14683164 -1.18530409
O 15.82985816 4.56950005 2.55502130 1.70234527 -0.95685170 0.69136317
O 2.11631416 1.54116700 8.07055052 0.77501236 -0.03580506 0.15676083
O 14.47530246 1.45887360 8.14480305 0.59506941 -0.78260495 1.06177973
O 2.09658755 4.58553707 8.23197967 -0.75879878 -1.48352707 -1.19952745
O 14.39126164 4.62419918 8.14418891 0.41016547 1.23455444 2.06166797
O 12.02345708 1.52730261 1.47576541 1.84365999 2.55132669 0.14959247
O 24.37259709 1.53380286 1.35681010 0.08992365 -0.72826637 0.86265188
O 12.04019399 4.56050243 1.50696190 3.31306087 1.80642520 0.37174115
O 24.38138423 4.56586841 1.51719889 -1.04242030 -0.22833753 -2.12672137
O 10.77731846 1.52219960 7.20584066 -0.36327930 -0.36899172 1.32939327
O 23.03832628 1.50073560 7.16031270 -1.69964273 1.19050308 -0.21393681
O 10.62028554 4.64189355 7.09771738 0.76840244 -0.10731282 -0.65261652
O 23.05022909 4.62852951 7.12665411 0.41704673 -0.20978547 -0.81828200
O -0.80994599 1.53295850 4.14370725 -1.69217040 -0.85277174 -0.61627170
O 11.50467981 1.54153401 4.20030890 1.79396780 -1.97219535 0.80950341
O -0.85042967 4.63186152 4.25156520 -1.04885635 -1.75242992 -2.85908011
O 11.44364106 4.43593957 4.22767958 -0.16530986 -1.56217227 0.01060300
O -2.37486385 1.57853933 9.80122239 -2.13228284 -1.32441030 -1.67734905
O 10.08182907 1.52083912 9.93615943 0.54925984 -1.69108545 -0.10483217
O -2.32850094 4.67812279 9.86926600 2.02304883 0.36398801 -0.15402648
O 9.99590316 4.59324709 10.01570791 0.95603476 -1.40952546 -0.47997434
O 5.79397967 6.27649353 1.51523682 1.29603013 0.16464873 -1.31109633
O 18.17831413 0.04776512 1.49749931 -1.16570611 0.53510385 -0.41328237
O 5.78918519 3.06511900 1.51200715 -0.24853573 0.56668905 1.30129739
O 4.49801353 6.20455530 7.11461947 -0.06068805 1.27278399 -1.80791322
O 16.84038576 -0.05835853 7.10366576 1.63833461 2.30552652 -0.43981599
O 4.45833938 2.99679681 7.07164812 -0.50686862 -1.29887268 1.34316825
O 16.84659920 3.04439695 7.11653089 0.76320945 -0.75326756 1.24425071
O 5.27436314 6.08872277 4.23874416 -0.49076906 2.08114101 0.76766014
O 17.58646719 -0.02552822 4.22024097 -0.91404700 -1.71210747 2.10743561
O 5.13845409 3.03290278 4.20788839 -2.27749016 1.61301308 0.15401566
O 17.59002325 3.02747782 4.15378599 0.43192806 -0.57346017 0.25526826
O 3.76953804 6.13201609 9.85962494 1.96071884 -0.24016492 -1.67310779
O 16.28342115 -0.04635682 9.94138216 -1.61068531 -0.10533079 -0.77405704
O 3.84291884 3.05986751 9.88658448 -2.12878948 1.73946850 0.61648449
O 16.20692641 3.07063264 9.94894646 0.51854399 -0.69596276 0.39364597
159
Lattice="25.070046 0.000000 0.000000 0.000000 6.207001 0.000000 -2.796609 0.000000 11.491925" Properties=species:S:1:pos:R:3:force:R:3 Energy=-623.789721 Virial="-50.584481 -0.465442 0.065794 -0.465442 -48.516728 -3.052271 0.065794 -3.052271 -38.042904" pbc="T T T"
Ga 0.03004776 0.10810222 4.62688462 -0.18682818 -0.25447702 0.55194933
Ga 12.63142548 6.20884199 4.57617932 -0.71102870 -2.32696188 0.42675649
Ga 0.02014677 3.15950831 4.60344086 0.00549594 -1.38539183 2.30241638
Ga 12.55873764 3.11676508 4.54762898 2.25769884 -1.21225510 -0.62664255
Ga -1.40600943 6.27242393 10.30881961 -0.46445177 -0.89967685 0.27442244
Ga 11.11549809 6.32227509 10.42798781 2.04110800 1.04955316 0.30837991
Ga -1.41331387 3.10263971 10.44598759 -0.75730342 0.07741842 -0.40723476
Ga 11.18105417 3.02029927 10.33770930 2.18383776 0.02964268 -1.30044146
Ga 11.14920303 -0.03647029 1.19838901 -0.04680961 -0.43949612 -1.40779694
Ga 23.72255499 0.02315995 1.26214837 1.64944104 -0.90811645 -2.14926836
Ga 11.02864272 3.08110754 1.13909787 -0.54904055 -0.31457192 0.06078794
Ga 23.57325635 3.07260186 1.19690186 -0.91535141 -0.71379996 -0.38744236
Ga 9.77183599 6.15435261 6.98414990 0.06365272 0.61044898 2.08588034
Ga 22.14598800 -0.01502929 6.96647844 0.52186077 1.90529629 0.35790041
Ga 9.67396553 3.07503951 6.92036763 -0.11918707 0.35560289 1.54487711
Ga 22.33417878 3.07500988 6.97850285 -0.61087266 1.85146046 -0.35103039
Ga 6.26399314 1.67896331 4.51306061 0.14590838 -0.91374854 -1.08258636
Ga 18.79055797 1.59332049 4.54022301 -0.00656467 -1.40116479 0.27792121
Ga 6.18666066 4.65780313 4.58901344 0.48534381 0.94956466 -0.45779637
Ga 18.74877344 4.68841308 4.62681503 0.44669804 0.68273092 0.01779853
Ga 4.95760983 1.58599743 10.31521181 1.08062197 0.10250643 -1.00352861
Ga 17.33315916 1.61932538 10.29933498 0.32211207 -0.39697603 2.77592016
Ga 4.95000595 4.73921054 10.30778949 0.02113200 1.25737043 -0.20100567
Ga 17.48955239 4.57360796 10.28604244 -0.49015175 0.17690429 -2.20845130
Ga 4.83440171 1.53937751 1.09435705 2.39822437 -0.68753398 -0.07696850
Ga 17.30018615 1.55082867 1.15864232 -1.60127882 -0.74194534 -0.54280009
Ga 4.86451320 4.68039093 1.19335178 0.82552056 -0.94666555 0.00179103
Ga 17.35118507 4.69113643 1.17777153 -0.11467703 -2.11278578 -0.24650612
Ga 3.53765646 1.52250829 6.90404497 0.68010147 1.07757683 -0.02542644
Ga 15.93325872 1.64981006 6.87825851 -0.13889491 0.98522633 2.22675128
Ga 3.47043686 4.65845137 6.91966422 1.51001400 0.56527416 0.81395627
Ga 16.02934430 4.63803086 6.94658281 0.65866082 -0.43572965 -1.44498918
Ga 1.49628184 1.58048833 1.80373252 0.79858034 0.53311776 -0.15911953
Ga 14.13854817 1.50272325 1.74871374 -1.29397056 0.17865476 -0.22958756
Ga 1.56829942 4.69675143 1.87063615 0.28763062 2.10410350 1.32574191
Ga 14.18992689 4.67138382 1.76492233 0.44984570 0.91168896 -0.87498066
Ga 0.12674150 1.56251453 7.62296133 1.20318954 -0.00718801 0.44750904
Ga 12.70055872 1.64127651 7.54747228 1.25782777 -0.37277358 -0.30166141
Ga 0.07285578 4.67389488 7.50709809 0.64765931 1.17188562 2.24291533
Ga 12.68845443 4.67229144 7.64827154 -0.58836894 0.84425241 -1.00838640
Ga 9.61409626 1.49382498 3.88464353 2.43464321 -0.78342452 -0.07640091
Ga 22.12097465 1.64056413 3.95577063 0.64195382 1.08101460 0.86191835
Ga 9.57605123 4.71671246 3.89116355 0.53061228 -0.52374036 1.48730915
Ga 22.14660268 4.64976769 3.94112227 -0.54127818 0.15325331 1.55723686
Ga 8.21159394 1.61869714 9.70030809 2.14662940 0.79824595 0.41938949
Ga 20.75541019 1.51374376 9.72270240 0.09449112 -0.08618036 -0.08215994
Ga 8.28883161 4.67211283 9.59761146 -1.46076664 -0.57472747 1.43797343
Ga 20.67293122 4.66053823 9.77488860 -3.58391826 -1.04420790 0.29779780
Ga 7.92979734 -0.02443312 1.83312444 -1.61115610 -1.98756174 -0.40866280
Ga 20.40433149 0.02417905 1.83470441 1.41402352 -1.42961128 -1.75613377
Ga 7.79424080 3.12978896 1.80837242 0.92322230 -1.59330202 0.96248635
Ga 20.33908522 3.19746273 1.73919684 0.95155841 1.97791574 -0.76552769
Ga 6.40993614 0.04611174 7.57399534 0.64225794 0.69629202 0.21954903
Ga 18.87598513 -0.01747572 7.58273927 0.54151847 0.86247643 0.99558656
Ga 6.46358526 3.15563879 7.56097496 1.14836836 2.29827117 0.66039281
Ga 18.93756628 3.09700949 7.45228711 -0.42425266 0.50430185 -1.08647640
Ga 3.35274351 0.05628785 4.04444635 1.59555484 0.55417190 0.75000500
Ga 15.92003560 6.18172536 3.98332458 -1.09822836 -1.02312937 -1.80933576
Ga 3.34114927 3.03861631 3.96582325 1.04941781 2.43506923 -0.04241451
Ga 15.74018292 3.21901883 3.97943492 -2.04581912 0.80900467 0.82542735
Ga 1.91608898 0.09667575 9.83201531 0.14533285 -0.97411838 -0.18564508
Ga 14.39978391 6.14789446 9.68137473 -1.32414807 -0.44291746 -2.57631500
Ga 1.94938243 3.15531385 9.73008960 -0.27835736 0.95336089 0.46981254
Ga 14.39701405 3.07590866 9.70151715 2.19822157 -0.26899707 1.30559419
O 1.90241813 6.26974803 0.61367511 -0.47311235 0.70023071 -1.49316343
O 14.37785412 6.14754751 0.59630187 1.59685060 1.03402756 -0.40422410
O 1.99856521 3.16103460 0.70046439 0.33708330 2.87685928 0.39217995
O 14.47726771 3.14913868 0.59280970 0.96888899 0.41291208 0.09311141
O 0.47922741 0.06738087 6.38097992 0.12813801 -1.33215745 -0.41839758
O 12.96165134 6.26003080 6.33387361 -1.12202454 -2.03904729 -0.24826598
O 0.50935869 3.12469870 6.44975308 1.35144064 -1.20636481 0.74093000
O 13.03897566 3.11524254 6.37454526 -0.35003694 1.55144845 2.97202288
O 9.23627971 -0.01399922 5.09360993 0.23413516 2.03980844 0.00408601
O 21.85986808 -0.01792325 5.08158907 0.37519421 0.38405591 0.06621938
O 9.22847081 3.28448884 5.13888666 1.07498375 -1.15781216 -0.41310392
O 21.87072394 3.10939855 5.12206553 -2.12873076 1.01055599 0.69702312
O 7.82196573 6.23683099 10.85436115 -1.10812880 1.16701290 -0.75018768
O 20.32578536 6.16428803 10.82768736 -2.02189421 -0.03004787 -0.08605208
O 7.81234544 2.96966341 10.80172746 0.94173094 0.22815506 -0.25920016
O 20.38622705 2.98751747 10.96092705 1.97941435 -0.79591004 2.28433686
O 8.09715367 1.55758455 0.52521175 -0.75452990 0.94300849 -1.78987349
O 20.69082848 1.60732563 0.64192628 -0.16809223 -0.11417254 1.41492979
O 8.23453467 4.75958561 0.50718040 -0.08029565 -0.65345025 -0.56053205
O 20.76228808 4.71619883 0.64380314 -2.77607049 1.76066159 0.93874591
O 6.77886582 1.46612658 6.35631409 2.04394550 -0.04247754 1.90670883
O 19.24519134 1.63633503 6.38819329 -0.12185944 1.22465175 1.70353317
O 6.76135300 4.73024397 6.35624858 0.00182564 1.22480774 1.03419646
O 19.36619671 4.58875630 6.38094703 -1.42158738 -0.21750589 -0.43073545
O 2.91881238 1.63710829 4.98699895 1.37208615 -0.81599669 0.36304875
O 15.52244484 1.49992737 5.06991925 -0.96935509 1.17115048 -0.24551606
O 2.98355192 4.57120990 5.11549479 -0.45628555 -1.44766663 -0.93628255
O 15.57366929 4.61020074 5.00778422 1.41811855 -0.24809243 -2.04404935
O 1.62291854 1.50332278 10.77748334 1.76905412 -0.14945804 -0.96337962
O 14.03190159 1.60438807 10.92705756 0.57324167 -0.24490907 -2.33431060
O 1.55879888 4.76062316 10.90650372 -1.20926655 -0.42213084 -0.77349666
O 14.00460879 4.53390534 10.86071195 1.04065684 0.39802649 -0.68288710
O 1.26530932 6.10814248 3.18646446 -1.26979928 -0.10787510 2.19522591
O 13.81940153 -0.15084552 3.25851233 0.29345685 -0.59922265 0.51657557
O 1.38806645 3.14086284 3.25322825 -0.27752607 -0.22869292 0.29071915
O 13.95759618 3.16772752 3.24079717 0.34852503 -0.64104392 -0.23824280
O 0.00925616 -0.05432604 8.99502669 0.79113780 0.03218800 2.11254710
O 12.59999713 -0.03653666 9.01896870 0.93542246 -0.57600971 0.02594236
O -0.11449919 3.14364176 8.95286634 -0.24181191 1.15031652 -0.26314527
O 12.46456461 3.15666475 8.98049908 -0.44531194 -1.23950255 0.86497221
O 9.75104679 6.18339996 2.45400152 1.63262815 -0.60570035 -2.39208897
O 22.19282704 6.22218504 2.50346605 -0.14317375 -2.62441740 0.22333812
O 9.69412751 3.12777222 2.58126656 -0.47033682 0.42096125 -1.07385822
O 22.23191370 3.12307388 2.54391562 -0.50915040 0.88256271 0.10727714
O 8.29944448 0.02550831 8.25302384 -0.24432988 -1.13072984 -0.03415761
O 20.89178939 6.32042511 8.15265474 0.58798873 2.08949656 0.81036204
O 8.33173537 3.14154760 8.26573257 -1.91037022 1.51886264 1.10432875
O 20.93317146 3.12251994 8.20579746 0.15728513 -0.96178250 -1.63218137
O 7.69064770 1.58963363 3.16552519 0.17780134 0.88318730 -0.43806091
O 20.23528823 1.49954974 3.25963396 -1.18815083 0.14122489 0.91545580
O 7.76288941 4.79113301 3.23085031 -0.20389552 0.01013085 -0.86098876
O 20.04424766 4.68531938 3.18204650 -2.30502270 1.58363986 -2.30013549
O 6.29992274 1.57799869 8.88029086 0.59899495 -1.96723548 -0.62559825
O 18.74675256 1.50575689 9.01707906 1.00851141 -0.18839670 -3.05968347
O 6.26478055 4.61955685 8.97785002 0.76059600 -0.46998838 -1.34185569
O 18.84702452 4.63345907 8.93771229 1.33948323 -1.76166465 -1.80276785
O 3.44916349 1.55236224 2.51664576 0.52354872 -1.78266321 1.17738407
O 16.02698775 1.54237376 2.38538805 -0.29120613 -0.67447164 -0.43312437
O 3.48729049 4.70713873 2.52041018 -0.62742937 1.23829300 1.33591321
O 16.06048862 4.72344679 2.50707421 -3.40352485 0.64006547 -0.32657592
O 2.07533349 1.49483743 8.26694330 -0.62169494 1.38645585 0.35585386
O 14.48578557 1.64725603 8.20619800 0.48355455 0.95900624 0.50220165
O 2.07159544 4.62458088 8.22096262 -1.38872664 -1.61214175 -1.35975172
O 14.58474861 4.67527551 8.21122403 0.16626189 -2.97285005 -0.63483451
O 12.14757336 1.50092322 1.51030726 -1.74587511 0.55195622 1.08952137
O 24.66529938 1.58549026 1.46854155 0.13315625 -0.35440717 0.04361220
O 12.14234308 4.57640879 1.50577277 -0.27241747 1.76557534 0.85906274
O 24.78460918 4.69521090 1.45171278 -1.18024951 1.92677629 1.89611025
O 10.73865701 1.56641254 7.17298606 0.29230016 -0.00103379 1.20706357
O 23.18215136 1.48215741 7.20525982 2.48077621 -1.26490040 0.60534178
O 10.79222973 4.62794366 7.28936050 -0.75933005 1.54624081 -0.14414935
O 23.07950792 4.58829376 7.25925638 0.71736654 -1.04077004 1.82667403
O -0.95732703 1.49020188 4.30182934 -2.33865967 0.16990218 -0.28324848
O 11.55200510 1.56829200 4.27722079 -1.66551536 -1.33229976 -2.75981430
O -0.97217009 4.67679813 4.32150337 1.02252485 -2.00626833 0.74280448
O 11.63966826 4.61921772 4.21450340 0.17996721 -1.70411833 -0.39414326
O -2.28065570 1.52836253 9.98142831 0.36400763 1.66456009 -0.61012402
O 10.16993012 1.60918643 10.02860852 -0.77522830 -1.33848505 0.43552209
O -2.35294814 4.66962979 10.03206420 -1.53897135 -0.39845816 -0.57507741
O 10.11493045 4.72894432 9.93209358 -0.77297991 -0.37983738 -0.09615063
O 5.94078175 6.20885377 1.47220169 -1.09815093 -1.80346537 0.58008322
O 18.48642334 -0.02125133 1.53366848 -1.44933283 1.28204755 0.44338779
O 5.84102487 3.07053771 1.47261192 0.05326437 -0.68323944 -1.05318850
O 18.37549035 3.09376869 1.41337717 -0.06347733 1.96760079 1.11634590
O 4.51129424 6.17474475 7.27339890 -1.97112635 -0.01807823 0.71659072
O 17.06414657 0.01039945 7.18043263 -0.18359919 0.86995594 0.10975022
O 4.36579282 3.03863112 7.20830890 0.82248232 -0.20865584 -0.61576645
O 17.04594797 3.18318672 7.27127301 -0.51694579 1.70638716 0.01046199
O 5.35984924 6.15784590 4.35546035 -0.47642918 -1.47211423 -0.88179572
O 17.80679880 -0.02816559 4.25812764 -0.25972166 -0.16859766 -1.80023713
O 5.29098475 3.10462003 4.31995118 -0.05242660 -0.71415026 0.35617564
O 17.83348682 3.02337240 4.29224781 -0.53683743 -0.88839275 -2.20264553
O 3.79770624 6.25771578 10.06204455 -1.49829607 -0.01958475 1.23361830
O 3.83220110 3.07243926 10.08020674 -1.50091825 -1.10188050 -0.46752932
O 16.44200814 3.18082798 10.09341203 0.84412227 0.10507800 0.10185218
159
Lattice="25.140585 0.000000 0.000000 0.000000 6.224466 0.000000 -2.804478 0.000000 11.524260" Properties=species:S:1:pos:R:3:force:R:3 Energy=-625.077090 Virial="-55.885777 -0.829782 -1.728422 -0.829782 -43.130534 -2.954918 -1.728422 -2.954918 -44.587399" pbc="T T T"
Ga 0.06319594 0.09235329 4.45583211 -0.01220373 0.90686338 -2.35434315
Ga 12.52302651 6.09758440 4.62427851 -0.70687716 -0.94444674 -0.54919230
Ga -0.03392515 3.22098183 4.62813175 -1.29866074 -0.79611138 3.87662670
Ga 12.54174407 3.01087413 4.58041791 0.04115352 0.04053065 0.21620459
Ga -1.37624582 6.25185574 10.30114691 -1.09699198 -2.11499537 -0.83149556
Ga 11.23927104 6.27797189 10.36151861 -2.36924452 -0.76892188 0.82661679
Ga -1.40187146 3.10742257 10.34262323 3.61393322 -0.94768367 -0.47989720
Ga 11.20164242 3.16547129 10.39310504 -0.61544404 -0.07221729 0.74954239
Ga 11.13410341 -0.07925511 1.19637402 1.21733941 -2.41012554 0.10162010
Ga 23.66453932 0.08904406 1.25405028 -0.59904613 1.77991200 -0.44967341
Ga 11.03103118 3.13867461 1.25926624 0.90440545 0.52671347 -2.44739166
Ga 23.63018822 2.98151417 1.26914734 -0.75516658 1.01790453 1.38271884
Ga 9.58953603 6.17746639 6.94154907 -1.46435010 0.46361350 1.70284426
Ga 22.43603903 -0.07857803 6.92707367 -1.14284784 -2.03065325 0.84025441
Ga 9.65120700 3.12546772 6.84314802 0.32600753 -0.09611467 0.15693491
Ga 22.28668454 3.05831402 6.90284715 0.40643075 -0.38819442 -2.30475955
Ga 6.27452955 1.61282880 4.48829792 1.25502783 0.99188164 -0.71005918
Ga 18.95061150 1.48758627 4.57222876 0.44475187 -0.13232720 0.84772714
Ga 6.31711197 4.71452961 4.56516883 0.79886030 0.98960231 2.64384839
Ga 18.74705751 4.57494197 4.53086432 -0.25582778 -0.83059548 1.54446666
Ga 4.90423891 1.48270286 10.35142537 -0.26762032 -0.47639487 -0.31243630
Ga 17.63138979 1.61058944 10.30771330 -0.26154131 -0.94827180 -0.96595823
Ga 4.86889721 4.67754743 10.40942394 0.16648740 -0.15599976 -1.97123908
Ga 17.57117527 4.61858750 10.45512250 -0.18217822 0.81327023 -1.44265704
Ga 4.77879755 1.41070828 1.17329257 -0.22726485 -1.09415147 0.37642853
Ga 17.40001073 1.51417968 0.98916954 1.52825504 -1.05464578 3.09172231
Ga 4.99251316 4.74977325 1.19466404 -0.57324309 -1.35393004 0.94604958
Ga 17.51462242 4.79819128 1.26251482 0.40702353 4.14475450 3.64405344
Ga 3.39194981 1.48277801 6.85012836 -0.32378258 0.93358734 -0.29906001
Ga 16.14870442 1.52780742 6.86607344 0.66032992 1.06315452 -0.07827876
Ga 3.48214106 4.60374245 6.90716542 0.79053759 0.02212883 -0.30560901
Ga 15.96492962 4.73988210 6.92149999 -0.07435406 0.56891271 1.31416363
Ga 1.55419902 1.74256516 1.79993898 -0.24350442 -0.80416449 -0.07651916
Ga 14.24133542 1.58781343 1.72099591 1.14219407 1.64471240 -0.96340090
Ga 1.67714755 4.63465244 1.73471960 -0.17472556 -1.19925046 1.23101747
Ga 14.15793316 4.71744787 1.85539076 -1.77892366 -0.30633791 3.04569641
Ga 0.13251849 1.59075575 7.56271261 1.44196475 -0.57414562 1.03406799
Ga 12.66451642 1.54469110 7.55508553 -0.93467532 0.44570002 -1.82774143
Ga 0.23076392 4.66451174 7.59336178 2.51048959 -2.07874151 0.80675493
Ga 12.81742437 4.76807703 7.55581036 -1.02751671 -0.42562092 0.46786886
Ga 9.57467085 1.49050601 3.97099272 0.86283099 1.07214615 0.47178474
Ga 22.12915283 1.55313382 4.03203755 1.80555027 -0.47741529 1.13646777
Ga 9.60906362 4.64749410 3.90531083 0.05792596 -0.51206243 0.22479415
Ga 22.08792797 4.65715861 3.90181143 0.61446590 0.34005406 -0.37490614
Ga 8.18435290 1.55496820 9.67819185 -1.11750518 -1.15231410 2.15830577
Ga 20.81343731 1.58384205 9.68120330 0.17372759 -1.49747246 -1.25131037
Ga 8.24905757 4.65194479 9.69243283 0.92198916 1.32057817 -0.87083994
Ga 20.83515597 4.65931014 9.82430252 1.27392502 -1.81112655 -0.41204068
Ga 7.86923957 -0.08233162 1.61418178 0.06538547 -1.32553014 0.19090594
Ga 20.47288010 -0.04539907 1.84915763 0.28378103 1.18345531 -0.89813147
Ga 7.79716447 3.14199628 1.89212782 -1.54377502 -1.03740198 -0.30787760
Ga 20.45857750 3.11689423 1.90666470 0.27561247 1.60494517 -1.22172609
Ga 6.47408422 -0.03163216 7.60626085 -0.23899260 -0.25782571 0.32034938
Ga 18.92255366 -0.02899364 7.50692162 0.70682438 -0.57569816 -0.92671631
Ga 6.47884864 3.07706651 7.48841474 -1.51073801 0.07738426 -0.10592575
Ga 18.97384394 3.06966163 7.50655928 0.62906297 -1.06843063 -2.21322727
Ga 3.34242904 0.01293940 4.06864887 0.18196503 -1.90126473 -1.32051405
Ga 15.83090475 6.25855989 4.05472637 -1.29827862 1.95709834 0.75604034
Ga 3.16764710 3.07832248 3.91294372 0.79820824 -1.25755822 0.33459778
Ga 15.95984000 3.13101499 3.92671714 1.81584905 -0.49317734 -0.50845383
Ga 2.04116914 0.03377375 9.97104869 0.30330775 -1.22091780 -0.67706934
Ga 14.56267837 6.24012357 9.61476655 -0.52024803 0.46209820 0.05892806
Ga 1.90044449 3.00310237 9.71587858 -0.69120143 0.62013812 0.23074204
Ga 14.45316286 3.20539714 9.60930421 1.88825624 -0.57328148 0.38435778
O 2.02396141 6.18410740 0.53809537 -0.33178393 1.21924662 -0.44558184
O 14.49098530 6.28778548 0.59112229 -1.30398405 1.33273174 -1.40865603
O 1.83667680 3.12614073 0.63743383 -0.31833423 3.96741932 -0.56254347
O 14.47699653 3.11007835 0.77729617 0.63592164 -0.95947906 -0.67029764
O 0.56284335 0.02891112 6.24807704 0.62461436 1.04758881 -0.62470304
O 12.96258014 6.24476732 6.35449694 0.07902427 -1.00364931 -1.18497459
O 0.52484153 3.15127381 6.39230905 1.38108589 0.12746330 1.33429049
O 13.12986008 3.15821116 6.39301144 0.26247032 0.00982296 0.12808478
O 9.38638894 0.06266331 5.22047486 1.77756214 -2.03212366 -2.04168508
O 21.77996802 0.08470378 5.05454161 0.53843610 1.99375288 0.06081345
O 9.37060138 3.12121020 5.17827571 0.81090567 -2.34812126 1.82469367
O 21.92907643 3.17604708 5.19766487 -0.07126671 1.72714308 0.25964859
O 7.74417471 6.21115558 10.84609164 0.00338642 0.15488808 2.55094498
O 20.55849875 6.09139139 10.91070166 -0.39044617 0.03540420 1.89419595
O 7.93687396 3.06052229 10.96799730 -0.65813791 0.15300161 0.22105791
O 20.43557291 3.17849161 10.78828419 -0.64716270 -0.70757469 -0.59806342
O 8.11967412 1.47433364 0.64954386 2.11598161 1.21396214 0.26384008
O 20.80816855 1.51109377 0.69172398 -0.45659811 1.42321686 1.10605689
O 8.06124163 4.77148880 0.58586832 -0.90817472 -0.98549660 -0.24112820
O 20.81614386 4.56380498 0.58166914 -2.03194643 0.38409189 -1.39669392
O 6.88959043 1.54171455 6.45920340 1.40236627 0.16477822 -0.85078452
O 19.27195830 1.43125551 6.39465510 1.32593716 1.61723128 1.54153910
O 6.72973682 4.59807926 6.39485338 1.51471444 1.02905743 0.85344745
O 19.34243502 4.74341206 6.29477542 -0.37961583 1.80827631 0.83874360
O 2.90347263 1.51372154 5.14465076 0.86070623 0.07731746 -0.61134175
O 15.68236128 1.50127413 5.18201798 -0.18914876 -0.38597990 -0.03506814
O 2.92681237 4.75816643 5.06157700 -0.62546915 0.26329653 0.84276731
O 15.66557020 4.74310106 5.19054441 -0.34773828 0.20032241 -1.67438944
O 1.51875688 1.50686830 10.85878401 -2.72723713 0.14025976 0.69728977
O 14.22799461 1.64501335 10.86129428 -0.66201476 2.75411940 -0.51014018
O 1.60375409 4.77117213 11.00499380 -0.12370629 -1.45121123 2.10898673
O 14.18016270 4.68920682 10.93806276 -2.03837402 1.29901280 -1.18589051
O 1.32778250 6.23566732 3.30649785 -0.71562940 -1.26577458 1.97052932
O 13.96295193 -0.02896688 3.30153214 0.69449432 0.75018317 0.44294543
O 1.40505549 3.20702307 3.16346173 -0.50898402 -1.16216055 -0.91779093
O 14.03685299 2.96791974 3.15841445 2.39154744 0.35315588 1.58743393
O 0.03458189 -0.10435124 9.00278978 0.51868956 1.32002403 -1.41980956
O 12.56661050 -0.13733828 9.05207398 0.99859877 -0.37396686 -0.48342863
O 0.11544839 3.19707201 8.88501650 1.28401225 0.05414599 -2.43080266
O 12.60138243 3.04649366 8.96757146 -0.06792045 -0.83883708 -1.06753177
O 9.72897538 6.13516343 2.55085133 -0.26648788 -2.16147452 -0.04124344
O 22.44596586 6.26000701 2.43986090 0.39112842 0.92562852 1.04438385
O 9.75939642 3.14461983 2.46858281 -0.13693680 -0.07288127 -1.81766758
O 22.32761893 3.23666729 2.55597368 1.12766138 -0.10340863 -1.28233633
O 8.27244472 -0.10237713 8.14189242 0.21178711 -2.27387124 0.22245737
O 20.94164996 6.33935848 8.32288374 -0.57728994 0.51417303 -2.35274167
O 8.49500075 3.28029140 8.43193411 -0.85733923 -0.58481188 -0.92594989
O 20.99433145 3.20631136 8.27886441 2.26368716 -0.98173369 0.94957550
O 7.78964372 1.48641210 3.23092030 -2.67636738 -0.54038788 -1.85955790
O 20.30536281 1.48878844 3.19543589 -0.06334990 -0.67180863 0.97253119
O 7.68088783 4.75410271 3.34156708 0.33767350 -0.14375108 -0.59388062
O 20.28496841 4.60105591 3.26120995 -0.25470855 1.57118393 1.77238924
O 6.16689189 1.63174522 9.09733597 -0.19179089 2.33504017 -0.34019019
O 18.87942584 1.44249151 9.00635748 1.49631979 2.27840260 0.09084517
O 6.21571860 4.67639675 9.00693946 -1.24273184 1.13692442 0.75667924
O 18.73857882 4.72422067 9.00072713 -1.65111006 -0.23622586 -0.51458399
O 3.48584057 1.32942533 2.49960299 -0.52831812 -0.21719302 -1.59919554
O 16.03044086 1.58872910 2.62257254 1.52298404 0.05667770 0.42337941
O 3.60931111 4.70257726 2.52703952 -1.07927322 1.45167764 1.30909443
O 16.14272247 4.70038938 2.35659274 0.24413953 0.03584249 0.38509646
O 2.12715622 1.45208114 8.33220531 -0.24581617 -0.64676146 0.02705438
O 14.60342484 1.53316349 8.30362687 -0.03260169 -0.22020214 0.73932721
O 2.04335636 4.72476665 8.26864285 0.37300894 1.43251353 -2.13068734
O 14.63767084 4.61495396 8.26996352 0.98602250 3.66784749 -0.98176752
O 12.07782162 1.61119223 1.58191696 -1.34898533 -1.95693085 0.69107079
O 24.67159687 1.65945325 1.53441098 0.16606410 1.58201295 0.11267811
O 12.15059596 4.63490277 1.50762308 -0.14861109 -0.42478300 -1.14918132
O 24.76112060 4.53258313 1.56592287 -0.39736003 -0.17602771 0.36534257
O 10.83072811 1.54637509 7.25386034 0.63559739 -0.19860381 0.13728721
O 23.42296486 1.65894826 7.14609484 -1.88699249 -0.68964826 -0.15527360
O 10.79617386 4.55439198 7.13869152 -0.45214200 0.26560266 -0.53675211
O 23.37715676 4.69912994 7.20057708 2.28605272 -0.61287997 -0.61921893
O -0.97796551 1.50608475 4.13825232 0.77026566 1.68855422 1.82941622
O 11.63782576 1.60626085 4.24412919 -0.85212304 -2.65570187 -2.33227024
O -1.07226137 4.66597453 4.17195681 1.72127918 -1.65341233 0.32541646
O 11.54535566 4.68084378 4.26434747 0.26102328 -0.43614179 1.82854411
O -2.40414798 1.53373924 10.03837384 0.08975316 0.71345016 -1.25969079
O 10.17546721 1.45891723 10.04443681 -1.49089544 1.14578782 1.14940218
O -2.41389506 4.79690030 10.07643818 0.84131827 -1.82932228 -1.57783762
O 10.28246194 4.64507360 10.05743891 0.49880084 -0.69326845 -0.81302409
O 5.90528876 6.22800075 1.35009111 -2.21470381 -0.56160155 -0.23528543
O 18.41102888 -0.07710805 1.45713661 -0.68944085 -1.10996621 1.41210628
O 5.81414306 3.07647706 1.53558598 -0.15332529 0.94815613 -0.56752225
O 18.54591136 2.96996891 1.43291761 1.91011190 -1.42415078 0.14861193
O 4.47884361 6.19486000 7.34891187 -0.52072881 -0.82567419 -1.09466384
O 17.05560732 0.06164169 7.31067770 -1.34377914 -0.55828941 -1.34849708
O 4.52558928 3.08796213 7.35133357 -1.13982394 0.38984739 -0.66958294
O 17.11350550 3.13372998 7.25691074 0.22942351 2.81532353 3.56292304
O 5.21204159 6.13599472 4.27143584 -0.27821316 2.07899188 -0.36728851
O 17.88572130 -0.14832185 4.29227202 1.28656581 -2.37767976 0.93625801
O 5.22329767 3.06706639 4.24066659 -1.29430009 0.06653013 -0.81317590
O 17.79804140 3.16584705 4.39736019 -0.73953472 0.24754805 0.76268142
O 3.88570750 6.22173176 10.17527334 -1.40356996 -1.97619891 -0.02309568
O 16.55805453 -0.06456623 10.10117312 -1.33278843 0.34431599 -1.09894014
O 16.41979481 3.01894413 10.02259767 -2.88314042 0.39059933 -0.67550472
159
Lattice="24.739333 0.000000 0.000000 0.000000 6.125121 0.000000 -2.759717 0.000000 11.340328" Properties=species:S:1:pos:R:3:force:R:3 Energy=-624.384485 Virial="-54.627343 -0.286377 -5.629387 -0.286377 -44.390082 -4.662114 -5.629387 -4.662114 -38.873198" pbc="T T T"
Ga 0.00302345 -0.04839349 4.45877849 0.01177507 -0.32700297 -0.40599598
Ga 12.43886736 6.11116917 4.51052934 -0.49988906 0.98716772 0.15542191
Ga -0.05559987 3.12388565 4.59026096 0.13345236 -2.60259339 2.14259877
Ga 12.41946824 3.03291005 4.52592697 0.66114004 -0.91678268 -1.23188704
Ga -1.29704168 6.16284542 10.10586624 -0.75093522 -1.10328924 -0.88488190
Ga 11.01127907 6.10312423 10.15848814 1.72373069 -1.21027716 -0.76591627
Ga -1.39079193 3.12849185 10.17444703 -1.60069022 1.73660652 2.55523891
Ga 10.97928604 3.07783472 10.16098553 0.90251684 -0.72429237 0.49091086
Ga 10.97500849 0.06606580 1.18569360 -2.87115734 1.89197474 0.60506008
Ga 23.36975743 0.08038365 1.09577539 0.37101273 0.80929888 1.38715187
Ga 11.02624743 3.06262693 1.18483951 -1.77665098 0.25176641 -0.05135383
Ga 23.27136933 3.03434855 1.08101502 -0.90957229 0.21085789 -0.19466224
Ga 9.57228642 6.10194575 6.76833533 -0.89994038 -0.83965492 0.26031111
Ga 21.88444459 0.00084159 6.74760933 -2.02100412 -1.61736151 1.37059953
Ga 9.60399772 3.04921396 6.81466557 2.22151675 -0.02823448 -2.05251462
Ga 21.85001071 3.13705777 6.88562361 0.96832757 0.14086403 2.68835657
Ga 6.17707674 1.60849613 4.52820811 0.59775530 -0.60299554 -1.59213716
Ga 18.62981763 1.48132429 4.44676322 1.00069673 0.50913726 -1.23300522
Ga 6.23973546 4.53331235 4.59777281 0.44316834 -0.42383382 -0.37181939
Ga 18.53801476 4.66768122 4.45447841 -0.86664235 -0.15246685 -0.19628816
Ga 4.79164023 1.42427047 10.08423143 -1.11008810 0.08549921 -1.65113011
Ga 17.28116338 1.64043574 10.12571876 -0.60812808 1.40174283 1.86145975
Ga 4.71103538 4.57279317 10.20224237 0.88899674 -0.27045683 0.31258948
Ga 17.25423313 4.57944430 10.22431414 -1.07705391 0.97335851 1.41798949
Ga 4.85457893 1.51873194 1.13050102 1.11384386 2.78739388 0.26766886
Ga 17.22313643 1.57529371 1.19787638 1.07389443 0.46131587 -0.38836915
Ga 4.81708869 4.65466556 1.24174464 0.09325099 0.35723174 -0.36664759
Ga 17.14455553 4.53793113 1.19026485 -0.58417714 1.83551080 -1.60704266
Ga 3.30618804 1.56877908 6.85680871 -0.60532201 -1.04661307 -3.15101635
Ga 15.83944805 1.53257828 6.84500668 0.67577038 -0.41436634 0.97487912
Ga 3.44280802 4.51185248 6.89572743 1.75871597 -1.99824430 0.33246804
Ga 15.83619269 4.61407054 6.86746328 -0.54506101 2.84772543 -1.20352425
Ga 1.52960144 1.48305329 1.85291290 1.64990288 -0.00316572 2.26060794
Ga 13.86503033 1.50521112 1.82751059 0.76259779 1.24999971 0.21038587
Ga 1.53328875 4.56663593 1.72220258 -0.24975662 -0.83034054 -0.24367201
Ga 13.86157098 4.62148312 1.75433354 0.73768707 -1.48660519 0.20850452
Ga 0.18148059 1.57616350 7.45070942 -2.24562555 -1.50942483 -2.82067219
Ga 12.49161276 1.55697582 7.42819152 -0.11986076 1.03368190 1.71896116
Ga 0.09972511 4.58600122 7.43420167 0.24257794 0.49256161 -0.56632404
Ga 12.58746237 4.60422242 7.50065254 -0.18884823 0.94814351 -0.77914047
Ga 9.52167922 1.49738164 3.86168873 1.08804875 -1.15506143 0.96252381
Ga 21.85178204 1.52766399 3.95588117 -2.74304955 1.31015738 -1.39039262
Ga 9.48638062 4.56594654 3.94716723 2.00977631 0.64482461 0.79809398
Ga 21.74640248 4.60013791 3.90102788 -0.90862739 0.47591670 -0.36784766
Ga 8.03880621 1.49401068 9.62285912 -0.42724260 -0.12119685 1.77533301
Ga 20.37796747 1.55630628 9.53308020 -2.62751072 0.47890275 1.52076508
Ga 8.06769312 4.51094906 9.53146877 -1.29999598 0.42281925 0.42063815
Ga 20.39920811 4.58129185 9.59012660 2.45719770 -0.11896134 -0.35593131
Ga 7.81573003 0.02542331 1.74062016 0.49120697 -1.87974430 -0.10960588
Ga 20.07500772 0.00752604 1.74732282 0.39742209 -1.04133025 0.04385793
Ga 7.69883769 3.03699004 1.71820235 -0.18767256 -0.63849127 -0.59721268
Ga 20.03214109 3.07782743 1.73973316 0.44917260 -1.72386631 0.76810358
Ga 6.35637136 -0.06454790 7.42657119 0.98939502 -1.76259102 0.74889103
Ga 18.72022586 0.02126204 7.42403651 0.82747689 -1.59488499 0.33705914
Ga 6.36543842 3.07611195 7.44608855 -0.72905992 -1.09959636 -0.42081043
Ga 18.66321319 3.08979167 7.47803510 0.05917837 -0.82750361 -0.59972285
Ga 3.30851706 -0.06556416 3.86964013 1.68844890 0.23688017 -1.00208633
Ga 15.71468781 6.17761414 3.91749731 -0.32471819 0.63514590 -0.47697130
Ga 3.23239596 3.19109807 3.80490835 -1.59105264 -2.51268910 -0.95756081
Ga 15.64541997 3.04314324 3.82785452 -1.23492165 -0.17656345 -2.47544800
Ga 1.96481840 -0.01296474 9.57095174 -0.86331261 -1.00364550 -1.39039889
Ga 14.26610929 6.20369915 9.51470970 -0.37288009 2.67376391 -1.53263031
Ga 1.85071552 3.15180089 9.56819521 0.86726415 -1.23539122 -0.94115206
Ga 14.26951430 3.03818456 9.56396010 0.19550169 0.15486623 0.37665623
O 1.89777738 6.15570596 0.68180774 -1.52189791 -1.79345315 2.96687341
O 14.26104556 5.98669352 0.59842552 -0.56129114 -1.13223418 0.68883709
O 1.88501152 3.05196787 0.71127458 -1.75573950 0.27452584 0.56312937
O 14.21115514 3.07214300 0.62186190 0.95406267 0.38685158 1.67549500
O 0.52101524 0.05512475 6.27612120 0.42329282 -0.45909611 -2.52852348
O 12.85235971 6.09761285 6.25883711 -1.34931047 1.04958456 -1.45663097
O 0.43317465 3.02693566 6.17151363 -0.66193256 1.54061092 -2.60734973
O 12.87959044 3.07811436 6.29048555 -1.87261560 2.34530185 0.47841178
O 9.15094850 0.06705463 5.04452027 0.60767833 2.43345330 0.80606891
O 21.43758268 -0.06531231 5.08483341 -0.03454798 0.19517872 -1.91059357
O 9.12855512 3.02591438 5.03895435 -1.08643893 -0.38662316 0.46678283
O 21.51892954 3.00659614 5.07013834 -0.45476142 1.56088562 -0.59349436
O 7.68942684 6.06613377 10.77792143 1.27835246 1.98096527 -0.40915918
O 20.13215704 6.05615905 10.67796781 1.28593331 -0.47706851 0.02630833
O 7.74658952 3.01231469 10.68618542 -0.43548942 0.54887366 0.02501314
O 20.12137391 3.07248807 10.72719745 1.98025421 0.71799621 -0.04042715
O 8.05174203 1.50927043 0.59805817 1.85594794 -1.02048750 0.82116450
O 20.42513810 1.60920296 0.66901296 -1.53065893 0.13099492 -2.14576189
O 8.06945336 4.57170169 0.66589838 -0.54144328 -0.17797506 -0.63659634
O 20.40562986 4.56293087 0.63023679 3.06172084 2.14445765 1.31715039
O 6.62917095 1.51511107 6.35823785 0.37525457 -0.88850966 -0.73894432
O 19.04867065 1.49365609 6.29369587 1.39798986 -0.55445709 0.42761796
O 6.64615124 4.62192442 6.23692259 0.20176647 1.69808163 1.22681590
O 18.98819044 4.61050503 6.20374369 0.92792139 0.16986640 1.65119635
O 2.87934842 1.51103976 5.09786369 -1.28285576 0.75137945 0.20989521
O 15.27133688 1.50666311 5.01286742 1.25951186 -0.75058378 -0.40066064
O 2.93244300 4.51285949 5.02245361 0.34238085 0.56875218 0.90663486
O 15.35405292 4.55792454 5.04700016 0.03745983 0.97459859 0.87317271
O 1.57199564 1.52704997 10.70038243 -0.47252509 0.72705198 -0.61435048
O 13.94807091 1.56463962 10.68535692 0.17582991 1.42437165 -0.21177623
O 1.55125348 4.49217328 10.76477388 -0.09515256 -2.15888115 -1.45997222
O 13.89634507 4.61164947 10.61733670 -0.12414298 0.45016526 1.83051524
O 1.38477922 6.09715319 3.23021968 -0.88467542 0.03078690 -0.23103802
O 13.68442456 -0.03440513 3.17644510 -0.53440185 1.96029581 0.44268467
O 1.40694919 2.99271425 3.36450148 -0.71178585 0.09257121 -0.72150139
O 13.75282000 3.03844687 3.18410741 0.91917952 -0.09718247 -4.35611227
O -0.05660011 0.03854280 8.79296802 2.54604922 -0.18583363 1.67035964
O 12.29834042 0.04182472 8.94180492 0.97905089 0.65853281 -1.57129247
O -0.03377979 3.05741478 8.95620939 0.57618305 -1.91653867 -0.14479446
O 12.35573755 2.98377851 8.84972063 0.49916337 0.71105947 -0.43840340
O 9.54752367 6.10425378 2.51282527 -2.81111577 -0.72448066 1.18779898
O 22.01601255 6.14078065 2.51243815 -1.37976760 -0.26512980 -1.58352439
O 9.63145689 3.07425452 2.50645084 1.05692027 2.48577046 0.18020297
O 22.03045935 3.07111188 2.50225756 -0.40639960 -1.11290695 0.40028315
O 20.69174129 6.14913877 8.02550767 -0.71304152 0.50281658 -0.81325121
O 8.19136046 2.99061960 8.13594862 1.00736405 -0.30281315 0.56390745
O 20.57773492 3.06636535 8.04345991 -1.94012933 -1.60708171 0.53584617
O 7.58170390 1.54381769 3.19920051 2.24259982 1.73065178 1.08632573
O 19.88461960 1.50232719 3.24521339 -1.46594430 0.69362858 1.23384349
O 7.58285999 4.64177470 3.17601336 0.89912834 -0.64411110 0.20934519
O 19.96426729 4.56182035 3.10525415 -1.18469530 0.05882172 -0.01909607
O 6.19656637 1.58542358 8.77388395 1.27746333 0.13782019 1.98619012
O 18.51006517 1.47502686 8.86974523 -0.94145065 -2.68426516 0.20531775
O 6.14672604 4.58046183 8.82323271 -0.91640119 0.82270641 -0.49970340
O 18.57808072 4.53143647 8.78548645 3.38572835 2.07398444 0.53368959
O 3.47137302 1.51978468 2.46058330 -1.46219392 -0.92129676 -0.43969386
O 15.84194359 1.52176075 2.49025906 1.20651756 0.04362109 0.13588536
O 3.41268214 4.64978873 2.52246380 -1.17923996 0.92703448 1.31930977
O 15.71325126 4.63630716 2.50872570 2.83290185 -0.13322930 -2.38744342
O 2.05992736 1.50818024 8.04396328 -0.01380128 0.79082195 1.20019651
O 14.32072359 1.53517865 8.05914144 -0.18821580 2.21256596 -0.16306989
O 2.11161497 4.59802178 7.98586203 -0.55279021 1.24212766 -0.41128679
O 14.38650905 4.64491485 8.20886991 -1.37247376 -3.15102269 -0.63513050
O 11.99017267 1.45089701 1.46271200 1.87724557 -2.71633243 -1.16041920
O 24.20145256 1.54892816 1.36216024 -0.90347031 -0.31238413 0.31224252
O 11.94248474 4.63086077 1.47555452 -0.98109217 0.69657295 0.96927737
O 24.30534941 4.59782550 1.42252923 0.20747624 -1.23477217 -1.07543415
O 10.60441457 1.56489401 7.18224249 0.88958714 0.00858597 1.42175694
O 22.91891200 1.48144231 7.14849163 1.23374209 -0.84790832 -1.33676193
O 10.61725858 4.65744381 7.10580900 -0.15052589 -0.48871479 -1.36828990
O 23.00264480 4.65708090 7.17272603 -2.02386343 0.30144611 1.03821349
O -1.04250998 1.56968415 4.21259577 1.00711948 -1.70964891 0.51894211
O 11.32643872 1.56545925 4.25722788 1.49907816 -0.01134011 0.64964664
O -0.95514958 4.53469130 4.16023294 -1.66621960 0.31345447 0.63985824
O 11.32708899 4.52009605 4.17428457 -0.10760776 -0.00367250 0.84776389
O -2.30940444 1.54832625 9.93135213 -1.15420317 -0.88801249 0.20349221
O 10.00348146 1.56099849 9.84411726 0.53503136 0.36069988 0.35830177
O -2.36637590 4.57472923 9.96874896 -0.12283274 1.34213760 -1.93106096
O 9.95496115 4.60826509 9.95446507 1.00342988 1.11284527 -0.62479402
O 5.76059033 6.12447180 1.49447198 0.08142417 0.31847148 -0.65479362
O 18.18642236 -0.10134966 1.49227264 -0.07968097 0.58089055 1.42691641
O 5.86145777 3.10391322 1.52252724 0.13116323 -0.27004114 1.89027707
O 18.18220617 3.06322563 1.41854975 0.03403802 -1.63794895 -0.21647251
O 4.47849095 6.10563355 7.09463106 -0.93121173 0.04594642 -0.43558947
O 16.77194050 -0.03215950 7.17338874 -0.81947370 -1.64353108 -0.30167816
O 4.35809344 3.07534288 7.05197524 -0.07353772 -1.36299191 1.42700947
O 16.72949605 3.15913410 7.16572671 -0.26716120 -0.06282719 0.13892984
O 5.22964550 6.16224663 4.17817135 -1.43100782 0.15904185 1.94282371
O 17.65707728 -0.03601119 4.23678700 0.76876293 0.46857753 -0.04925503
O 5.29159859 3.12003911 4.12968137 0.02405005 -0.06272771 -0.12759274
O 17.63315328 3.08320454 4.23498616 -0.26505295 0.39280150 -2.49375887
O 3.94519647 6.05788176 9.85848380 -0.67419141 1.75437327 2.07749588
O 16.16021348 -0.03425572 9.83038068 1.83956637 -0.64999824 -0.29697477
O 3.82281558 3.03349263 9.90344362 0.92212590 -1.60302490 1.30759184
O 16.23986768 3.00135787 9.99403145 -0.26896073 -1.09986780 0.62233448
159
Lattice="24.839207 0.000000 0.000000 0.000000 6.149849 0.000000 -2.770858 0.000000 11.386110" Properties=species:S:1:pos:R:3:force:R:3 Energy=-624.103898 Virial="-57.559302 1.651592 -3.304805 1.651592 -42.995461 -3.549797 -3.304805 -3.549797 -44.048672" pbc="T T T"
Ga -0.00770800 -0.05010052 4.57189134 0.87106038 0.18248926 0.25087184
Ga 12.47570126 6.08351108 4.57479825 0.86842527 -0.43849889 -0.50424297
Ga -0.03275100 3.09166667 4.44818187 0.16501624 -0.32001475 -0.56190194
Ga 12.43028024 3.05534796 4.69506185 -0.22967524 1.00585181 -0.87216737
Ga -1.39185827 6.16337482 10.16239232 -1.05268407 2.84380807 1.66079795
Ga 11.04820962 6.15686670 10.14306891 -0.90165711 0.06483859 0.80665354
Ga -1.38390446 2.97914664 10.15451856 1.59438793 -1.59992251 -0.39645630
Ga 11.06998004 3.03109093 10.29359262 0.04375339 -1.65403499 -0.73237129
Ga 11.04081737 -0.03947002 1.12648133 0.83917286 -1.88626620 1.24407912
Ga 23.39865618 -0.04138136 1.17733716 -0.76132646 1.39526215 -0.44799216
Ga 10.99888693 3.04687928 1.16620532 -0.31067855 1.45135108 0.67914555
Ga 23.36534027 3.12069466 1.18770363 0.54292922 1.31365667 0.94318304
Ga 9.66147612 6.18429321 6.89843468 -0.95467251 0.66312634 -0.81187782
Ga 22.02193476 -0.00608386 6.86845932 -1.42142657 0.96986002 -0.13510832
Ga 9.64421247 3.09336688 6.86725036 1.17765277 -1.18851155 -0.89972465
Ga 22.06300027 3.00542897 6.87346405 -2.32904023 -1.64573280 2.18079361
Ga 6.27164619 1.52970985 4.49102384 -1.07893223 -1.51373061 -1.52694709
Ga 18.70187873 1.52797980 4.50435444 -1.29985293 0.78412768 -0.92598397
Ga 6.12256644 4.50683602 4.49599829 1.51620798 0.23413400 0.19540154
Ga 18.72071047 4.71276703 4.52693217 2.19382440 -0.52247197 -0.88253319
Ga 4.81849171 1.63298152 10.23601767 0.07411519 -2.37627840 -0.31772062
Ga 17.26620488 1.48683670 10.19888292 0.79716973 -1.65426263 -1.78117005
Ga 4.85282311 4.63486822 10.21981933 -0.01821332 -0.02266852 -0.88494574
Ga 17.18220678 4.62192280 10.25466345 -0.47622669 0.27889907 -0.26706534
Ga 4.82258071 1.49417505 1.14925592 1.07199057 -1.50301245 3.08105825
Ga 17.20798239 1.55064579 1.16089360 1.05234801 -0.43255158 0.13309875
Ga 4.80637254 4.67858333 1.13350141 -1.31927797 0.94038040 0.68763727
Ga 17.21872287 4.51358862 1.15532269 -0.90764756 0.50948690 1.20174443
Ga 3.42438088 1.50731957 6.86312624 -1.69970925 0.44990580 -0.81911482
Ga 15.84235212 1.63394459 6.81017827 1.58164591 -0.21542545 -1.46665789
Ga 3.47957140 4.65296099 6.87703490 -1.01429408 1.77443698 1.94393187
Ga 15.72732654 4.56106781 6.85671394 -2.58658684 -0.17149408 -2.22612961
Ga 1.51039866 1.58692843 1.88186306 2.12294690 1.65882047 1.14256857
Ga 13.97836779 1.58879693 1.81753274 -0.16498717 2.19117025 1.74130503
Ga 1.55692197 4.64284254 1.73139131 -0.37046874 2.32455705 0.04650257
Ga 13.97512311 4.62048961 1.78629878 0.74089078 0.84479134 -0.78312068
Ga 0.21115908 1.55530500 7.49459844 -1.56804909 1.19262615 -0.11601812
Ga 12.51619724 1.51465713 7.54546141 1.21877648 1.60848352 0.53344871
Ga 0.16093810 4.59896938 7.52512733 0.78817735 -0.84263722 -0.40094288
Ga 12.48111583 4.63535740 7.44122934 -0.46451993 -3.10433999 2.56574087
Ga 9.51867064 1.50216400 3.85864585 0.25439813 -2.14829410 -0.41836825
Ga 21.94936174 1.57006249 3.93031390 0.44452939 -1.83911171 -2.05867238
Ga 9.44088862 4.59694381 3.86771480 1.18983823 1.58949454 -0.24004576
Ga 21.92499378 4.58709594 3.98861752 0.12886663 1.33355549 -1.21526325
Ga 8.16030397 1.58146726 9.60551531 -1.17337506 -1.26134249 0.76185138
Ga 20.55883005 1.58474801 9.49324893 -0.46301019 0.32288912 -0.52878124
Ga 8.11521791 4.60296878 9.60634814 -1.40910273 -0.33030941 1.17266268
Ga 20.54540296 4.59413781 9.62104916 0.63526288 -0.91736641 1.43877413
Ga 7.71146133 -0.02540873 1.76453346 0.18971893 0.78467628 0.65681838
Ga 20.17093520 0.02761034 1.76471958 -1.17830813 -1.64123777 0.99597110
Ga 7.78606546 3.07214856 1.88692115 -0.25408208 0.46530517 -0.97015788
Ga 20.10774623 3.08818094 1.79861340 0.24308455 0.35660732 0.57055477
Ga 6.40572708 0.05910879 7.50113939 0.42893943 -0.37467201 1.16646311
Ga 18.83848063 -0.01887601 7.49175565 0.36125591 2.25082645 -1.81809196
Ga 6.39257970 3.15887561 7.47548941 -0.77024676 0.10401319 -1.82308044
Ga 18.71115920 3.04597011 7.52402875 -0.48564473 1.16188769 -1.68078945
Ga 3.31702152 -0.02864772 3.88043072 -0.41299481 0.91329312 -0.14985828
Ga 15.61133320 6.11622633 3.87384838 0.14338225 -0.36115755 -1.14316535
Ga 3.20851168 3.12477160 3.96810087 -0.84434832 1.61839039 -0.99552701
Ga 15.69079913 3.03528595 3.84754975 -1.32008789 -1.55974184 -1.57074494
Ga 1.94701360 0.01506353 9.59266933 2.18926634 -0.65737782 1.58238440
Ga 14.34617831 6.12760085 9.63007813 1.39669832 -0.40829149 0.62263890
Ga 1.96060823 3.03409796 9.63239277 1.38025966 -1.38937578 0.09948326
Ga 14.33028403 3.14618871 9.59053369 -1.27656642 1.43474189 -1.62131432
O 1.87666400 6.22560175 0.68542524 -0.41475963 0.25445994 2.17482807
O 14.30222939 6.13639706 0.64534667 1.49585315 -0.01282763 2.26790440
O 1.89021468 3.08776816 0.70937741 0.55109891 1.51355656 1.28246025
O 14.29448461 3.07131706 0.59538537 -0.42948025 0.08096328 -0.18922861
O 0.45402284 0.02317573 6.30656335 -1.02490560 0.89035856 -0.57575544
O 12.82184159 6.13375158 6.30309703 0.51403926 -0.05575345 -2.20763895
O 0.46331846 2.96635614 6.26596539 2.23383631 1.32914067 -0.32436972
O 12.83797477 3.14696239 6.25007617 -1.10131661 0.60080782 -0.12169121
O 9.15421440 -0.08356925 5.08717109 -1.31853148 0.56620496 -0.45731197
O 21.72414014 0.01025779 5.09085283 -1.71092280 0.92649052 0.32126273
O 9.06009354 3.07731625 5.06144174 -1.63409355 -1.22746864 0.52709990
O 21.54215104 3.10425491 5.14215029 0.82186834 0.94005637 0.71945605
O 7.74707905 6.17533074 10.75549977 -0.36891074 -1.53334121 0.49863489
O 20.18813086 6.08754783 10.75072433 -0.05424845 -0.14082320 -0.92539642
O 7.79929177 3.01765509 10.74581169 -0.23840420 -0.62800357 -1.84133152
O 20.20765696 3.02012746 10.81543216 -0.90875728 0.86942963 0.52189226
O 8.02854880 1.52519733 0.61979424 -0.08923651 0.24769987 2.47877434
O 20.47631042 1.54386970 0.63831674 -1.20312917 1.66354250 1.99396078
O 8.08112414 4.63356963 0.61790476 1.64243824 1.51627169 -1.27605827
O 20.48736746 4.56773838 0.67060774 1.90318669 0.48845906 -0.23109990
O 6.68026523 1.57150956 6.37446599 0.17302572 -0.03781761 1.35545087
O 19.06705066 1.51236049 6.24783793 0.79567577 -1.93301631 1.10125756
O 6.66986547 4.65077863 6.28164247 -1.05418048 -0.93853894 -0.46997664
O 19.12263587 4.57385393 6.26491301 -0.96589172 0.13985907 -1.00492363
O 2.90830014 1.56636223 5.11264102 -1.08846920 0.66206936 0.72606892
O 15.43454387 1.47750602 5.04401255 -0.22405427 1.49883188 0.16651495
O 2.92226210 4.64146111 5.05391151 1.32685393 1.23636425 1.84301376
O 15.32139583 4.64586186 5.17507478 0.34852019 -0.36358085 -0.80444277
O 1.59499555 1.54241253 10.66866561 -1.06604904 -1.14912996 -0.40422131
O 13.93557359 1.48339986 10.79844302 1.20581577 -0.87463097 2.15057552
O 1.55116331 4.54852766 10.74082445 1.85279580 -0.69142682 1.12236909
O 13.98434096 4.63926503 10.76378608 -0.28493052 -1.39920229 1.01156549
O 1.32095055 6.12705237 3.19186764 -1.02821598 0.18054647 0.00194112
O 13.93172896 -0.01393493 3.21418436 -0.30509808 1.74899009 1.14033766
O 1.43639442 3.02493034 3.13768697 2.15520011 1.15572979 -1.64495104
O 13.85151100 3.03669485 3.24399384 -0.09988078 -1.81875996 0.42330469
O 0.01917937 -0.00750070 8.94184041 -0.17479152 -1.05892465 1.17133795
O 12.38687221 -0.04273539 9.00549705 -0.46765604 -0.78053799 -1.03072478
O -0.07684542 3.08907369 8.88661286 -0.69891653 -1.40624662 0.30090741
O 12.37431214 3.12202740 8.95014004 -0.18010099 -2.43856149 -0.11217712
O 9.62048433 6.22030144 2.52805477 -2.41123219 -1.73389322 -0.56346095
O 21.96364234 6.20629829 2.55408264 -0.72926919 0.23404768 -2.56382576
O 9.68728844 3.02427385 2.32910080 -0.18876518 -0.46346282 0.96761503
O 22.04535398 3.03587641 2.48869669 1.31855735 1.15307474 -0.47321240
O 8.23061238 0.02540776 8.18393828 -0.99684461 -1.53927619 -2.25356255
O 20.70103845 6.14639139 8.19197180 -0.43620019 -1.10360726 1.75240484
O 8.23038858 2.96163597 8.19425244 0.37688109 0.00732716 -0.09008408
O 20.70518809 3.03870210 8.16812054 0.67472912 -0.19683500 -0.28704211
O 7.62139427 1.51162554 3.16995242 1.19786138 0.25556342 -0.65228935
O 20.03143184 1.50429777 3.18966112 -0.99357043 -0.07529389 -0.01717517
O 7.60887989 4.63412292 3.09395870 -1.47859978 -0.02515932 1.10229751
O 20.00640694 4.53469521 3.17109195 -1.42646392 -0.89131734 0.16286565
O 6.15612270 1.45836247 8.88901805 -0.54458423 -1.11111342 0.45891483
O 18.58095233 1.60233297 8.95798328 1.23897721 -0.35015385 -0.59851462
O 6.33696048 4.68030676 8.89793284 1.73226437 0.13566189 -1.40904942
O 18.65154749 4.53920731 8.87154346 -0.82970419 -0.22641617 -2.64231111
O 3.44322103 1.54654610 2.48410450 0.68090519 2.63234211 -0.69805995
O 15.89608639 1.53142087 2.46256780 -0.87723520 -0.16440228 1.69458414
O 3.37702758 4.58429073 2.52825559 -0.34790735 -0.58106687 -1.27937535
O 15.81243132 4.68652966 2.49392798 -2.22210932 1.16817400 -0.78442595
O 2.06218583 1.54752611 8.15737101 0.78575787 0.61705258 -0.96005541
O 14.41114455 1.56964813 8.27632129 0.20656628 -0.66673131 -0.13429180
O 1.99820349 4.55374403 8.07687782 2.65804637 -0.57289623 -2.47747534
O 14.45204054 4.71061004 8.23644558 -1.65624409 -0.80956188 -0.64853725
O 12.02048220 1.59740952 1.39476019 -0.48658089 0.63780086 3.47400815
O 24.46325974 1.50288089 1.46369863 -0.14515589 -0.17505725 2.02502483
O 12.06432910 4.60428552 1.45566556 2.22877523 1.14328297 -0.27830857
O 24.47601834 4.54903197 1.51303781 0.86838357 0.71403540 0.25538981
O 10.70361049 1.56086060 7.16117100 2.35912998 0.82047600 0.70773386
O 23.10557926 1.55984738 7.14904646 -0.12498996 0.29075752 -0.99546516
O 10.55407227 4.68997912 7.17426519 -0.10629804 -1.43172057 -2.37810456
O 22.99303199 4.50215545 7.05321957 0.49715254 -0.42327731 -1.16531497
O -0.91652904 1.56340282 4.21001970 0.25955834 -1.36659096 -0.07492556
O 11.50802763 1.54627703 4.24305525 0.48057226 -0.42465192 1.07878691
O -0.96328537 4.66736805 4.18309848 -1.37048814 1.06931200 0.27972099
O 11.49208178 4.67609060 4.22130322 1.74355115 -1.57468150 -2.04139080
O -2.31565510 1.50292553 9.89346844 -0.59379872 1.22968422 -1.58479777
O 10.05333518 1.57409504 9.89083733 3.42649658 -0.38674651 0.00628174
O -2.34360771 4.65414370 9.90717253 -0.00244242 1.41727724 0.99680635
O 10.00006636 4.60136512 9.92634798 2.89604987 -1.72216756 0.69997985
O 5.88370005 6.19688980 1.50500075 0.86887995 1.08557546 1.85240238
O 18.21974421 0.05523577 1.39616819 -0.28724555 -0.20051682 -0.79446247
O 5.82396734 3.05340256 1.46409049 -0.12179526 -1.81508903 -1.80395503
O 18.15841406 3.04087969 1.49315557 -0.43645317 0.74461068 -2.38981824
O 4.39761252 6.11665389 7.05365039 -0.62485804 1.12025866 1.64019553
O 16.81082543 0.01525092 7.12515032 0.26885030 -0.83756801 1.21539259
O 4.41688005 3.09802281 7.13705517 -0.63709129 -1.79332587 -1.37215107
O 16.87913958 3.10802221 7.06178146 -1.28835377 -0.34699596 1.92537561
O 5.19693669 6.23101216 4.20243249 -1.33928285 -0.09588295 0.91996791
O 17.66975484 -0.01191309 4.29194399 -0.71902353 1.01911153 1.02987966
O 5.21255404 3.07589501 4.21784613 3.32126644 0.77531638 -0.79095674
O 3.86611464 6.12867839 9.95384787 -1.66103659 0.64170009 1.05831078
O 16.31011779 0.04407966 9.93475245 -1.80332658 0.66745885 0.99068903
O 3.77201472 3.13206286 9.90216518 -0.78486186 -0.56351737 0.63749877
O 16.34372085 3.12950517 9.88678920 0.96902485 1.03022375 -0.52085792
159
Lattice="24.939374 0.000000 0.000000 0.000000 6.174649 0.000000 -2.782032 0.000000 11.432026" Properties=species:S:1:pos:R:3:force:R:3 Energy=-624.316538 Virial="-55.254566 0.455005 -3.285487 0.455005 -44.437905 -6.483314 -3.285487 -6.483314 -43.481259" pbc="T T T"
Ga 0.03317978 0.00136661 4.63294727 -0.92241893 -0.98956207 -0.75972276
Ga 12.52762572 6.31532581 4.52344432 1.12336194 1.42140264 -0.28972585
Ga 0.03388300 3.06731527 4.58031113 3.84928580 -2.19890859 -0.21352601
Ga 12.35603960 3.04350097 4.53957744 -0.22519101 1.73509594 0.29857981
Ga -1.35363234 6.08389502 10.20732476 -0.94927293 1.02436949 0.83307294
Ga 11.07302129 6.20246545 10.28589320 0.07702272 -0.84440252 0.36308615
Ga -1.34041010 3.17724913 10.26901718 0.15817517 -0.96824768 2.30034026
Ga 11.10309535 3.04678568 10.33999899 3.17501157 1.64832483 -1.77911810
Ga 11.05507460 0.12392987 1.20640013 -0.58603858 -1.58402190 0.39546900
Ga 23.49136490 -0.01842379 1.12931869 0.81414329 0.23956593 -0.13310388
Ga 11.14216178 3.02427794 1.18081077 -0.47913485 1.93606483 -1.96950429
Ga 23.60617584 3.00312125 1.13639881 0.76860596 0.33354405 -0.69463304
Ga 9.78472737 6.07694677 6.97222075 -1.58452598 0.45754836 1.31896750
Ga 22.08212865 0.03652727 7.01557159 -0.68555543 -0.17799069 -1.41335766
Ga 9.59807805 3.20248330 6.92518910 -0.10739674 0.37081197 0.46258570
Ga 22.19133057 3.07201531 6.89891170 -0.82197892 0.78553961 1.18056989
Ga 6.21099822 1.61950225 4.54494521 -1.69712408 1.64247067 0.46913360
Ga 18.70364185 1.51946432 4.50193050 -0.23165724 -0.14018404 -0.23327091
Ga 6.26800016 4.66477801 4.71638960 -0.05354527 -0.01946837 0.11290439
Ga 18.73432473 4.49326245 4.52297392 -0.01158418 -0.63974780 0.09527855
Ga 4.81662989 1.58525915 10.38378522 -0.80080637 1.02634361 -2.35521181
Ga 17.35709704 1.58701214 10.24771395 -0.98441075 0.06879999 -1.67119034
Ga 4.82800628 4.65816069 10.27985616 -1.76318240 -0.30463276 -0.16036012
Ga 17.47954744 4.68662757 10.28967699 -1.88392327 1.60667085 -2.62237521
Ga 4.84496854 1.62158045 1.21822443 0.09547050 -0.20607002 1.95602767
Ga 17.29242798 1.44099098 1.25113896 0.77626165 -1.22949446 -1.69727241
Ga 4.69977898 4.63989762 1.20241738 1.03454260 0.06154717 -0.06524127
Ga 17.43945081 4.60148686 1.22054973 0.38805631 1.74259124 0.85548791
Ga 3.42653223 1.45833874 6.84194571 0.09368273 2.31311557 0.12321824
Ga 15.75485687 1.57493354 6.92738042 -0.04479613 -1.25060800 1.48528613
Ga 3.41159551 4.56285394 6.93763900 0.84335085 1.64928622 -0.51276874
Ga 15.94629124 4.59763378 6.88897968 0.28731034 0.52423054 1.76342433
Ga 1.53729690 1.50408108 1.78260836 0.42325900 -1.21663375 -1.40869560
Ga 14.01949405 1.51073684 1.85232608 1.12026468 0.62648451 0.45718806
Ga 1.43009663 4.70725659 1.80944205 -1.23875094 -1.50040343 -2.43175505
Ga 13.86094118 4.51795019 1.71139166 -2.82235999 -0.17955611 -0.23341301
Ga 0.05320432 1.57056259 7.49676938 1.45625300 0.42697832 -0.12824694
Ga 12.71855133 1.51898765 7.55235237 -0.90712303 -0.32450207 2.32673473
Ga 0.22148122 4.76060440 7.59773399 -1.69012453 1.23958360 -1.34255120
Ga 12.61566369 4.71115370 7.55615539 -0.16982301 -0.48838728 0.97512636
Ga 9.57688203 1.56132870 3.93015616 -1.63293919 2.46479480 -2.46248741
Ga 22.14062366 1.61043887 3.90731674 1.62029474 -0.39012739 -1.15458782
Ga 9.51705006 4.61469130 3.82352049 1.68495128 -0.15115478 0.66675996
Ga 22.01056881 4.68688469 3.91114774 -1.29611368 0.22880052 -0.64271095
Ga 8.19566378 1.60912019 9.68467273 -0.33826530 2.27246410 1.02852910
Ga 20.55205952 1.55901515 9.72349756 0.30782993 -1.45629696 -0.95149677
Ga 8.18332175 4.82619356 9.61897040 -1.00249835 -0.54643335 1.35784105
Ga 20.61349755 4.63798975 9.75736196 -0.87106453 -2.53330815 1.12565930
Ga 7.75100555 0.05497350 1.77325971 0.27258128 -0.91698350 0.24616252
Ga 20.24204699 -0.00539886 1.82070107 -0.08242366 1.03230513 -1.67088496
Ga 7.70988131 3.13975904 1.84657030 -1.74504847 -0.09448433 -0.79683042
Ga 20.36293956 3.12314444 1.87741263 0.44750911 -2.56895740 1.09679713
Ga 6.42707949 -0.08317263 7.56177812 -1.83494075 1.62554188 0.24461550
Ga 18.83755570 0.04766319 7.54942819 1.48225948 0.56636511 1.51312549
Ga 6.41490134 3.16898847 7.48978409 -0.51388625 -0.15545962 -1.98068974
Ga 18.95292556 3.21866798 7.56466865 -0.38775854 -1.20567319 1.49838309
Ga 3.35049791 -0.04981758 3.85767782 -0.81723160 -1.61524968 -0.24043828
Ga 15.85434396 6.23664068 3.90384671 -0.78705275 -1.25944352 0.13707760
Ga 3.35339993 3.07304529 3.98672794 -3.01287777 -0.50898172 0.22657134
Ga 15.95503180 3.00208182 3.88192309 0.18383797 0.52438929 1.28061806
Ga 1.88236315 0.05611529 9.54518833 -2.13720127 0.49497090 0.60438888
Ga 14.38331677 6.24673156 9.67547656 -0.39753112 0.26800897 1.56523048
Ga 1.87579721 3.06011751 9.71730217 2.60820115 0.30225194 -1.82716833
Ga 14.34176868 3.06691704 9.52871575 -0.34167308 1.04670293 2.67056164
O 1.93258862 6.16887838 0.66079575 -0.99507850 -1.16428898 -1.37644836
O 14.41341240 6.21338419 0.63215978 -0.19116918 0.79285166 -1.06940690
O 1.92741784 3.05207112 0.65192807 -2.23336554 0.71618038 -0.57583678
O 0.38965337 0.04613672 6.44657254 -0.68937407 -1.51537896 -1.89466969
O 12.89185884 6.21748507 6.30509004 -1.48346974 0.44155040 -2.85990524
O 0.47772376 3.10804093 6.32426998 -1.70968756 -0.74918242 -1.65468373
O 12.98230344 2.98276370 6.36350931 -0.76738875 -0.40293716 1.15857423
O 9.22443710 -0.01261972 5.12914870 0.52522239 1.28707229 0.47135243
O 21.57974868 0.02099771 5.09943295 0.60122037 1.76525531 2.16964881
O 9.22574609 3.13981432 5.14474000 1.25187134 2.64199061 -0.62475847
O 21.66225166 3.12686139 5.05412938 0.49060506 -1.43794559 -0.48664511
O 7.77512226 6.20654185 10.90581176 1.70795095 0.66383748 2.04307971
O 20.29437834 6.15777211 10.98638838 -0.23905158 -1.21625523 -1.93862926
O 7.75988979 3.15281786 10.80243259 -0.93316842 0.31789531 -0.67421303
O 20.16776746 3.07096872 10.73573872 -0.61375293 1.62129397 3.31044220
O 7.93868926 1.39982210 0.62651678 -0.16966308 0.44797689 0.28558169
O 20.52319841 1.49936079 0.59153075 0.26312485 1.88447408 -0.19394036
O 8.05538038 4.57018454 0.63101194 -0.11728062 -0.87752155 -0.91206975
O 20.60879656 4.71483569 0.64492902 1.51573462 1.46916727 -0.24679954
O 6.81287760 1.52309340 6.32872957 0.73849840 -0.34464364 -0.57414476
O 19.18392795 1.69445294 6.33763880 1.05687002 0.02934891 0.41427287
O 6.56780227 4.68737405 6.36526534 1.07486943 -1.03788719 0.50826160
O 19.17745984 4.65975979 6.39107887 -1.87947055 -0.60540866 -1.71953544
O 2.95348900 1.58857927 5.05285489 1.24317551 -0.82796187 -2.49047364
O 15.41845300 1.44165030 5.08947082 -0.47522714 0.66167614 -0.05802175
O 2.93040436 4.68739980 5.21810163 3.07735774 0.98085749 0.95309034
O 15.39475176 4.60565467 5.13034678 -0.15898379 -0.75415319 2.08103960
O 1.44093645 1.47816065 10.86482889 0.85913591 -0.53105495 0.55194403
O 14.16388073 1.48711373 10.77114738 1.61119475 -0.06615982 0.80256596
O 1.67012802 4.61634106 10.72656642 -0.50820105 0.23053100 -0.58693688
O 13.98446844 4.61530744 10.80655663 -0.50087422 -0.94702172 1.53187017
O 1.28430154 6.20755012 3.28299249 -0.14793721 0.99575640 -0.69043343
O 13.76317256 -0.02612155 3.26852863 0.68480167 0.26403488 -1.40093200
O 1.38956147 3.04973108 3.19563805 1.32366126 0.71836541 0.57132854
O 13.79421636 3.14323980 3.34301060 -1.33985794 -1.07331813 -1.02521623
O 0.06596439 -0.00806319 9.00455416 0.57836886 0.13348204 -1.37866642
O 12.44277264 -0.09059222 9.01927531 0.07759909 2.05443994 1.13337050
O -0.07054158 3.04333635 8.82824032 0.84569406 1.47655609 0.16081362
O 12.35443608 3.06167640 8.91221786 0.33904115 -0.01098032 -1.01435333
O 9.60812651 5.99590998 2.40064142 0.27247490 -0.24092540 1.62003644
O 22.20262785 6.20423177 2.49385754 1.05671610 -0.53176861 0.04363535
O 9.77269797 3.11903666 2.43686527 0.47350989 1.21475529 0.51394959
O 22.18275180 3.06958980 2.55913385 0.42487090 -0.91490306 1.28833005
O 8.30820896 -0.06371587 8.21825343 -0.52132479 2.24599289 0.88752893
O 20.77962303 6.16506613 8.19489155 1.66934038 1.36768464 0.03809714
O 8.21512058 3.07997205 8.20129028 1.69546919 -0.44828498 2.30317985
O 20.89566536 3.05886052 8.02060198 -3.07527517 0.22306202 -1.85178248
O 7.65847814 1.49771489 3.13595683 -1.67263044 -1.67046636 -1.65955096
O 20.11891714 1.60366991 3.19037580 0.06420056 -0.78588989 0.68839590
O 7.48975538 4.72383663 3.23839927 1.40702494 -3.53434267 0.43805849
O 20.16980429 4.64249333 3.28663356 0.50506613 -2.27213242 1.19291566
O 6.13108172 1.32986727 8.91520887 0.95812834 1.22140072 -1.87349136
O 18.72160535 1.50684908 8.97786412 -0.73160854 -1.83172344 0.67121411
O 6.05101409 4.66310549 8.92413081 0.13686876 -0.53818638 -1.81371436
O 18.73868356 4.52644807 8.96313139 0.31315468 1.12314479 1.32795337
O 3.44867459 1.57842608 2.36677125 0.52224536 -0.13912104 -1.81633151
O 15.95075255 1.61957421 2.58741481 -0.26359684 -0.50545715 -0.37315863
O 3.48097533 4.63349125 2.39905604 1.55735547 0.42154265 0.23653842
O 15.84510670 4.56833903 2.44930705 0.06608422 0.54882030 1.04797915
O 2.11345358 1.55336325 8.26756235 0.34964894 1.49742254 0.89892719
O 14.50441182 1.51488717 8.21730557 -0.32313182 -0.53048381 1.19422788
O 2.03132524 4.60608066 8.16367852 -0.66914472 -0.55489704 -1.18331494
O 14.49791766 4.69302249 8.27242611 -0.04426251 -1.36155880 -0.49543585
O 12.12805393 1.47564714 1.62065227 0.29167981 -0.04054160 1.24517447
O 24.56800459 1.56757250 1.53677588 -0.73423861 -0.83027883 2.00204429
O 11.92661160 4.60676612 1.51099427 -0.18254178 0.22375504 -1.16075250
O 24.57739901 4.51455772 1.42652585 0.70181741 -2.17460623 -0.55202437
O 10.67402219 1.50456876 7.22489606 -0.39420044 -2.01925317 1.69802275
O 23.24101986 1.47564397 7.15329595 1.48654573 -2.10549510 -0.70097940
O 10.73792109 4.63725119 7.21033496 1.40324306 0.01402085 1.11029331
O 23.18615328 4.64451259 7.21880489 2.23319093 0.24428378 -1.25492585
O -1.08676588 1.59151332 4.24674220 -0.76171501 -0.58883180 2.97717610
O 11.46797644 1.48968086 4.25210879 0.77870606 0.43216146 0.78026802
O -0.91670915 4.66409396 4.16372145 -1.42251939 -0.05787170 0.89052290
O 11.37159330 4.57437358 4.34053164 1.31957628 0.47262477 -1.01273038
O -2.43406089 1.63175685 9.99202993 -1.54692290 2.00849764 -0.85233478
O 9.98875017 1.51602120 9.95563737 0.39611186 1.03595052 1.16940868
O -2.39312880 4.60949044 9.98813697 -0.06887378 -0.17594140 1.78236016
O 10.15342056 4.69639820 10.01226464 3.15842612 1.23295586 -3.73472027
O 5.82303179 6.22208969 1.33471434 -0.83194520 0.51007501 -0.39463777
O 18.31664682 -0.14883872 1.54804942 0.14308066 0.59655114 0.09150312
O 5.94591305 3.09178434 1.51284765 -1.78799301 0.28891055 2.94483227
O 18.31500826 3.11550223 1.38742138 0.08911489 -1.60743213 0.23045078
O 4.45105071 6.13290257 7.30623037 0.59851711 2.25512331 -2.81201708
O 16.83507846 -0.01175221 7.20400001 0.27706171 -0.73766042 -0.85034955
O 4.47526023 2.98519529 7.17856841 1.12507537 -0.45642530 1.39719375
O 17.01672806 3.07706084 7.14243687 -0.07115569 -0.15751372 0.15068818
O 5.11913209 6.04622695 4.18095507 -0.74348183 -1.43692365 -0.32128849
O 17.77455027 -0.01940778 4.27180167 0.75422408 -2.04293330 -0.76485099
O 5.29829125 3.01720558 4.37980950 0.57217694 -1.55626461 -1.00483225
O 17.77243474 3.05929723 4.21310035 -0.45936515 2.30394550 -0.38988212
O 3.78315244 6.17653482 9.96942756 -0.81506611 -2.49821381 0.19410326
O 16.43861054 0.07962097 9.86100559 -0.43901631 -1.34993990 1.44412871
O 3.87977815 3.05080203 9.92393379 -2.75056195 0.37042957 0.15616272
O 16.37847277 3.03194021 9.92524361 1.56457753 -0.23092809 0.32482518
159
Lattice="24.692762 0.000000 0.000000 0.000000 6.113591 0.000000 -2.754522 0.000000 11.318981" Properties=species:S:1:pos:R:3:force:R:3 Energy=-626.358651 Virial="-56.351536 -1.271596 -3.254125 -1.271596 -48.854056 -10.136056 -3.254125 -10.136056 -40.739631" pbc="T T T"
Ga 0.00148173 0.04215415 4.53518925 1.12188335 -2.46898099 -1.60618002
Ga 12.39883081 6.11513701 4.43852924 2.34133498 -0.76274877 0.70383314
Ga 0.02505185 3.03468025 4.45096631 1.33684004 1.96202389 0.57514418
Ga 12.39188470 3.06478391 4.49853071 -1.66376185 -1.15182945 2.03584431
Ga -1.32440056 6.12886019 10.23141890 -0.10411323 -2.45465471 0.37115442
Ga 10.97956768 6.15833542 10.14903943 3.09020452 1.89338170 0.33148736
Ga -1.31469369 3.08437589 10.20221136 1.38082366 0.83244555 -0.94039065
Ga 10.93799539 3.06046543 10.16105567 0.36272225 0.48334985 -1.27401515
Ga 10.95380882 0.00544884 1.17661396 -0.33307512 2.21761373 -0.23718387
Ga 23.27894063 -0.02020257 1.12465944 0.15051274 -0.21287170 -0.28457321
Ga 10.99918979 3.12423626 1.17778875 2.09366110 -0.79558874 0.60323333
Ga 23.29770859 3.00579736 1.19286155 -0.24930918 -0.17282609 -0.57318143
Ga 9.62588164 6.07202537 6.88696899 -0.58601559 -1.21217212 -1.28531316
Ga 21.89259876 -0.02677820 6.78869765 1.43949201 1.05112816 1.22938076
Ga 9.60488547 3.00468714 6.80073472 0.17961305 1.32849858 -0.47796870
Ga 21.92050950 3.10547300 6.79725164 -0.89084417 0.97827021 1.12296083
Ga 6.15265060 1.54627678 4.46553288 -1.16729276 1.21182316 1.91726622
Ga 18.56045368 1.51341035 4.54116374 -1.24109969 0.15555236 -1.60098230
Ga 6.14769089 4.66734391 4.39545789 -1.12448472 0.16130951 1.89196816
Ga 18.54303162 4.54556426 4.54316372 -0.89714892 -1.83707427 -0.57315460
Ga 4.81008962 1.54408631 10.16392408 -0.34182328 -0.51842568 -2.18076328
Ga 17.16399778 1.52173327 10.17133639 0.25537245 -0.82498488 1.76125395
Ga 4.86944498 4.64177521 10.15252824 0.79219698 -1.11193784 -0.68740256
Ga 17.14172575 4.64025135 10.12996683 0.20030806 1.53003385 -0.46600309
Ga 4.78902838 1.51751278 1.19003659 -0.07837980 0.29130249 -1.62612345
Ga 17.07202169 1.56576474 1.14937816 -1.25186336 0.31417344 0.20903010
Ga 4.78282078 4.58002036 1.18765791 0.45424608 1.09577640 -0.36597325
Ga 17.16527336 4.57840233 1.16396114 -0.54041789 -1.08224578 1.33963719
Ga 3.39852464 1.50130570 6.78575952 1.40500847 1.38418933 -0.61813363
Ga 15.72133328 1.45028453 6.78235618 0.59768160 -0.23632753 0.30108623
Ga 3.31074326 4.57755108 6.80248113 0.77968411 1.94637503 -0.87602812
Ga 15.74643271 4.55671167 6.83272336 0.03313864 0.42412914 -0.62056842
Ga 1.45718849 1.51174080 1.72265461 -0.24045909 -0.48754905 -0.66054015
Ga 13.91536899 1.49957632 1.73656283 0.88510148 -0.64805641 -0.73156080
Ga 1.53579532 4.63097371 1.75322516 2.48251769 0.57242326 0.33339294
Ga 13.89904275 4.55855802 1.78533817 0.27479700 0.39348248 1.04172746
Ga 0.15928583 1.57353836 7.41537314 -1.37055988 1.71472218 0.23156901
Ga 12.50177869 1.61090312 7.43161662 -0.40580878 2.04714050 -0.07921280
Ga 0.11452978 4.59159149 7.42505353 1.73013782 1.82567247 -0.87288354
Ga 12.48826016 4.55761489 7.42969479 1.75457851 1.18145469 -1.50878886
Ga 9.43542244 1.51892968 3.81667306 1.59769861 0.63489800 0.93558342
Ga 21.83285477 1.52065904 3.85325561 1.67038256 0.65711768 0.91564510
Ga 9.42732504 4.61976022 3.84740903 0.46412433 -0.40115600 1.44853042
Ga 21.77808423 4.57247164 3.89318378 0.85416196 -0.79506741 -0.26919032
Ga 8.05114343 1.53121770 9.55525631 -1.26114819 1.22144697 -1.46229540
Ga 20.42587155 1.50259531 9.55221984 -1.72644555 -0.89019970 -0.00576773
Ga 8.02364975 4.59294508 9.55617702 1.10566453 -0.91203980 1.54139210
Ga 20.41195467 4.59125370 9.56112191 -1.12519282 -3.51853533 1.82575886
Ga 7.72746279 -0.00750760 1.76940400 -0.01001855 -2.31425244 0.60004747
Ga 20.09735464 -0.03322044 1.81652435 -0.21645216 -1.73625659 0.30708370
Ga 7.68091807 3.05797262 1.74644729 -2.34685683 -0.73183109 2.83556529
Ga 19.99840608 3.02920297 1.67928802 -1.34123115 -1.30323908 -0.35919853
Ga 6.29671673 -0.03845550 7.41392975 1.13715223 -1.24796868 -0.78501149
Ga 18.64409779 -0.04259234 7.44681410 0.12619300 -0.23362906 1.20258265
Ga 6.25140763 3.01322133 7.46010400 -0.63619650 0.49675674 -1.02774795
Ga 18.60114160 3.09083168 7.46888466 -0.54136803 1.05858998 -2.85659326
Ga 3.25184792 0.06663073 3.90809056 -0.93027483 -1.68624180 2.04546875
Ga 15.64567623 6.15896022 3.86552923 -1.32090224 0.76561244 1.04820705
Ga 3.26671154 3.05587800 3.92076837 1.19344472 -1.54878581 1.73963220
Ga 15.66524208 3.11648580 3.90042419 -1.23848914 -0.15324939 0.45987727
Ga 1.90670767 -0.00457750 9.58543828 -0.10290525 1.17169896 0.06816175
Ga 14.23810243 6.09982933 9.53713261 -3.30460896 0.54391042 -0.30733439
Ga 1.90290618 3.06161650 9.53650793 0.23272311 0.15618246 -0.46546292
Ga 14.22264767 2.99005957 9.53832983 0.03339960 0.86548392 0.86359959
O 1.76096635 6.09414774 0.58849024 0.62352188 0.37559100 0.09241326
O 14.17561375 6.16735227 0.59084305 -0.54392553 -2.11430065 -0.28570163
O 1.87256712 3.10949425 0.64637689 0.48975006 -1.54735702 -0.94202719
O 14.21103662 2.97291379 0.63190909 1.80039263 1.81980020 -0.45287444
O 0.49275044 -0.02000862 6.23966242 0.07653092 0.22563174 0.40908335
O 12.82044759 6.11513230 6.34355356 0.16804133 -0.12671557 1.30450196
O 0.46911625 3.05597143 6.30940622 1.36413198 -0.65963162 -0.59071365
O 12.84442062 3.07762295 6.27327341 0.30835684 -2.28798499 -0.87563558
O 9.09608242 0.02300215 5.07580265 -0.54343806 -1.39322021 -0.31933842
O 21.47517399 -0.06520013 5.06184504 0.25303588 0.29176032 0.95454168
O 9.10943372 3.10576312 5.09470084 2.61077053 -0.74204154 0.07434701
O 21.45975371 3.01529949 5.06569215 -0.58060109 -0.38603366 -1.96511252
O 7.66405880 6.10844745 10.69755882 0.31285041 -1.18125877 -1.46558437
O 20.13051413 6.14217705 10.68385403 0.55490946 -2.66628494 -0.30961775
O 7.66974565 3.07929119 10.68205152 -1.39487939 -0.28529274 2.56910342
O 20.07877790 3.07927649 10.70958177 0.83251141 -1.71941469 1.59760138
O 8.03525286 1.55689394 0.60717709 0.15823516 1.18750446 -0.47337294
O 20.47912024 1.52592677 0.56654799 -1.28207430 -1.81392497 -1.75987659
O 8.04026867 4.61765933 0.60138983 1.27226985 1.13570502 -1.80045197
O 20.36079773 4.60694073 0.64069580 -1.47533917 2.19968314 0.03121611
O 6.67301875 1.53529646 6.27612090 0.08937373 -0.22330247 -2.02520429
O 19.00544999 1.54531992 6.20919235 0.62496263 -1.81379973 -1.10828905
O 19.01221275 4.63420855 6.28857205 0.16856505 -0.64986637 -0.90182976
O 2.95932053 1.51501542 4.99695009 -1.66889540 0.34969784 1.85218078
O 15.23365113 1.53609031 5.11666388 -0.81033565 1.57600375 0.14664763
O 2.89464264 4.50366319 4.99308534 -1.46072742 0.57179891 0.44117914
O 15.25390599 4.53775331 5.07283171 0.10268017 3.09922378 -1.12661923
O 1.50923275 1.52351565 10.68774695 0.13808564 0.39564803 -0.76370433
O 13.93326979 1.54882002 10.62290827 0.42995352 -0.07790889 0.32091299
O 1.55655752 4.63024207 10.66590806 0.98416051 -2.50082984 1.98162916
O 13.91913167 4.60880825 10.73012538 1.14803810 -0.35506337 0.84071193
O 1.36277514 6.07790558 3.20727417 0.09522260 -1.55625558 1.40114091
O 13.74388018 -0.01997969 3.20940792 -1.63694448 -0.56146538 0.40062996
O 1.36408394 3.05732821 3.18564312 -0.60689193 1.02228858 -0.90895538
O 13.74207048 3.07364426 3.15992018 -0.32883237 0.66855239 0.37099869
O 0.05292915 -0.02773507 8.86377286 -1.61131032 0.70985495 1.18531452
O 12.38356710 -0.04307773 8.89680502 1.37936263 -3.02752514 -0.69449695
O 0.04059667 3.12051279 8.79287202 -1.43754109 -0.53852358 0.78931775
O 12.33680735 2.98116119 8.83549494 -0.99458172 -1.32659294 0.56553889
O 9.59233938 6.15625424 2.45542351 -0.31879585 0.57206929 0.01967954
O 21.94916537 6.03385313 2.49728813 -0.47310284 -1.58008744 -0.68263421
O 9.56868560 3.12141360 2.41952309 -0.09130336 -0.34748455 -1.57071551
O 21.92786036 3.11307341 2.45959149 -0.56455334 0.28524328 -1.59781510
O 8.22712246 0.05839019 8.20551955 -2.36330092 -0.26340985 -1.74466971
O 20.54555775 6.14558325 8.21981623 0.66320052 -1.06772289 0.16832325
O 8.24312809 3.07681387 8.12166002 0.31848934 -1.31885518 0.05090688
O 20.54599629 3.10757856 8.11052707 -0.35771995 -0.83270739 0.17817764
O 7.60402382 1.53210154 3.05783853 1.01583207 1.12577141 -0.19288446
O 19.91985234 1.52395136 3.23643603 -0.49527919 0.36053243 -0.20787152
O 7.51017045 4.63514734 3.24819748 -2.35927130 2.11908978 -0.03033099
O 19.86478852 4.61655183 3.23664253 2.70016603 0.95151094 0.60401397
O 6.21983101 1.53253284 8.81634148 1.36666393 -0.19172921 -0.33723810
O 18.51022446 1.51247800 8.87606633 0.23239452 -0.85041294 0.40233683
O 6.16481785 4.63205415 8.77007366 -0.38740763 -0.64696498 -1.34356924
O 18.53361827 4.63026722 8.82284012 0.78893800 -0.01607667 0.40846516
O 3.42048889 1.57113243 2.41871910 0.84807416 0.35715686 0.18334908
O 15.77067412 1.50688326 2.56290215 -1.33463168 2.37265664 -0.58227784
O 3.44444934 4.57746154 2.48849928 0.05075476 -0.16466037 -0.52357598
O 15.76829848 4.64607787 2.42932498 3.11796838 2.36508353 -1.20570107
O 2.03586594 1.52993001 8.15184647 2.26803940 1.00382878 0.77395375
O 14.38392189 1.57287116 8.05961923 -1.85362046 -0.88152785 -1.06345325
O 2.06601299 4.59899741 8.19667096 -0.32640145 0.04382541 -0.03298813
O 14.40046927 4.55520220 8.04985279 -1.02997520 0.81576010 -0.67172489
O 11.95013594 1.49017123 1.50136206 0.47862905 1.20252610 -2.71600557
O 24.27325018 1.57465258 1.46439877 -0.43247349 -0.33144059 -1.66020539
O 11.99697324 4.56730211 1.39366982 -1.81801545 -0.78434947 -0.86782872
O 24.28202724 4.61051932 1.40707279 0.87696035 -1.86153920 -2.14096428
O 10.56794440 1.48599755 7.08622398 0.67002863 0.02859213 -0.51749969
O 22.92814039 1.57072090 7.15382920 -1.63698406 -1.09783598 -0.87970354
O 10.58124921 4.57924641 7.11833124 0.74984274 0.34041797 3.24931581
O 22.95685032 4.61418248 7.12312452 0.80687838 2.08398475 0.21703759
O -0.96298582 1.56822383 4.21150841 0.92508013 -0.11739413 -2.75395282
O 11.36721086 1.54097033 4.20205473 -1.46682430 -0.01679377 0.71268965
O -0.94511286 4.61282647 4.20207285 1.95794562 0.20325602 0.84960218
O 11.33938993 4.56808521 4.15576339 -0.74532827 -0.83298942 2.35466118
O -2.33204197 1.55287214 9.86862133 -0.13861081 -0.03125750 0.69638537
O 10.01661682 1.50575214 9.85344687 0.53767909 1.43625208 0.40664058
O -2.34090250 4.59775460 9.91344762 -0.53405081 2.64833833 1.93644414
O 9.97253077 4.58534901 9.82895055 0.19905765 -0.16053459 -1.18362192
O 5.75924578 6.13851654 1.47045090 -0.14335311 1.07558839 1.10389107
O 18.14871461 -0.00643685 1.43160258 -0.07236714 0.53298914 3.51299168
O 5.76453943 3.07512344 1.44172920 -0.72335678 -0.42703598 0.05277472
O 18.13382835 3.04784297 1.44562758 -0.39186610 -0.34846965 1.56845840
O 4.47842170 6.04333277 7.15671138 -0.84542336 -0.09222528 -0.27532612
O 16.71425494 0.02362768 7.10564834 -1.73890493 0.79113674 1.37074086
O 4.46900593 3.02982614 7.10754108 0.50467479 -1.17511102 -0.34077566
O 16.73982510 3.02849487 7.06098217 -1.25820273 0.61238689 1.15935472
O 5.20114373 6.05338201 4.23789078 -0.18852959 0.63042699 0.25324618
O 17.49792959 0.07992945 4.18571016 -1.24284732 -0.00660766 -0.89365038
O 5.18746927 3.02404264 4.17629574 0.28292753 1.16596889 -0.71379400
O 17.51842893 3.01589352 4.26301371 -0.37524575 1.38806237 -1.11351732
O 3.79108704 6.04867638 9.91350433 -0.79070190 1.07868216 -1.59264042
O 16.21476341 -0.00248979 9.92672105 2.11389781 -0.03158018 1.65876844
O 3.82686680 3.07116334 9.85329709 -1.50150807 0.32169590 0.81331278
O 16.15180032 3.03491707 9.85860047 -0.05181448 0.37257760 0.02023178
