159
Lattice="24.852916 0.000000 0.000000 0.000000 6.153243 0.000000 -2.772388 0.000000 11.392394" Properties=species:S:1:pos:R:3:force:R:3 Energy=-622.213158 Virial="-57.692991 1.571275 -3.340851 1.571275 -45.807268 -3.267012 -3.340851 -3.267012 -42.554272" Ga_vac_type=Ga_tetra Ga_vac_tier=low Ga_coord=4 defect_vacancy pbc="T T T"
Ga 0.00726678 0.00345212 4.60108777 0.04383187 0.61160772 -0.63368315
Ga 12.41853274 6.25051707 4.49702769 -0.11892936 -0.24026828 0.35978475
Ga 0.04355607 3.13694232 4.58648328 0.52615561 1.65122550 -1.13251208
Ga 12.41578561 3.01251975 4.57206159 -0.19461035 -0.36829265 0.25117005
Ga -1.42257290 6.16002337 10.15545884 0.40229847 -1.51565564 1.10173377
Ga 11.10852890 6.00584316 10.25205637 -0.75702509 -0.75370013 0.33749484
Ga -1.38368040 3.19925875 10.33272632 0.14226045 0.72821945 -1.10730987
Ga 10.97366421 3.08746282 10.17233170 -0.28683875 -0.58687528 -0.70466318
Ga 11.02723438 0.02385228 1.20948358 0.87093308 0.88414565 1.07565457
Ga 23.66382784 -0.07548715 1.08849696 -1.30193026 -0.08801372 -0.28989167
Ga 11.10132105 3.10639930 1.15771807 -0.82721114 -0.67087536 -1.41294412
Ga 23.63588878 3.04078041 1.13023156 -0.29389482 -0.06472839 -0.69745662
Ga 9.66941771 5.99101244 6.75609747 0.58061659 -0.27592986 0.70579962
Ga 21.99675269 0.04798196 6.83706199 0.30401937 -0.20017033 1.03852672
Ga 9.58270619 3.08206364 6.86883344 0.71177917 -0.73807921 0.34599360
Ga 22.07847420 3.05785411 6.83005485 0.88898409 -0.18423644 -0.46011764
Ga 18.65207039 1.54883264 4.45223780 0.08333154 0.11713420 0.29784636
Ga 6.32453463 4.65376794 4.56413092 1.23901534 1.08963728 -1.32295180
Ga 18.62446083 4.65402563 4.41390639 -0.49292523 0.99647443 0.27889606
Ga 4.83299142 1.54637383 10.17046475 1.17709314 0.24322247 -0.90947603
Ga 17.28159982 1.47084229 10.23004931 0.24631069 0.72504558 -1.44949264
Ga 4.67582917 4.54724291 10.18517955 0.06758359 -0.03145015 0.70033879
Ga 17.22570953 4.61612985 10.26028583 -1.46819926 0.55307945 0.79531925
Ga 4.73858790 1.62330541 1.13124174 0.34365111 0.54720120 -0.46066177
Ga 17.24621283 1.46732340 1.10113796 1.68220534 0.48772818 0.20025796
Ga 4.82074921 4.58364569 1.16038229 0.90254875 -0.99402720 1.04100281
Ga 17.34569212 4.64530478 1.15104779 -0.68944928 0.08443282 0.99826976
Ga 3.45801910 1.53030260 6.82797912 -0.06200516 1.15912143 -0.45167110
Ga 15.83248112 1.50406606 6.67339455 0.21999909 0.28969112 0.28284240
Ga 3.43023963 4.69932297 6.95248574 0.49132029 1.05183326 0.10923309
Ga 15.90104755 4.49258991 6.90802726 -0.25998072 0.57048015 -0.31867508
Ga 1.69765491 1.58650553 1.66813992 0.41836494 0.94294467 -0.02004329
Ga 13.94189827 1.58199169 1.76695186 0.66057515 0.55388952 0.50424023
Ga 1.46667156 4.70740804 1.70073203 -1.41997288 -1.66770791 1.10771552
Ga 13.88747428 4.62648185 1.80868134 -1.46731640 -0.11345730 0.28950158
Ga 0.20866612 1.61054992 7.40063669 -0.76222811 0.30974218 -1.00771117
Ga 12.53844132 1.43882754 7.47213516 -0.43009289 0.28052146 0.93430785
Ga 0.09307931 4.71194631 7.58167942 -0.00446812 -0.44706855 0.48331295
Ga 12.66439810 4.60736827 7.40342025 0.91188252 0.35492042 -0.52290216
Ga 9.49062444 1.52590794 3.90633467 0.11234583 -0.86443097 0.67003616
Ga 21.85886182 1.51674285 3.99182234 1.09228924 -0.61937778 -0.61827380
Ga 9.66422151 4.59629697 3.90830485 0.19289963 0.29569045 0.05208049
Ga 21.90728538 4.54128977 3.92224626 1.69287826 1.24333391 -1.51739496
Ga 8.16061402 1.59031173 9.52207267 -1.38742406 -1.42215851 0.49940834
Ga 20.53390931 1.46360139 9.54994244 2.04769777 0.74224287 0.48884180
Ga 8.10761260 4.62027109 9.65313485 0.20774353 -0.83892612 0.77689180
Ga 20.65177647 4.71709155 9.59244542 0.41840974 -0.98390375 0.08970579
Ga 7.67054382 0.09088645 1.84876325 -0.70659625 -0.08886596 -0.58772640
Ga 20.20503100 0.03121999 1.68487535 -0.03093756 -0.18640495 -0.82911278
Ga 7.73659613 3.18881930 1.78030173 0.04452782 0.44018666 -0.74520695
Ga 20.07460858 3.02708042 1.79937653 -0.57120319 1.40031525 0.51165117
Ga 6.46765319 -0.06242366 7.40749797 -0.05319076 0.47051910 -1.37436523
Ga 18.78129788 0.11271214 7.48494023 0.36751979 0.00819533 -0.71175034
Ga 6.32984857 2.99928971 7.56500329 -0.71630736 -0.89186448 0.80550576
Ga 18.77547335 3.01376577 7.58829285 -1.20806991 1.11351567 1.75474174
Ga 3.18920263 0.04547877 3.95325568 -1.16895783 -0.07793414 0.16322432
Ga 15.62915077 6.24831456 3.79858299 -2.05053613 0.26339010 -0.03904549
Ga 3.19132379 3.21074705 3.86412722 -0.32016392 -0.03728270 1.17303910
Ga 15.64067165 3.13854141 3.91488597 -0.83194633 0.32595849 2.46532873
Ga 1.88369489 -0.05522369 9.60300096 -0.15091974 -1.33037258 1.02482443
Ga 14.30069503 6.18506012 9.60574997 0.76392774 -1.09461249 1.08820630
Ga 1.85177209 3.14186033 9.53182086 -0.98155879 0.13997432 -0.74971356
Ga 14.40591751 3.20446637 9.58681202 -0.81338382 -0.65641853 0.24176189
O 1.91458338 6.03792797 0.58892553 1.45407996 -0.21026893 -1.53745826
O 14.28089941 6.13057147 0.67419070 -0.67882383 -1.47627805 0.45352619
O 1.87827392 3.06108812 0.62397382 -0.36249116 -0.54898524 -0.08418782
O 14.26430401 3.04860198 0.61770519 1.21621289 -0.93396632 0.31516523
O 0.38226583 0.08740149 6.28460630 -0.56049572 -0.42802444 -0.41100546
O 12.86203269 6.08558082 6.36133389 -1.06222674 -0.84790415 -1.10134612
O 0.39567758 3.13297577 6.36250660 -0.00686290 1.21592547 -1.70376228
O 12.88934964 3.05156291 6.43659627 -0.65704172 0.08357720 -0.27074608
O 9.14590950 -0.09138271 5.17525000 0.08473619 -1.45945318 0.13213648
O 21.58152570 -0.14833971 5.17051242 0.13765949 1.52191536 -0.18269845
O 9.17549860 3.13023654 5.11433125 0.49837192 -0.11298473 0.34015371
O 21.58751990 3.14397376 4.96047981 -0.09486535 -0.86377359 0.56507038
O 7.69635411 6.04693134 10.83290184 -0.46825847 -0.06968385 0.06608733
O 20.25856519 6.15205041 10.65666875 -0.13102377 0.68381962 -1.48879606
O 7.90456308 3.15327318 10.76819345 0.04596488 -0.02137001 0.14792360
O 20.26973892 3.07397311 10.78112583 0.00995752 0.23135722 0.57102786
O 8.10250425 1.49245316 0.61107388 -2.07265923 1.03182382 0.98112316
O 20.60588912 1.51000066 0.58169495 -0.65352066 0.68931003 0.32303662
O 8.11694644 4.55520329 0.64784063 -0.93098018 0.23064331 0.87238624
O 20.62383750 4.68988675 0.67991546 0.98790989 -0.74799214 -1.57310059
O 6.65709088 1.40927113 6.37011098 0.29407433 1.65906509 0.22127789
O 19.13807843 1.53596542 6.29933139 -0.77449993 0.51657768 -0.23015458
O 6.78129122 4.54844201 6.38519029 -0.04168324 0.32601905 0.38187589
O 19.13274445 4.60219809 6.26223907 -0.14910505 -0.11081804 -0.21273431
O 2.84521840 1.52790229 5.08631944 0.51182849 0.64935271 0.19715505
O 15.34628092 1.60001531 4.89800922 2.39760039 -0.55767229 0.13912004
O 3.00953882 4.66863230 5.12553862 1.06656761 -0.11126483 -0.14611949
O 15.26892570 4.55385612 5.01708290 1.86836307 -0.65496680 0.03780087
O 1.70829781 1.56487971 10.75841109 -0.79580701 0.16360864 -0.14497790
O 13.95725429 1.52749446 10.77471464 0.59448803 0.16352150 -0.38001884
O 1.52797260 4.61723243 10.82441873 0.21587339 1.11627259 -0.55306736
O 13.93585688 4.64415342 10.80619680 0.17558122 -0.84418736 0.66778427
O 1.39686576 6.17719052 3.17149508 -0.44205948 -0.49869061 0.52474285
O 13.87920798 -0.04360195 3.21399018 0.66899274 0.45315996 0.29917170
O 1.36602109 3.16618663 3.24050538 -0.86432578 -0.30467174 -1.26864742
O 13.76565773 3.04149745 3.08703020 1.32124932 -0.23076106 -0.34407554
O 0.02926788 0.18102083 8.80533563 0.27262945 1.19816006 0.77983390
O 12.41921702 0.07780636 8.99076974 -1.01090458 1.37763277 0.66201063
O -0.07314285 3.21424066 8.87157772 -0.89532718 -1.01716283 0.29961237
O 12.38116155 2.93874990 8.91752680 0.07310274 0.39782150 0.68461212
O 9.78978982 6.11834898 2.43072712 -0.43248471 -0.40673609 1.36753374
O 22.07475596 6.12640897 2.48536956 -0.78753708 1.08198954 2.07337287
O 9.62074100 3.12622025 2.35330957 -0.21798608 -1.28762049 -0.84116135
O 22.00760125 3.05366142 2.52117422 -0.16744918 -0.44489908 0.40435772
O 8.30479168 -0.01078803 8.24386909 0.76470558 -2.55575419 -0.78072582
O 20.72907020 5.95868846 8.10819257 0.40389041 -0.70120939 0.70498320
O 8.23393819 2.99849435 8.20990208 1.16931248 -0.58226121 0.11627144
O 20.77113912 3.03568056 8.05185890 -0.28114627 1.44323572 0.98554840
O 7.64529333 1.53716707 3.16423172 0.17903815 0.01099359 -0.93219037
O 20.02512330 1.50776819 3.24980296 -0.53291305 -0.42633643 0.52464441
O 7.55935252 4.58541544 3.35069473 -0.08446584 0.24275627 0.07563744
O 20.08637592 4.72672296 3.26361572 1.22660332 0.49417069 -0.55822373
O 6.29419649 1.57679002 8.83104505 -0.13159570 -0.79151874 -0.25586370
O 18.63012935 1.50302844 8.88295542 -0.55588599 1.10133148 0.05017058
O 6.19024788 4.51955793 8.94226513 0.63358101 0.07677837 -0.78119074
O 18.53813263 4.55300960 8.91845638 -0.95105660 0.37276566 -1.39137084
O 3.25310795 1.63109520 2.48189231 0.28029089 -1.95221557 0.25792095
O 15.80511654 1.38204041 2.48726903 0.14387147 -1.09874467 -0.83611435
O 3.44410109 4.67232854 2.47701470 -0.48976027 0.15841621 -1.46546695
O 15.86996455 4.78436482 2.65336053 -1.50561660 0.71413773 -0.46814586
O 2.09384032 1.51181036 8.12125152 -0.04530838 0.65286037 0.55143810
O 14.60354768 1.48218559 8.12273876 -0.56868181 0.47560597 -0.01887270
O 2.00913781 4.64732152 8.08689984 -0.87334488 0.06465045 -0.55678973
O 14.54838325 4.62764615 8.18023777 0.04987462 0.15856090 -0.90243822
O 12.16207985 1.47646028 1.44036573 0.57993548 -0.55106819 -0.60185354
O 24.40718981 1.51399109 1.50463460 1.29502793 -0.49760522 0.01408792
O 11.95583925 4.66768008 1.57966293 1.34358367 -0.21662565 -1.64016093
O 24.48482262 4.41982430 1.37069766 1.56602305 -0.23741227 -0.50759853
O 10.70465554 1.56832850 7.00363315 0.17467069 -0.21426215 -0.26018683
O 23.09407523 1.50982851 7.25799987 0.21711820 -1.30279820 0.45361644
O 10.57219005 4.52329188 7.21059423 -0.03571169 0.79829809 -0.35428539
O 23.08739333 4.60343808 7.14247624 -0.45651048 0.57726358 -0.86343629
O -0.95423100 1.60883755 4.10832218 -0.25394748 1.15741515 0.99160801
O 11.42192799 1.56190489 4.18248875 0.11784159 0.02886879 -0.09133812
O -0.93131515 4.55738097 4.12012594 -0.86914268 -1.30513425 0.25626964
O 11.44344716 4.60617789 4.44502527 -0.35275369 -0.68544684 -0.56945305
O -2.36356805 1.54218886 9.94954678 -0.00624951 -0.01132711 -2.29937938
O 10.09437016 1.64157720 9.87842009 -0.18740643 0.79054841 -1.15678862
O -2.29861902 4.58065908 9.83474620 0.28932880 0.95304193 0.61805904
O 10.00443298 4.59482072 10.02306878 -0.72728843 0.12058959 0.15127670
O 5.90454121 6.02755720 1.36547007 0.04865396 0.98878933 -0.26767841
O 18.27850550 0.02329628 1.38949652 2.03440929 0.59029123 -0.47172831
O 5.83857735 3.03237513 1.36243630 -0.68092747 0.51773812 -0.22597655
O 18.22581970 3.10560445 1.39155116 1.45204351 -0.05664909 0.27480494
O 4.44974506 6.06592233 7.27603462 -1.15431969 0.50160413 0.99968508
O 16.94395240 -0.02696642 7.29128335 0.61385233 -1.09423863 0.76866662
O 4.43365106 3.07406452 7.13280875 -0.12738658 -0.03691842 1.36448596
O 16.79446543 2.98784278 7.15314509 -0.21032579 0.78362175 1.42864601
O 5.29508579 6.18359042 4.24579632 -0.24520427 -0.61716034 0.52641521
O 17.73645879 0.01878485 4.29589930 1.23582656 -0.13776922 0.68636787
O 5.13593122 3.09519405 4.28598510 -1.43671710 -0.46020256 0.01035490
O 17.68517928 2.98851447 4.30875236 0.56304712 0.77926294 0.02282330
O 3.85857247 6.11786053 10.00619492 -1.77326523 -1.04071845 1.29579702
O 16.31925079 0.01772137 9.97512737 -0.71619997 0.39732488 -0.49835647
O 3.94824833 3.04746520 9.99618786 0.31703056 -0.40382438 0.52432193
O 16.27277815 3.05559730 9.84107969 0.89002063 -1.21766832 -0.90186600
159
Lattice="24.744298 0.000000 0.000000 0.000000 6.126350 0.000000 -2.760271 0.000000 11.342604" Properties=species:S:1:pos:R:3:force:R:3 Energy=-621.143136 Virial="-58.850769 -0.418820 -0.766355 -0.418820 -49.315028 -2.730994 -0.766355 -2.730994 -42.962437" Ga_vac_type=Ga_tetra Ga_vac_tier=low Ga_coord=4 defect_vacancy pbc="T T T"
Ga -0.13515644 0.06551762 4.51186155 0.96931957 0.19778410 -2.05671468
Ga 12.23208640 6.12802916 4.47324914 0.61735949 0.04935377 0.06688243
Ga 0.08626297 2.86075383 4.59992901 -0.37773972 0.53125850 0.91700218
Ga 12.32066313 3.06935705 4.53151161 -0.02887731 -0.23455905 -0.55101228
Ga -1.38843185 6.13920204 10.12700650 -0.22212760 0.38662911 0.00406561
Ga 10.97489453 6.17804773 10.11386945 -0.71211715 0.27917023 0.68062629
Ga -1.43722269 3.11993820 10.29856533 -0.07437106 1.07295025 0.70316305
Ga 11.01667846 3.04085929 10.24233782 -0.00469465 0.48457178 -1.87015491
Ga 10.94624552 0.02485318 1.27295750 0.07761019 1.74500598 0.89079902
Ga 23.29003787 0.12385288 1.23117271 -0.60504692 -0.18454449 -0.54305719
Ga 11.06664571 3.11144801 1.20775987 -0.66393979 -0.22392221 -0.39756594
Ga 9.60016127 6.05957670 6.89602772 -1.02537585 -0.10971641 -1.73040109
Ga 22.03354654 -0.00943311 6.71502357 1.67174564 0.46554732 0.10300342
Ga 9.61701812 3.19503488 6.81575648 1.91725971 0.14871244 0.23841154
Ga 21.85670496 2.97774174 6.83376883 0.96304810 0.56447109 -2.46423645
Ga 6.15480471 1.48106131 4.51336026 -1.05981587 -0.41948558 -0.06340038
Ga 18.52774169 1.66938736 4.54415144 -0.33265521 -0.75105118 0.73517371
Ga 6.19878048 4.57413368 4.48063378 -0.03150738 -0.41699312 1.13119846
Ga 18.56593851 4.64161861 4.53613125 -0.04490357 1.07249054 0.46456270
Ga 4.82939010 1.56680307 10.15877524 -0.38817536 -1.87758788 -0.35074578
Ga 17.22242102 1.41640856 10.17824849 1.33303111 0.01515664 -0.95790403
Ga 4.88506488 4.59515194 10.16905967 -0.95217502 -0.43919349 -0.43150337
Ga 17.10012957 4.65896346 10.13247490 -0.09221906 -0.60187999 1.37381363
Ga 4.95659557 1.43643072 1.19685857 0.89596177 -1.32669378 1.41749785
Ga 17.14994886 1.45473422 1.17818753 -0.39193094 -0.05569929 -1.01773011
Ga 4.88674814 4.46499406 1.18736607 -0.36371090 -1.22642399 0.31018897
Ga 17.15275810 4.59402480 1.23027624 -0.85283056 -0.08032034 -0.24183526
Ga 3.40311264 1.46209927 6.73310535 -0.61287231 0.35069430 0.12803352
Ga 15.76763566 1.55688005 6.77709422 0.61893689 0.69089857 0.41997335
Ga 3.34430862 4.70463696 6.71852594 -0.20127360 0.48203264 -1.15918673
Ga 15.90927138 4.56918172 6.83102551 -0.10426292 0.14977118 -0.31996945
Ga 1.45698895 1.53363772 1.68813853 -0.82538858 -0.21328904 -0.53791288
Ga 13.96615743 1.58542373 1.75880809 1.80820193 0.31636652 -1.72513429
Ga 1.65824470 4.66215537 1.73798877 0.35872909 -1.03700445 -1.00994667
Ga 13.83894707 4.58835297 1.76652831 -0.04832703 0.29054952 1.00828766
Ga 0.12786116 1.65495488 7.36640524 0.55090154 0.00994922 0.24875065
Ga 12.57134234 1.49030323 7.43239026 1.20533843 -0.60959945 -0.19331238
Ga 0.04425147 4.65683514 7.48542708 -0.79290129 -0.40995780 0.97918716
Ga 12.44667905 4.66374039 7.45452617 0.61540347 0.58267369 -0.66862493
Ga 9.38991529 1.48651487 3.74294845 0.92476714 -0.56293914 -0.41520865
Ga 21.79142235 1.53948514 3.73159078 -0.99564496 -0.87532700 0.88708223
Ga 9.43041267 4.79637398 3.88870652 -0.11819136 1.65621421 1.12762690
Ga 21.78232009 4.54834957 4.06866229 0.93392851 -0.80128343 -0.14480850
Ga 8.02306642 1.51642084 9.47113855 -1.04290783 0.85565270 0.74775165
Ga 20.38067686 1.49884668 9.60596112 0.45864990 1.30541240 0.30646390
Ga 8.25549924 4.64675700 9.63200781 0.00124172 0.20621070 -1.65804508
Ga 20.42640000 4.61642618 9.63770290 -1.21151147 -0.12487965 0.06189722
Ga 7.79993018 -0.07999093 1.72705317 1.24080303 -0.68750575 -0.66693925
Ga 20.01409276 0.05039823 1.80060613 0.78042022 -0.58870113 -0.19287317
Ga 7.76173351 3.05382475 1.86013771 -0.91608350 1.32658121 0.96749593
Ga 20.10054006 3.12477079 1.77528823 -0.79182795 -1.70045611 0.49868517
Ga 6.22033902 0.00631554 7.31586231 1.56375878 -0.49296112 0.52852767
Ga 18.75532507 0.04172568 7.45731349 0.12544897 -0.32754592 0.06040328
Ga 6.33032685 3.02800483 7.49357084 1.15869872 0.85730633 0.46047404
Ga 18.81953735 3.08602060 7.45145844 -0.12475324 -0.47606548 -0.31428559
Ga 3.35880712 -0.02237304 3.93953374 -0.74470272 0.38867712 0.05729088
Ga 15.62925380 6.02686166 3.83581633 0.00798616 -0.72180332 -0.42270587
Ga 3.30715887 3.04340615 3.89628551 1.10572198 0.64252940 1.46475770
Ga 15.54848471 3.13945895 3.95598103 0.20390400 -0.13031411 0.69544181
Ga 1.83930312 0.07773394 9.51269464 -0.56039185 -0.14607513 1.67565975
Ga 14.33938476 6.17662232 9.64769740 -0.79162853 -1.49863273 0.46975879
Ga 1.83390483 3.01881990 9.53528459 -0.35939230 0.04232403 -0.98138775
Ga 14.28737855 3.11416058 9.60631124 -0.80922626 -0.30175905 0.85973187
O 1.76857955 6.27989978 0.60154677 -2.14387121 -0.94213105 -1.36645707
O 14.22071273 6.11054044 0.74459665 1.46418437 -0.81896247 0.46333054
O 1.81567901 2.89687959 0.62241610 -0.61032088 -0.44679441 0.72309628
O 14.19085280 3.01567521 0.53864243 -0.59696271 -1.44669444 -1.79706861
O 0.49771664 -0.01453413 6.23695329 0.65387472 -0.18524032 0.28734788
O 12.91189302 6.05400828 6.41464888 1.25971850 -0.38123204 0.36031324
O 0.41958280 2.97136094 6.22896461 0.78317663 1.68008267 0.28185477
O 12.80298767 3.08298719 6.23382990 -0.66371200 0.62666715 -0.38169215
O 9.12716973 -0.07670065 4.99930855 -1.60926304 -0.04209305 -0.08565707
O 21.43430088 -0.01791459 4.95444375 0.80365007 -0.84231265 0.34566752
O 9.07059451 2.97581167 4.94288665 0.61469818 -0.22755819 -1.10249872
O 21.52809047 3.02247334 4.99743309 1.33441416 -2.06300656 -1.21459616
O 7.72390043 6.02582219 10.79947489 -0.78261316 1.43509648 -0.60896562
O 20.26959363 6.08206158 10.66843341 -1.13619129 0.18286550 0.10540902
O 7.75043921 2.99129031 10.75150162 -1.07066016 0.99749270 1.29628413
O 20.14684202 3.15491085 10.61102383 -0.38970740 -0.46887591 0.12116650
O 7.91594003 1.47478428 0.45247826 0.72123061 0.30448352 0.35480735
O 20.30128849 1.48781824 0.56261475 -1.85420998 0.62443447 1.22148581
O 8.04040569 4.56466206 0.58622131 -0.45932199 0.06403327 -0.38935159
O 20.38801913 4.59761693 0.55239035 -0.70257892 0.13240430 0.08469870
O 6.68873174 1.51321625 6.28982514 1.17510771 -0.52538466 0.47668189
O 19.08734722 1.55178146 6.33059869 0.33388243 1.09384019 0.18842321
O 6.68111136 4.57443836 6.21561512 0.35088936 -1.09139144 -0.32697716
O 19.20331501 4.72266008 6.19091161 0.97698620 -0.59570025 -0.39756386
O 2.95189918 1.52971287 5.05763745 1.36770308 0.21060491 1.34259738
O 15.34347565 1.63681590 4.98832938 0.71703423 1.33783899 -1.51077060
O 2.97161319 4.57922483 5.12712032 -0.88238779 -0.25017639 0.14166483
O 15.29678042 4.50238308 5.01228212 0.09073010 0.94903572 -0.17842924
O 1.41560177 1.54487897 10.75912701 -0.25064912 -0.34969713 -1.60446044
O 13.88088656 1.56310790 10.66329951 -0.06843358 -0.61964716 -0.17366295
O 1.49909722 4.71632394 10.79111524 -0.34771128 -0.32668132 0.84616994
O 13.95419570 4.66044860 10.67979632 0.25910933 -1.31593874 0.24266753
O 1.30508188 6.15798583 3.13697143 -0.26521644 -1.14915454 0.26904638
O 13.63261320 0.09582975 3.27857004 0.03058868 0.50243801 0.01873063
O 1.43048803 2.97863996 3.34164581 1.19215817 0.13217366 0.54452139
O 13.79824981 3.19654710 3.24983380 -0.82742115 -0.34355621 -0.48524356
O 0.00227727 -0.10925082 8.83317275 0.00689385 0.45315552 -0.01570527
O 12.42219941 -0.09225026 8.84819886 -0.62631917 -0.35362165 0.94671116
O 0.02650754 3.02013301 8.90730412 -1.44744567 0.92834946 -0.08384530
O 12.27326781 2.84845858 8.94635487 -0.46481379 1.06383097 2.11066309
O 9.64109606 6.22753610 2.50725936 -0.56715765 -1.14542406 -1.70042853
O 21.88448126 6.07040742 2.49524341 0.86103767 0.55765499 -1.11809397
O 9.63532626 3.20221898 2.43555692 0.72651482 0.94941334 -0.92045073
O 22.12863636 2.87349910 2.49136949 2.08379383 0.77769441 0.54473599
O 8.23825188 -0.08679288 8.10201496 0.47169886 -0.02632912 -0.27605503
O 20.69671012 6.12707575 8.19003531 -0.29122237 -1.12173245 -0.05266748
O 8.26354481 3.13880973 8.18925221 -1.20085830 0.28885046 0.39222222
O 20.57120177 3.05435285 8.06072480 -1.14889773 0.22766379 0.14459103
O 7.57339737 1.60429971 3.37447287 -0.60584095 0.76770153 1.34046233
O 19.85328543 1.49089627 3.18382203 0.09610819 0.91940775 -0.87900128
O 7.64406429 4.69193427 3.13003728 -0.73746031 -0.38211126 -0.31971598
O 19.85839000 4.65649680 3.24795141 0.42170298 0.07035423 0.34890459
O 6.19599131 1.61407112 8.88479779 0.70776517 -0.67070904 0.38028142
O 18.59331215 1.53295814 8.95251760 0.18975795 1.13904395 -0.00067352
O 6.11830120 4.66389859 8.83013602 -0.96136330 0.62500099 -1.83904430
O 18.53509989 4.65023505 8.82454295 0.58037512 0.96539578 -1.44477429
O 3.29861596 1.58307600 2.58612192 -0.73900957 0.76497892 -0.39237710
O 15.68844255 1.38834831 2.36568215 0.16446773 -0.18262662 0.36629082
O 3.36583192 4.60056547 2.40320413 -0.11769678 -0.12942079 -0.49974757
O 15.76495270 4.43848508 2.43395429 0.94013773 0.00492064 -0.31607074
O 2.07688563 1.40574573 8.18250579 -1.46732027 0.13746477 0.92161010
O 14.38768335 1.52704114 8.02821719 -0.61438741 -0.49826529 -0.46019689
O 2.06413401 4.62367317 8.06589363 -0.87323995 0.27408278 -0.52262209
O 14.46098646 4.71611966 8.14637124 0.25356520 -0.02990895 0.54765783
O 11.99924617 1.47384167 1.41938291 0.83388553 -0.02683042 -0.04648014
O 24.41490190 1.53808774 1.45231960 0.61721035 1.68254003 -0.01811922
O 12.09418431 4.68626450 1.37990438 0.40351140 1.35511497 0.85291934
O 24.40280566 4.60121240 1.47447744 0.75770797 0.08101885 0.51990525
O 10.66374607 1.48257055 7.20026333 0.08855879 -0.48317925 0.82502362
O 22.94974585 1.38406582 7.11969658 -0.14235365 1.54509536 0.22630160
O 10.49256055 4.63595264 7.13887021 0.54544957 0.81729767 0.12266434
O 23.05640638 4.65464790 7.05731018 0.57636441 0.44097269 0.51140958
O -0.96765956 1.53709869 4.31159363 -1.69687669 -0.78022448 0.06347785
O 11.27539306 1.37929275 4.24258380 -0.28029051 1.41930641 0.49205968
O -1.04375595 4.63536902 4.20862132 0.12653362 -0.58567074 0.78220797
O 11.34518651 4.56974637 4.28387616 0.28507431 -0.65475062 0.43777205
O -2.37870179 1.54758565 9.81648427 -0.01243000 -0.00354967 -0.04286612
O 9.94918143 1.65018537 9.89582439 0.32000930 -0.03426208 0.38738809
O -2.35557220 4.57983601 9.97086371 -0.11566718 -2.03155871 0.49840418
O 9.98047725 4.57656595 9.91183105 0.72844806 -0.74160474 -0.04616342
O 5.89943116 6.17414137 1.38189420 -0.50895712 -1.37597828 -0.90254777
O 18.07197712 -0.05657180 1.45941531 -1.52559986 -0.71187209 0.43566868
O 5.73085785 3.05225203 1.49332866 0.78012641 -1.79505356 0.70098587
O 18.04976826 3.14482341 1.41299957 1.35234391 -0.40458666 0.22693447
O 4.27038142 6.02764256 7.18105756 -1.92645305 0.93785352 -0.53150463
O 16.71160977 0.14276727 7.16689362 -1.10219905 0.76008901 0.25236541
O 4.32816038 3.03820618 7.21710988 0.48371681 0.58691959 0.62974813
O 16.91797515 3.02258701 7.15375363 0.90461362 -0.05170682 0.47851706
O 5.18905890 6.25567539 4.30973520 0.85920764 -0.44945240 -0.09562277
O 17.60162482 0.00589265 4.21974507 1.44302981 0.68050223 -0.99739737
O 5.15992176 3.02675814 4.14086714 -1.22985893 -0.38718687 0.06542528
O 17.51785439 3.05648308 4.15059877 -0.18845199 0.39766555 1.06896473
O 3.78945580 6.19519390 9.88213638 0.55797187 -0.44918991 -0.49764270
O 16.25534023 -0.02022209 9.93484611 -0.73883168 -0.50559101 -0.73592671
O 3.86625644 3.24970756 10.01143893 0.09061161 -0.23799733 0.21281248
O 16.13748986 3.08681559 9.97246348 -0.22777002 1.27701720 -0.77498281
159
Lattice="24.791412 0.000000 0.000000 0.000000 6.138015 0.000000 -2.765527 0.000000 11.364201" Properties=species:S:1:pos:R:3:force:R:3 Energy=-622.192956 Virial="-55.627614 -2.411420 -0.340405 -2.411420 -45.160661 -5.120411 -0.340405 -5.120411 -39.501860" Ga_vac_type=Ga_tetra Ga_vac_tier=low Ga_coord=4 defect_vacancy pbc="T T T"
Ga 0.01749348 0.01123621 4.58473390 -0.93386073 1.02966986 0.23516581
Ga 12.47326570 6.11628114 4.43645971 -0.46140149 1.79023523 1.01047160
Ga -0.02495886 3.16740089 4.58652008 0.74099834 -0.93570242 -0.03139766
Ga 12.35749243 3.07285765 4.45150906 0.25327464 -0.73998866 1.20586082
Ga -1.37091009 6.15212815 10.17911676 -0.15539092 0.90197665 -0.38890350
Ga 11.01411401 6.15645180 10.17535722 0.00811398 -0.82426991 -0.35384152
Ga -1.27780048 3.02192201 10.13122358 0.32516806 -1.44939776 -0.63236823
Ga 11.00727486 3.09657315 10.37631643 -0.22940034 -0.14961262 -2.14114398
Ga 10.98346635 0.03707961 1.12772176 -0.47464161 -0.67363678 -1.10483053
Ga 23.31690772 -0.01224291 1.19194743 -0.31033419 0.63511246 -1.29258942
Ga 11.10755384 3.04138127 1.18965414 -0.63940213 -0.73007756 -0.66911756
Ga 23.48793543 2.95143716 1.11051101 0.73623197 0.07405466 0.49089547
Ga 9.58357104 6.08615755 6.81922416 0.60706788 -0.64997582 -1.89718546
Ga 22.01711901 -0.02741190 6.98097792 0.98011465 -0.41643520 0.35441532
Ga 21.99744364 3.07183396 6.80444849 -0.94212197 1.42019240 -0.42230611
Ga 6.23580152 1.55764754 4.44697106 -0.69686391 -0.38934613 -0.31899828
Ga 18.66085868 1.64700407 4.50315435 -0.35702929 -0.35118209 0.62297294
Ga 6.19345742 4.66866733 4.61737769 -1.63031631 0.80970931 1.70172797
Ga 18.61149655 4.63077270 4.54653701 0.44702766 -1.27395770 -1.02283648
Ga 4.84943462 1.59166547 10.21876394 0.04237003 -1.01752257 0.53581725
Ga 17.17926713 1.54947054 10.11343908 -1.09570417 -0.53758455 0.32355481
Ga 4.80417729 4.57737586 10.23135021 0.57076777 0.18722088 1.25453074
Ga 17.27378026 4.57842918 10.24526166 1.38399745 1.24412926 -1.13628284
Ga 4.87976660 1.58387688 1.24007838 -0.86652877 0.03189666 0.47118963
Ga 17.16367009 1.58536287 1.29901130 0.16466651 1.09853283 -0.04874455
Ga 4.90553832 4.64611498 1.22599717 -0.83379706 1.72855218 0.57209677
Ga 17.26689025 4.58765323 1.13512639 0.89006111 0.62624128 0.69117953
Ga 3.46640017 1.55757260 6.99315712 0.93779640 0.62071473 -0.65343329
Ga 15.78851449 1.52763166 6.82754883 0.32475670 1.16946121 -0.50266224
Ga 3.36197157 4.51311208 6.78476964 -1.66021609 0.16803484 -0.33533750
Ga 15.80355684 4.57095061 6.84042637 0.02696034 1.20412305 -0.24366854
Ga 1.62960279 1.56869606 1.67451762 -0.64757704 0.23406928 -1.59820499
Ga 13.80750474 1.57647865 1.76769486 0.32737597 0.57082589 -0.32102159
Ga 1.45439518 4.55308867 1.80165155 0.59983679 0.43769161 0.93793971
Ga 13.92611939 4.55683048 1.81963072 0.31198321 -0.59164826 0.10856605
Ga 0.18385516 1.55302517 7.45512355 0.82511859 0.99194225 0.84600510
Ga 12.52401231 1.52768964 7.55588240 0.69224807 0.17001101 0.30504789
Ga 0.21793799 4.64612248 7.54702483 -0.18380273 0.62767618 0.30900014
Ga 12.53761786 4.57833008 7.52505813 0.09284691 0.66154388 1.38202657
Ga 9.47902858 1.50191908 3.84545109 0.27155538 0.67551638 -0.51051312
Ga 21.84903025 1.49353764 3.85636431 -0.42921796 -1.02793694 -0.90157725
Ga 9.44174100 4.56393888 3.78993425 0.05977528 -0.77388374 0.51379627
Ga 21.83234234 4.56521496 3.99640390 0.86061802 0.68129123 -0.16480988
Ga 8.20754580 1.53156119 9.54027057 0.74893836 0.32742243 0.32484822
Ga 20.50368658 1.52782253 9.54526243 -0.84688421 -1.80578691 0.76948605
Ga 8.04999830 4.47127581 9.71522785 -0.50541712 0.37028332 0.56620792
Ga 20.55286313 4.64297697 9.64328646 1.73362577 0.65839049 -0.56533928
Ga 7.77418232 -0.03076537 1.86725336 0.56574173 -0.25180992 0.05999817
Ga 20.16708254 -0.03057560 1.71956933 0.51825402 -0.65272113 -0.37201271
Ga 7.69045353 3.00566890 1.82073218 0.28570202 -0.00511297 -0.87353060
Ga 20.22626332 3.04250347 1.65004271 -0.12878717 -0.11449629 0.91878672
Ga 6.39342534 -0.02973711 7.33646731 0.56723121 0.48400036 -1.17442134
Ga 18.83772165 -0.01378823 7.48588616 -0.22696482 0.82887938 -0.37256361
Ga 6.26894844 3.11285552 7.46799199 0.87870874 0.41566160 -0.21907607
Ga 18.86440338 2.97769745 7.41268491 0.07012002 -0.50718995 -1.19696549
Ga 3.26978975 -0.03623064 3.83219770 0.37758413 0.07924683 0.12222990
Ga 15.63938408 6.15141007 3.92731172 0.20792351 -2.16985823 -0.28534623
Ga 3.20149652 3.08291848 3.91733693 -0.15426531 -0.83212533 1.69103425
Ga 15.63002183 3.02266725 3.92691811 0.28029899 -1.51796613 -0.86581705
Ga 1.90015224 -0.00784300 9.55649712 -0.60115769 -0.59416568 0.37029359
Ga 14.31260326 6.12041485 9.50561860 0.57715351 0.77517073 0.32624786
Ga 1.78480231 2.99349164 9.48281570 0.40830243 0.11529723 1.92233153
Ga 14.30477132 3.11752368 9.60611861 0.11532586 0.67939791 1.26080884
O 1.85961524 6.07143825 0.64659125 -0.04761749 -0.51104679 -0.44861346
O 14.23458373 6.20261992 0.54173651 0.31160446 -0.78134338 0.05247127
O 1.85574992 3.13340934 0.64491456 1.13877145 -0.29752146 -0.29304815
O 14.26707416 3.04706264 0.54330133 0.78365143 0.50273754 -1.14983847
O 0.47045636 0.02997591 6.34792288 0.05537789 0.86131744 -1.10510381
O 12.89932463 6.11115530 6.25852408 0.09200463 0.17714732 -1.70115291
O 0.51971925 3.03989612 6.26037869 -1.92643939 0.34129277 0.25773458
O 12.92110660 3.05036568 6.31158750 -0.60049159 0.42862321 1.87730857
O 9.14609802 -0.02807933 4.99750757 1.27121617 0.71636313 0.22414647
O 21.65796192 0.05624633 5.16303474 -0.76539697 0.44305322 0.59093183
O 9.16926368 3.06588193 5.16993095 -0.33096974 -0.98757653 1.11491475
O 21.59834798 2.94556761 5.13166934 -0.75000822 0.19767037 -0.19467844
O 7.78951962 6.17025137 10.79339456 -0.94960728 -1.23579493 0.59082371
O 20.11449976 6.07509147 10.58290122 -0.27330740 -0.00124175 0.30971658
O 7.80822037 3.11126798 10.77127675 -0.81028678 -0.63483114 0.18200392
O 20.18154194 3.10371148 10.71306059 -0.73919717 -0.17236914 -0.62922162
O 7.89733895 1.68086129 0.64139099 0.25587502 -0.60866163 -0.47150850
O 20.49465085 1.54218876 0.47410439 -0.45280699 -0.92868813 -0.17724149
O 8.15394460 4.64725066 0.63379641 -0.88590581 -0.47165776 1.03988886
O 20.45131742 4.59900193 0.65790972 1.62263239 0.36099306 -2.58738646
O 6.73114695 1.61833074 6.40382647 -0.40765243 -0.00188486 0.61905664
O 19.15816754 1.53435605 6.30720826 0.23742972 0.27480545 -0.24443205
O 6.68013577 4.58561298 6.22213039 1.35491435 -1.02545661 -0.38281814
O 19.11480346 4.65032504 6.36797166 0.57091892 1.16693746 1.21242499
O 2.99490684 1.49665030 5.02909753 -1.61740518 1.12259662 -0.30397060
O 15.40765142 1.44451130 4.97454047 -0.11079292 -0.42813090 -0.18147176
O 2.87880338 4.63115345 5.03418045 -0.60677078 0.24685471 0.00029733
O 15.48092063 4.56082059 4.99344587 -1.51378309 0.44562105 -0.81247497
O 1.52920593 1.57596923 10.80015122 -0.05484094 0.17873954 1.42362938
O 14.07906393 1.43816387 10.76841432 -0.15335317 -0.25249841 0.02501865
O 1.57159282 4.52750551 10.75421246 0.43155469 0.01152244 0.74020099
O 13.98111243 4.57502205 10.70965657 0.23039529 0.88241848 1.67973286
O 1.48810299 6.19242915 3.19429381 -1.86554288 2.51423590 0.04731062
O 13.73713457 -0.08409980 3.20175559 0.05836829 -0.96453884 -0.69652277
O 1.40959133 3.00672910 3.18005592 0.15055489 -1.62409181 0.02806378
O 13.73355485 3.08308407 3.22661969 0.28873869 -0.18204874 0.67275185
O -0.02867475 -0.11876814 8.88256435 -1.33800377 -0.90528731 -1.21412256
O 12.34172985 0.04392056 8.85641242 -0.21240056 -1.24566155 -0.28569691
O -0.11453026 3.13112909 8.76662878 0.34797713 -1.11704503 0.68702128
O 12.40581207 3.03983258 8.74504571 1.47498597 0.61678112 -0.59684292
O 9.62556861 6.21158780 2.50806754 -0.05879674 -1.26930286 1.03783267
O 22.03029792 6.22470570 2.53858352 0.62958467 1.27784472 0.50968235
O 9.66574491 3.20279104 2.43241516 1.30944646 -0.33378198 -0.31768936
O 22.10465919 3.05802728 2.50100233 -0.00453930 0.34854611 -0.63746598
O 8.13346184 0.01042640 8.07349124 0.24830048 -0.36947203 1.32437702
O 20.52562069 6.17053427 8.07840287 -1.06358217 -0.39225290 0.74442159
O 8.05022226 2.96217254 8.26381282 0.25189607 1.17107714 1.14147527
O 20.68497598 2.97230024 8.24222614 0.08109371 0.48723735 -1.01065338
O 7.50574040 1.52260026 3.16370834 0.46755993 1.38996498 -0.34023165
O 19.98049350 1.55162772 3.12721699 0.61344223 1.36636012 -1.04154821
O 7.55190928 4.58496558 3.26998234 0.65713420 -0.61303471 0.58654335
O 19.96936827 4.64942079 3.26427769 0.28176724 0.38523117 -1.30662173
O 6.15098999 1.56384893 8.92417181 0.87482243 0.65971123 -0.39881498
O 18.58761391 1.68052851 8.78037003 0.08588477 -0.89941118 -1.40760349
O 6.22264061 4.59442394 8.89957733 0.30731289 0.64084970 -1.01500924
O 18.65154325 4.65755288 8.77360024 0.15305612 -0.83383756 2.46359874
O 3.51327530 1.50797788 2.51355950 0.08918214 -0.57505996 0.48354983
O 15.92327097 1.45008447 2.47661802 -1.86590947 1.81449156 -1.36804736
O 3.48261303 4.64584840 2.53540100 0.46499630 -0.70223800 -0.09921409
O 15.84186061 4.63101309 2.50311963 0.85390967 -1.14686897 1.47382750
O 2.03234122 1.49425175 8.15945522 0.22303879 -0.59881371 0.80192851
O 14.42553578 1.45715341 8.23021231 0.20482843 -0.44898312 -0.74860500
O 2.01499129 4.57761681 8.21109047 -0.14933853 0.19715784 -1.20031601
O 14.52915205 4.61320493 8.26083380 -1.34414284 -0.11814501 0.59782724
O 11.99485047 1.52242554 1.53156317 1.51834760 1.40060602 0.14533143
O 24.34633324 1.52337438 1.33523310 0.05587093 -0.02232257 1.52000227
O 11.96942094 4.54581353 1.45563175 -1.60790558 -0.27840963 0.48370174
O 24.27132699 4.58585503 1.54603769 0.26235154 0.46523069 0.12952327
O 10.66079564 1.56313485 7.12327242 -1.20942266 1.25561907 0.00928086
O 22.96580577 1.44053383 7.19398094 0.86282443 -0.62640667 -1.53824508
O 10.57177708 4.60119054 7.20151004 -1.93818634 0.82446185 0.31134318
O 23.00064364 4.56189248 7.12251784 -1.06241461 -0.00140024 0.51906313
O -0.92153645 1.58409389 4.14755291 0.00979932 -0.48024262 0.89358824
O 11.25188670 1.54497701 4.28164494 0.19027767 -0.66392853 0.08876535
O -1.00911048 4.58793854 4.19595956 0.20381921 1.14103777 0.28222584
O 11.37881066 4.59376572 4.20794022 0.82919051 -1.12837811 0.51586525
O -2.29533809 1.54844275 9.85861986 0.28693507 -0.47417911 0.85577259
O 9.88152147 1.51522570 9.95566002 -0.75582277 -1.69316811 0.59173995
O -2.42398546 4.68920603 9.98837083 -0.38853936 0.12245204 -1.27916506
O 10.02453705 4.67240461 10.02889262 -0.17143117 1.04212219 -0.98022316
O 5.73799888 6.07637224 1.33337384 0.57055963 -0.93634415 -0.33582237
O 18.20728956 -0.07524928 1.41186240 -2.46103149 0.01197241 0.92853797
O 5.80908638 3.03630832 1.40649980 0.46534358 -0.26075605 -0.67640082
O 18.19126362 3.03152297 1.42510410 0.49942533 -0.40082928 -0.89638648
O 4.31767581 6.14993292 7.13379119 -0.22118108 -0.78854498 -0.87703231
O 16.82808758 0.07080001 7.13443698 0.44431132 -0.37767717 -0.04024840
O 4.41415310 3.12122842 7.12120937 -0.50909878 -0.96098233 0.09882568
O 16.79616048 3.07987456 7.18160276 0.05243167 0.72207048 0.59848105
O 5.14667945 6.11837195 4.26935053 1.33603073 -1.19989589 0.22180230
O 17.66542386 -0.00822208 4.23629493 1.12384284 0.32462180 1.00738407
O 5.28919422 3.11404636 4.31111693 -0.36012827 -1.10110076 -0.41802548
O 17.62204944 3.05421376 4.24215015 -0.21240648 0.92422868 0.12252437
O 3.81277108 6.14621218 9.87814085 -1.11728242 0.13814275 -0.34474609
O 16.28324021 0.09485583 9.83469803 0.68848815 -0.06298960 -0.57299788
O 3.87381190 3.06193853 9.95105729 0.18133687 0.89680057 -0.34298209
O 16.15384575 3.07950219 9.93805812 0.05376731 0.09780111 -0.78171634
159
Lattice="25.185063 0.000000 0.000000 0.000000 6.235478 0.000000 -2.809439 0.000000 11.544648" Properties=species:S:1:pos:R:3:force:R:3 Energy=-622.663115 Virial="-56.178594 -0.454076 -0.730360 -0.454076 -46.471979 -2.002097 -0.730360 -2.002097 -41.289174" Ga_vac_type=Ga_oct Ga_vac_tier=low Ga_coord=6 defect_vacancy pbc="T T T"
Ga 0.01150705 0.01850002 4.46048856 -0.11117191 1.55671440 -1.10793430
Ga 12.61387267 6.21238855 4.54499414 -0.25412694 0.93203396 0.51259596
Ga 0.00986322 3.09797005 4.47127574 -0.63886233 0.92667193 -0.54395786
Ga 12.58644764 3.08504521 4.61140982 -0.32840129 -0.18626373 -1.54978654
Ga -1.53225000 6.25720479 10.27751985 -0.46448403 0.40530760 -0.35858431
Ga 11.27571203 6.22473134 10.35615954 0.53073302 -0.77988368 -0.02604847
Ga -1.41855758 3.09177472 10.26708322 0.02016573 0.26532961 -0.61122183
Ga 11.24534099 3.11188170 10.32231524 -0.09010046 0.83825653 0.47091707
Ga 11.15896730 0.11373738 1.24585279 0.04866784 -0.88019895 0.93093966
Ga 23.65254127 0.05518473 1.08788889 1.42179695 -0.69262521 0.76487397
Ga 11.09907905 3.25913766 1.16971740 0.37374044 -0.19750292 0.20290853
Ga 23.88298799 3.05745096 1.08572855 0.65984076 -1.17640397 0.56513935
Ga 9.68688915 6.16748783 7.05298321 1.31919060 -1.43027771 -0.06572394
Ga 22.41577945 0.07426350 7.05889547 -0.66245571 0.62469798 0.32222748
Ga 9.76716646 3.16445830 6.90460748 -0.05427603 0.30641701 0.79344544
Ga 22.51556666 3.20677077 6.98288660 -1.29433402 0.36917043 0.66461425
Ga 6.23441206 1.50736952 4.61117740 -0.98123582 -0.59872427 0.32232974
Ga 18.93391131 1.68987767 4.57147419 -0.53793816 2.07430625 -0.66234557
Ga 6.25156647 4.62199682 4.46766405 -0.64953065 0.47936858 -0.31802616
Ga 18.88100644 4.75927950 4.62537749 0.54250889 -0.73640077 0.67172867
Ga 4.86351561 1.60081493 10.37419082 -0.24372459 0.81032680 0.54491789
Ga 17.50761196 1.59004069 10.45163169 -0.54259391 -1.23336430 -0.17958727
Ga 4.83108657 4.67255378 10.22313313 0.58451466 1.12051617 0.95223319
Ga 17.55180598 4.70237391 10.40833349 -0.66057057 -0.38069524 -0.60561016
Ga 4.87291341 1.51082381 1.18730820 0.58795288 0.18788177 -0.98509005
Ga 17.39334321 1.68133200 1.29985529 -0.37590522 -0.87438224 -0.96981643
Ga 4.94233350 4.58947219 1.15846753 -0.53501059 -0.13409440 0.65943419
Ga 17.37735922 4.68441202 1.30628864 1.51654182 -0.93864020 -0.36900866
Ga 3.47949102 1.60904403 7.03758632 0.57474769 -0.23354838 -0.45160340
Ga 15.92531012 1.62256078 6.77933604 -0.10790912 -0.44576958 -0.21396956
Ga 3.57308541 4.65225500 6.95199043 0.40820519 0.29944236 -0.07922522
Ga 15.99364896 4.69468992 6.98782001 2.75217472 -0.68219739 -0.27215951
Ga 1.69429794 1.65545422 1.69570713 0.50142538 -0.51713743 0.18830611
Ga 14.09168616 1.49967508 1.72343067 0.27019887 0.50594552 0.52881166
Ga 1.48971904 4.62070358 1.80074161 -0.30426967 -0.40647510 -0.11290773
Ga 14.14456415 4.62591313 1.84444339 -0.10357773 -1.07277363 -0.10039186
Ga 0.19139993 1.50983630 7.59493408 -0.56615082 0.99301815 -0.20853912
Ga 12.67990154 1.50637317 7.66858246 1.21415495 -1.06449053 0.64578954
Ga 0.16811632 4.68712250 7.51190551 -0.58556993 -0.98284314 -0.29036471
Ga 12.78604699 4.73163437 7.56654572 0.45992380 -0.26592253 0.50867944
Ga 9.67800657 1.59313001 3.96850839 0.01151578 1.09974823 -0.34438204
Ga 22.28731328 1.50594497 3.96081216 -1.76216370 0.40423292 -1.12974638
Ga 9.65941450 4.65710318 3.99413695 0.46453505 0.00047414 0.05156419
Ga 22.24469099 4.64361011 4.10935562 -0.86765906 0.13273462 -0.18116819
Ga 8.13450842 1.54094614 9.87088116 0.95212032 0.36932082 0.58680626
Ga 21.05473650 1.64830601 9.76057508 -2.20987565 -1.57530585 -0.55473315
Ga 8.13507726 4.64657957 9.77836543 -0.01298348 -0.58757953 0.95065751
Ga 20.87798614 4.84213721 9.80455989 -0.95008249 0.48119195 1.09410473
Ga 7.87925054 -0.01839000 1.79630651 -0.48102321 1.72186321 -0.46735580
Ga 20.43898803 0.01793757 1.83324710 -0.23651869 -1.19609939 0.72531070
Ga 7.86888043 3.14161562 1.84577226 0.94163245 0.48420072 -1.48203361
Ga 20.32283935 3.09945932 1.81278375 0.80858762 0.59004618 -1.28284257
Ga 19.07311699 -0.02299948 7.52998033 1.45357872 0.42701178 -0.27487750
Ga 6.44967199 3.14479440 7.63850876 0.73865398 -0.18885304 -1.18091016
Ga 19.01427145 3.07433828 7.65738939 0.66040740 0.02193846 1.50897046
Ga 3.29092593 -0.04125657 3.90281895 -0.20241213 0.75089526 -0.18400908
Ga 15.89123432 6.31268943 3.89189800 -0.63451430 -0.34910429 -1.44093368
Ga 3.28982682 3.00291320 3.88329168 -0.38409157 -0.62338894 1.24873303
Ga 15.89727701 3.05384194 3.84016462 1.07423226 1.87475945 0.18576087
Ga 1.93566778 0.06235367 9.69796526 0.24314420 -0.44260781 0.46441154
Ga 14.59391516 6.17939765 9.82036346 -0.38762156 0.37039553 -0.99683728
Ga 1.99284762 3.25106250 9.65746317 1.30373823 0.20169240 -0.44423706
Ga 14.47117949 3.11573582 9.70571614 -1.05024922 0.14784434 0.09994502
O 1.82372315 6.18452933 0.70803935 0.73188189 -0.26431005 2.09308154
O 14.43958350 6.15097104 0.64910159 -0.24457314 1.49714638 -0.26236313
O 1.94776771 3.21608929 0.55912706 0.06751332 -1.64878995 -0.25840392
O 14.44800430 3.19341019 0.59213294 0.74484592 -0.55853695 0.99886068
O 0.52234901 0.02733375 6.39009776 0.01094660 -0.18120916 0.00789336
O 13.21026621 6.28735190 6.46310032 0.03917410 0.61160886 -0.43007526
O 0.56836634 3.15927830 6.38959589 -0.95607420 1.38432866 0.18143556
O 13.13038717 3.05899875 6.34605933 -0.39501850 -0.30819432 0.45844366
O 9.37647512 -0.02563377 5.14210136 -0.40801985 0.77287054 -0.70086104
O 21.94615108 0.03989014 5.16397012 0.11373165 -1.10311517 0.37070690
O 9.28589058 3.13438864 5.25511874 0.11265917 0.37740600 -0.56139798
O 21.87408048 3.12761739 5.15693143 -0.95581375 -0.28140086 -0.85410393
O 7.83835742 6.12662267 10.89306320 0.43951590 0.78127024 -0.40647952
O 20.52710255 6.20609468 10.90677728 -1.52966771 -0.42034600 1.31193880
O 7.76521365 3.09812550 10.89713393 -0.44069131 0.41532414 0.33231357
O 20.47600606 3.05957533 11.00394371 0.19215068 0.71818819 -0.76310279
O 8.15205701 1.39894738 0.64317608 -0.19342602 0.12586612 -1.31654900
O 20.78876622 1.61253601 0.62764220 -0.44269914 -0.16775587 0.35935262
O 8.12001881 4.74425319 0.59416100 -0.75967444 0.21891882 -1.11206726
O 20.77031408 4.59738654 0.63233744 -0.74476547 0.09871944 -0.07604180
O 6.83087743 1.54506307 6.35413238 0.72439988 -0.73383299 0.64302506
O 19.29142851 1.57569119 6.37476503 0.98951283 0.26926397 -0.86693355
O 6.71751847 4.79044419 6.34785606 0.27927749 0.32792775 0.34773306
O 19.45454368 4.65583885 6.34541421 -1.38762837 -0.49352731 0.51976646
O 3.06723267 1.52394774 5.19491232 -0.75693652 -0.42938029 0.03672993
O 15.57337200 1.65062995 5.09940025 0.91649830 0.98194982 0.14620007
O 3.10381275 4.63422740 5.15834046 -0.79688221 -0.18871485 -0.21432234
O 15.46809836 4.69782929 5.09827743 1.00674775 -1.36205441 0.74967063
O 1.67826076 1.49133945 10.97117490 -0.31981539 -0.80731351 0.40168319
O 14.15043718 1.55478605 10.92804714 1.06836836 0.46767063 0.45661324
O 1.73340058 4.73661853 10.88236933 0.86111330 1.66594122 -0.18389941
O 14.27616772 4.78369736 10.89593220 0.09338539 -0.30732352 0.56813186
O 1.45121130 6.20134570 3.26913454 -0.03286223 -1.17655296 0.97018784
O 13.97993214 0.03950441 3.25574759 -1.19217575 1.77986533 -1.69529876
O 1.34350841 3.17308141 3.31336681 -0.15056505 0.53143936 -0.20321589
O 13.90777326 3.08266655 3.28676011 0.72251086 0.30872111 -1.34801432
O 0.04141142 0.01085300 9.14462839 0.36754858 1.42289064 0.09937598
O 12.56919270 -0.01908149 9.01496044 -0.39585788 0.08846730 -0.35110658
O -0.15056721 3.15950177 9.02942980 1.07840246 -0.12425847 1.32297838
O 12.56991454 3.16375236 8.91370048 -0.60080482 -0.96377610 -0.59925448
O 9.74612516 6.29391286 2.44131157 -0.98875728 2.56252441 -0.37705685
O 22.40928993 6.20306224 2.61500171 -0.79998525 1.33217618 0.11636812
O 9.85716021 3.08999896 2.40424676 -1.30229095 -1.24341988 -1.16172488
O 22.47002436 2.95180340 2.51630315 -0.07939302 -0.01504102 0.73551631
O 8.46682955 0.00241308 8.36027561 0.38039687 -0.15549139 1.35022533
O 21.02010838 6.25881624 8.32015899 1.76912437 -1.51698325 -0.47678123
O 8.49213625 3.12817621 8.31394140 1.18361234 -0.98159683 -0.13225252
O 20.97168441 3.24309158 8.30347640 0.54541722 0.34219334 -0.35702463
O 7.66217642 1.54549636 3.26105844 1.87914468 0.64284422 -0.63849815
O 20.34142260 1.42264018 3.38542544 -1.31558136 -0.28455293 -1.59330218
O 7.77926947 4.75145150 3.24232073 -0.45601995 0.01438813 0.88854435
O 20.32768320 4.71282205 3.19952493 0.69104776 0.66005163 -0.16044080
O 6.36560953 1.63740116 9.11438237 -0.68782379 -0.33698424 1.09636789
O 18.88404546 1.59193466 9.03536626 0.00759468 0.38000009 0.28379570
O 6.30396508 4.59495073 9.15488738 -0.78735017 -1.64341308 0.40083841
O 18.85698796 4.69004376 8.89982852 -0.47148832 0.95806192 0.53066387
O 3.51621044 1.49050813 2.58129488 0.04258089 -0.66806917 0.08646630
O 16.10901076 1.47044788 2.55713627 0.14583580 -0.61427099 0.41253693
O 3.48619547 4.67218812 2.51415218 0.92857213 0.43360222 -0.32909354
O 16.13791739 4.67343921 2.68009523 0.37822622 1.69491379 0.12319692
O 2.07693612 1.51432946 8.25671931 0.70915091 0.94427671 -1.03614456
O 14.60315909 1.55966625 8.35874511 1.33873338 0.91772281 -0.04196363
O 2.06831704 4.65550533 8.26093322 0.23960454 -0.39471027 1.15923117
O 14.79420774 4.68734011 8.19259571 1.30372799 -0.83794416 -0.86613298
O 12.17504267 1.55716728 1.44400661 0.17307968 -2.00855839 -0.84985971
O 24.63197094 1.52223493 1.48328337 -1.16420959 -1.17038283 0.75271758
O 12.20275221 4.74533164 1.47854986 0.22559539 -1.66001211 1.98601113
O 24.74286041 4.60879374 1.57156213 -1.27875925 -0.96876644 -1.22341437
O 10.66103102 1.57370752 7.17468519 0.74112274 0.58554339 0.12144281
O 23.29844468 1.60289176 7.34344082 -0.65081754 -0.16624406 -0.84371781
O 10.69432066 4.66568057 7.18223030 1.55950046 1.41050472 -1.40234459
O 23.33461129 4.62971892 7.36050097 1.82258721 -0.03990792 0.70656807
O -1.04686239 1.57100394 4.36114644 0.60831202 1.76665262 -0.06126062
O 11.64301034 1.59392380 4.34145534 -0.11743641 -1.06892819 0.78474068
O -0.86759836 4.73686486 4.29929061 -1.10565053 -0.40945505 -2.01097511
O 11.58688538 4.71928067 4.29784474 -0.71430457 0.15360586 0.92499015
O -2.38477682 1.58435547 10.11414364 0.78760835 -0.42078918 1.05379155
O 10.25419263 1.58886861 9.99275470 -0.60140783 -0.70572137 0.32047080
O -2.28052219 4.69924225 10.02467038 0.37670096 -1.06684919 -0.69491477
O 10.20373951 4.76424459 9.99939013 0.14622750 -0.43527360 -0.83515268
O 5.99089917 6.15234722 1.65695171 -0.42674109 -1.00736063 -0.08876102
O 18.41052875 0.02862661 1.50889910 -0.40814605 -0.50475517 2.29930760
O 5.80211265 3.07824615 1.50280521 0.70479219 1.06880103 -0.69905811
O 18.53497021 3.11438020 1.45261241 -0.21629843 1.24257731 -0.03091428
O 4.39970977 6.23852469 7.30493003 -0.73992969 -0.70998977 0.38548390
O 17.10146829 -0.00251977 7.30895083 0.37727165 1.17246232 0.49141499
O 4.58889983 3.03364256 7.24497466 -0.16108536 -0.79033198 -0.15874163
O 17.05316402 3.05803036 7.30034061 0.70683621 0.71100217 0.85938097
O 5.23662101 6.15191999 4.30655162 0.57675907 -1.04571133 -0.69841426
O 18.07214748 0.20486824 4.31448524 0.31394848 0.52045223 0.06983384
O 5.30738680 3.06996201 4.32021376 -1.27769455 -0.99927489 0.13916610
O 17.96776814 3.12419807 4.27136480 -0.37312038 -0.83622991 0.60976120
O 3.94655434 6.17732879 10.01417218 -0.07984187 0.04481031 -0.57541563
O 16.47180663 0.04986084 10.07523247 -0.86075909 0.85625329 0.44508269
O 3.99477426 3.10193855 9.93376382 -1.79640770 0.09079102 1.07176688
O 16.46477797 3.14034742 10.11971144 -2.82528003 -0.02478520 -0.15514045
159
Lattice="25.111910 0.000000 0.000000 0.000000 6.217366 0.000000 -2.801279 0.000000 11.511115" Properties=species:S:1:pos:R:3:force:R:3 Energy=-623.109385 Virial="-54.780284 -2.357243 -1.940601 -2.357243 -47.833942 -2.249881 -1.940601 -2.249881 -41.515234" Ga_vac_type=Ga_tetra Ga_vac_tier=low Ga_coord=4 defect_vacancy pbc="T T T"
Ga -0.02238037 -0.06287281 4.55893412 1.20253106 -0.47730760 0.92847126
Ga 12.63598634 6.17760412 4.58980184 -0.27805528 0.09989832 -0.92419532
Ga 0.14997552 3.12731304 4.54733730 0.17505597 0.60874979 0.53719526
Ga 12.60143661 3.09010058 4.56124506 0.68884265 -0.20424033 0.12983570
Ga -1.43381663 6.23165737 10.36509815 0.16471104 -1.32416319 1.22171542
Ga 11.12846010 6.24665291 10.26312173 0.26745690 0.21645084 0.10722622
Ga -1.42837231 3.06763947 10.32441859 0.44362218 0.97625566 0.46476835
Ga 11.17056402 3.13725837 10.35860461 0.31288782 0.01604688 0.29368388
Ga 11.20710452 -0.07894707 1.16620278 0.52176955 1.09927293 -0.29620481
Ga 23.68302669 -0.07374079 1.15450722 -1.16722912 1.40573598 0.07184075
Ga 11.13616188 3.06115726 1.25083605 -0.62425471 -0.87052132 0.16018580
Ga 23.70487597 3.16883021 1.14385174 0.17674016 -0.55438994 1.31336165
Ga 9.73304224 6.13839988 6.90612764 -0.21370213 -0.40464692 0.05265241
Ga 22.26766770 0.04166578 6.97765723 0.94732057 -0.43995119 0.30089456
Ga 9.73342784 3.05081548 6.94358127 -0.88855185 0.37843976 1.10872119
Ga 22.26107778 3.11842460 6.97919863 -0.42041318 -0.30694378 0.73898693
Ga 6.25477885 1.53710053 4.60091626 -1.35900729 -1.28546301 0.12689087
Ga 18.82479222 1.52634235 4.55601559 0.82047396 1.23857715 -0.36056284
Ga 6.31003255 4.61986050 4.49930342 -0.25106969 0.50760058 -0.84875867
Ga 18.84607060 4.66713056 4.62150599 -0.73618714 -0.14487262 0.28518627
Ga 4.94540238 1.53469218 10.30369011 0.15100764 0.39730145 -0.06565974
Ga 17.40905000 1.53581478 10.32433498 0.86543950 -0.80857717 0.73724776
Ga 4.94284957 4.61042362 10.32400389 0.05170928 -0.25549548 -0.42182178
Ga 17.46912831 4.61368068 10.29228357 -0.54277653 0.72915248 -0.07968211
Ga 4.93448440 1.57004385 1.19416538 -0.75347509 0.19912517 -0.19260248
Ga 17.44158102 1.61745184 1.17358768 0.32882730 -1.33419182 -0.88581197
Ga 4.79660427 4.70003747 1.22503191 -0.35157398 -0.03815330 0.90645540
Ga 17.41014670 4.59727122 1.29678896 -0.47844664 1.69912766 -0.40664940
Ga 3.46291515 1.52414921 6.94916946 0.26382244 -0.42706825 0.32054303
Ga 16.01226809 1.53346219 6.90426822 0.05594211 -0.77997833 1.01711993
Ga 15.97334126 4.66539360 6.91819161 -0.61362785 -0.75774733 0.14997452
Ga 1.58736809 1.54980556 1.83046680 -0.22315739 -1.08783971 -2.43550992
Ga 14.14320680 1.52301815 1.81966409 0.02616185 -0.17263602 0.30601997
Ga 1.56365885 4.73055985 1.80923472 0.09329757 0.89509849 -0.52499525
Ga 14.08244114 4.59042842 1.78980720 -0.03980320 1.38228121 -0.91435760
Ga 0.14547235 1.59133159 7.49785411 0.67281786 0.57019435 0.56835202
Ga 12.72209756 1.59155873 7.58003556 -0.09327024 0.13441469 -0.59949865
Ga 0.08358520 4.64906426 7.56819930 0.75857251 0.31227234 1.29674741
Ga 12.67798782 4.67442642 7.51580998 -1.10392435 0.61327275 0.19148278
Ga 9.58891488 1.59525669 3.96604340 -0.28029417 -0.28379903 -0.04308245
Ga 22.17301109 1.55357302 3.89486537 -1.04398142 0.09794840 -0.60301538
Ga 9.56454951 4.74573977 3.91882262 0.64187062 0.58560426 -0.32897723
Ga 22.06252388 4.63692656 3.90196507 0.26182122 -0.18936538 0.38419516
Ga 8.15776780 1.54807314 9.67656245 0.44670169 0.35113104 -1.33556873
Ga 20.82144835 1.52056875 9.69678602 0.28684659 -0.66358482 0.13477641
Ga 8.12307580 4.64095893 9.72515181 1.16582039 0.10432606 -0.02457238
Ga 20.75674178 4.75851603 9.58137945 0.95603801 0.55512359 -0.51263584
Ga 7.81590206 0.02410865 1.82320927 0.20686290 0.61402964 0.31952957
Ga 20.40142140 0.00374842 1.72464119 0.70221021 -1.00617451 0.60190907
Ga 7.82541441 3.19058655 1.81593348 -0.33152325 0.67702639 0.97403392
Ga 20.41296657 3.10176608 1.80166911 1.48393185 -1.01915559 1.11723288
Ga 6.40401387 0.06111424 7.53179718 -0.96866896 1.07914720 0.20745638
Ga 18.98477373 0.01243560 7.48836763 -0.72761949 -1.03338645 0.53568573
Ga 6.42820864 3.06527837 7.53388499 -0.91586155 -0.55102797 -0.99786708
Ga 19.01324471 3.07376155 7.61680557 -0.45379491 -0.23696301 0.30141113
Ga 3.33866352 -0.04970618 3.88189005 0.63016089 -0.13261910 0.19086993
Ga 15.94464191 6.22042421 3.90419682 0.50048911 -0.03524272 -0.17620847
Ga 3.27961845 3.13551554 3.86149466 1.30410799 -0.50585635 -1.36497800
Ga 15.88237208 3.07810812 3.82632485 -0.38872230 -0.30007608 -1.41795287
Ga 1.92607532 -0.00596565 9.72554373 1.72832678 -1.43745480 -1.79800956
Ga 14.46331837 6.28070762 9.66000401 0.30776977 0.08181761 -0.10865547
Ga 1.93067744 3.06627670 9.68868082 -1.14130532 2.05872425 0.13999841
Ga 14.48605738 3.14070548 9.78089252 -1.21548420 0.07556783 0.55508224
O 1.92705763 6.20849153 0.62468777 -0.87081982 -0.12715537 0.42075996
O 14.47246588 6.22899216 0.61493699 0.41961031 0.68079820 0.38489835
O 1.94077526 3.17560250 0.63129605 1.07880069 1.33897401 1.76569070
O 14.45228923 3.12991401 0.62015295 0.12841400 -1.00578847 0.63872666
O 0.42229056 -0.03671155 6.40476441 -0.26263402 -0.78686866 1.60821490
O 13.06245883 6.20841314 6.41733435 -1.44708129 0.89989706 -0.93652548
O 0.41341841 3.12169033 6.43062376 -0.03112081 0.75092491 0.48282307
O 13.02250081 3.19041517 6.39046695 -0.00588879 1.25118886 0.49138184
O 9.29038812 -0.01036493 5.16601856 0.06128650 0.74708175 -1.18001172
O 21.87415390 0.01346814 5.10507410 -0.51823743 -0.31627994 -0.19605427
O 9.26326290 3.06332098 5.14790967 0.65369086 0.66755272 -0.40747359
O 21.77216128 3.12234441 5.16504810 -1.23345433 0.62062833 0.69158249
O 7.76294822 6.18988390 10.95709578 0.09986405 -0.27433944 -0.28309247
O 20.39749349 6.19676883 10.96384074 0.36685930 1.16020614 0.10633479
O 7.78495846 3.07796255 10.89386124 2.02650939 1.17107808 -1.13491179
O 20.45375947 3.11192740 10.88051836 -1.40641822 -0.04863052 0.83375249
O 8.17785732 1.52955478 0.56860185 -0.58929357 -0.84620861 0.66624868
O 20.78862151 1.58848106 0.60639681 -0.47956620 0.43839525 -0.68913629
O 8.17304257 4.69437836 0.60489840 0.55927219 1.41617923 -1.15220034
O 20.67332905 4.66325162 0.68004664 -0.54903300 0.13619756 -0.70189964
O 6.68685486 1.57768661 6.33223439 -0.75710864 -0.93190215 -0.56043978
O 19.40661687 1.57387713 6.45000889 0.35839786 0.10605721 0.35739160
O 6.77243737 4.75234891 6.33917633 -0.93954455 -2.43958738 0.51491593
O 19.33504411 4.62668189 6.29313221 0.15792847 0.46875062 -0.08731386
O 3.00456591 1.54320298 5.06318818 1.11818150 -0.50011577 0.16343707
O 15.52343107 1.53520787 5.05819259 0.34753673 0.99534491 0.89165843
O 2.92241972 4.59135455 5.05325231 0.14948443 -0.70398449 -0.85439013
O 15.55314802 4.57455685 5.13189136 -0.41869567 0.77342964 0.30271009
O 1.56920207 1.62056625 10.80967528 -0.79034752 0.44131049 0.50629535
O 14.20132300 1.56304778 10.81772183 0.49250608 -0.27761494 0.25016150
O 1.62874177 4.67816594 10.84143879 -0.53461585 0.95405010 0.25756220
O 14.15021862 4.65912231 10.78597885 -1.46273801 0.00735926 -1.55057402
O 1.43670018 6.22596973 3.19566202 1.31082015 0.69415243 0.62671171
O 13.90943826 0.00802481 3.28500213 0.21865840 0.59879071 -0.24221015
O 1.29232665 3.18378742 3.17041170 -0.26278623 -0.16035187 0.04137879
O 14.04248155 3.04388788 3.30361807 -0.02690813 -1.03307903 -0.16220554
O 0.01711489 0.07477620 8.93890913 0.17972800 -0.10154465 -0.69850254
O 12.49549359 -0.07413993 9.03985242 0.91444282 0.77341398 -0.99926097
O 0.02621959 3.19291286 9.00249572 1.04055801 -0.14178900 -1.09703951
O 12.44689272 3.10474313 8.93921200 -0.28108354 -1.17994579 -0.40564625
O 9.76464876 6.31508659 2.48663608 0.39756416 -0.05341721 -0.95687917
O 22.26924242 6.19363867 2.45169701 0.11816454 -0.83043218 -0.63160194
O 9.73977387 3.02368985 2.53181398 -0.60770840 -0.28811108 -0.20931345
O 22.34247980 3.08561211 2.45885720 0.13496431 -1.05026299 1.80518034
O 8.35764209 0.02865142 8.31483010 0.56956198 0.86143943 0.27111812
O 20.91484772 6.23476670 8.26456833 -0.47910438 0.01443363 0.96870717
O 8.41858830 3.11228918 8.25133667 -0.20002402 0.75791555 -0.75840938
O 20.93505971 3.09709190 8.33668508 -0.35681711 0.08630079 -0.14781590
O 7.71590826 1.60516505 3.21095942 -0.08805485 -0.12193784 -0.18308376
O 20.25017650 1.56139636 3.26298755 -0.49340085 -0.59765306 0.05433657
O 7.69708089 4.61040152 3.29562529 0.04719863 1.22655804 -0.45749488
O 20.22780448 4.72461119 3.22125026 -0.02513818 -1.48757562 0.02942729
O 6.24824468 1.60149629 9.00569631 -0.36700508 0.02174425 -0.65005115
O 18.82554193 1.64621769 9.01564250 -1.16124841 0.77325507 1.13552630
O 6.34756056 4.69194311 9.02667976 -0.30004948 1.62168522 -0.63266540
O 18.76172550 4.67269868 9.09247940 1.10206409 -0.12205489 -0.27535394
O 3.49629235 1.50055489 2.46723284 -1.09674009 1.86451957 0.78244525
O 16.05318876 1.53980182 2.52592179 -0.54409174 0.37957118 -0.47421612
O 3.50898616 4.68397188 2.56514606 0.02957914 -0.55824010 1.44550740
O 16.05033734 4.67607606 2.47137599 0.32856626 -1.16475966 -0.96445001
O 2.09252253 1.52402572 8.27970158 0.30130509 -0.28681714 0.98577555
O 14.61131888 1.50618218 8.38619417 -0.21950514 -1.01774182 -0.08930911
O 2.07488148 4.71965112 8.32830869 0.25391143 -1.33068914 -0.91224181
O 14.62094648 4.64394628 8.33046017 -0.02617165 -0.86659284 -0.65688113
O 12.12005241 1.59641262 1.49579502 -0.10917045 -0.64123258 1.03215005
O 24.61155267 1.53598468 1.49050650 0.19008310 -0.11455515 0.76059259
O 12.15947272 4.71114566 1.51708602 1.54054700 -0.53391259 0.09054641
O 24.66893588 4.62988021 1.43937903 -0.08273815 -0.03387726 -1.53025504
O 10.73712435 1.50442832 7.24984338 -0.62492268 -0.19002650 0.12684645
O 23.28676588 1.55873803 7.24738432 0.83354302 -0.66759402 0.31138248
O 10.72235256 4.67676002 7.26472929 0.50807228 -1.19645449 -1.22480493
O 23.32324169 4.58315130 7.27889031 0.27279948 -1.09189063 0.52431609
O -1.02461599 1.52509293 4.34151213 -0.44781089 -0.32830040 1.38046703
O 11.55721183 1.52742341 4.29341640 0.89314210 0.80593728 0.03381885
O -0.88461207 4.62479602 4.20614655 -1.43043361 0.22091072 -0.51681557
O 11.57195370 4.70188439 4.32918970 -0.33660296 -0.47869954 0.01617678
O -2.33913377 1.63809626 10.06668924 0.25502882 -0.17716527 0.28812079
O 10.12423986 1.50648379 9.97302711 -0.67617445 -0.42296028 0.82791889
O -2.36594467 4.65103643 10.03849179 -0.74892657 -0.28071634 -0.33740261
O 10.21169620 4.72126240 10.09046755 0.25594831 -0.15819506 1.29641772
O 5.85658566 6.16551137 1.55064297 -1.26262095 1.10545949 0.04869854
O 18.39949737 -0.01163574 1.49446870 -0.86159667 -1.25426179 0.61445239
O 5.80849251 3.16961898 1.44887088 1.72086475 -0.00356195 0.22644706
O 18.39677607 3.07609182 1.44600150 -0.64580730 0.67527433 -0.54276881
O 4.45432533 6.24437079 7.19472687 0.37803164 -0.14746916 -0.63849755
O 16.98797790 -0.03379317 7.21717336 -0.55819431 -0.19975360 -0.35222694
O 4.46462142 3.10212202 7.18286948 1.33676807 -2.31167928 0.61753246
O 17.05252951 3.12457415 7.23459155 0.78489039 -0.43640470 -0.28814923
O 5.26300473 6.26096761 4.29456156 -0.56274406 0.23967513 0.10704139
O 17.85184993 0.02401855 4.28950199 1.88679216 -0.02016794 1.19984824
O 5.31682122 3.07966154 4.27851020 -0.13538484 0.50792770 -0.10517845
O 17.85099034 3.00828576 4.26561433 -0.72530627 -0.42803372 0.18466206
O 3.87980284 6.26806563 10.06052826 0.37087737 1.72487580 -1.29403838
O 16.38674831 -0.01552451 9.99422234 0.23671469 0.48454360 -2.39928246
O 3.80090285 3.15075277 10.02453545 0.75927444 1.16553265 0.36825507
O 16.42695219 3.11584050 10.01829846 -1.15412453 -0.55175863 -0.09818264
159
Lattice="24.868652 0.000000 0.000000 0.000000 6.157139 0.000000 -2.774143 0.000000 11.399607" Properties=species:S:1:pos:R:3:force:R:3 Energy=-621.817892 Virial="-54.056516 -0.426997 -3.171137 -0.426997 -44.718735 -3.777468 -3.171137 -3.777468 -38.848946" Ga_vac_type=Ga_oct Ga_vac_tier=low Ga_coord=6 defect_vacancy pbc="T T T"
Ga -0.01605985 0.15541045 4.51737755 -0.14394429 -0.86886106 -0.35291336
Ga 12.44636671 6.22765486 4.49407778 -0.62210940 0.72649536 1.08598598
Ga -0.09642703 3.05464207 4.58135148 -0.09868284 0.58418652 -0.45794804
Ga 12.46288134 3.10208658 4.65736649 0.57096585 0.85732024 -0.16241595
Ga -1.37494321 6.24281427 10.28965666 1.03996282 0.23944040 1.01276004
Ga 11.09162095 6.16754618 10.16696480 -1.17044944 0.23428115 0.82091808
Ga -1.45049326 3.04091953 10.19811850 1.65478470 0.56636399 0.15540600
Ga 11.03823070 3.02985684 10.16607646 -0.14210089 0.83955372 -0.13385627
Ga 11.00892493 0.06426515 1.14360853 0.30252883 -0.60296961 -0.24921820
Ga 23.48551368 0.00285959 1.23141609 -1.08973595 0.30274634 -0.57290350
Ga 11.04459767 3.09956406 1.15680723 -1.00081948 -0.88777821 -0.27845966
Ga 23.38629098 2.98805770 1.09836626 1.85358920 -0.12090232 0.69270735
Ga 9.63206796 6.12454419 6.88379063 -1.09213743 0.41727001 1.76610466
Ga 22.11177905 0.07099142 6.81391595 0.51748515 -0.14822624 0.36978521
Ga 9.79483956 3.06596636 6.90628235 0.63434997 -1.14892605 0.38001802
Ga 22.06205265 3.07392540 6.82753521 -0.00279127 0.45089631 0.16545233
Ga 6.23672024 1.58891617 4.55328324 -0.55579746 -0.18917531 -1.32819304
Ga 18.58103202 1.57039175 4.54454968 -1.05904232 0.04462356 -1.58044213
Ga 6.24702830 4.62757637 4.39720349 -0.04375488 -0.03531536 -0.94424642
Ga 18.60457186 4.69918923 4.54283825 -0.02723239 0.41825584 0.49103484
Ga 4.83931704 1.55266103 10.24551150 0.29979222 -0.75592917 1.34581352
Ga 17.43106763 1.54007954 10.30921318 -0.97420804 0.49740796 -0.74094971
Ga 4.87974396 4.62896036 10.18577573 -0.17224984 0.13804619 -0.39891150
Ga 17.19123702 4.58765697 10.22112916 0.33683115 -0.35815105 1.85831422
Ga 4.74600910 1.52213915 1.14356255 0.02818468 0.95017212 0.03412653
Ga 17.30284497 1.56537326 1.04565233 0.04691320 0.76390114 0.28955840
Ga 4.94147404 4.56528157 1.14730150 -0.08402456 -0.02483514 0.19695783
Ga 17.24939884 4.59020329 1.13030300 0.14254036 -0.11925853 -0.56502473
Ga 3.40809334 1.59604374 6.87399173 -1.08804464 -0.52167828 -0.52950878
Ga 15.88100506 1.46916020 6.89296051 -0.39127555 0.57209584 -0.80100585
Ga 3.37696567 4.61051457 6.93556205 -0.54020085 -0.16058300 0.42345940
Ga 15.92672048 4.67201233 6.86487655 -0.52502007 -0.33251236 -0.94617546
Ga 1.59972202 1.49276208 1.76376682 -1.61579279 0.58121368 -0.37094430
Ga 14.07560595 1.61698672 1.77810619 -0.52744183 -1.37711985 -0.99511308
Ga 13.88053765 4.69224052 1.82019073 0.63658375 -0.13572337 -1.04255000
Ga 0.19809811 1.46612896 7.42713745 -0.62103073 -0.61362747 -0.55324824
Ga 12.63463497 1.49272342 7.50464191 -1.63179178 0.49091714 0.22053056
Ga 0.14361869 4.66145230 7.44132353 1.15617896 -0.86775528 -0.88506614
Ga 12.51209495 4.65508976 7.38882896 -0.11275492 0.86955479 0.69430964
Ga 9.49005506 1.55616940 3.96641593 0.76258214 0.34171983 -0.43742582
Ga 21.97590193 1.54848582 3.94774808 -1.11544114 -0.41687809 -0.33171123
Ga 9.51259931 4.70310046 3.84685603 0.56668872 1.32445905 0.70042431
Ga 21.98427112 4.63855247 3.90262126 1.40879124 -0.05972668 1.87092697
Ga 8.06064599 1.54647946 9.60055552 0.01578726 1.94236636 1.02481696
Ga 20.53894579 1.58590928 9.61058989 -0.10489482 -0.93872957 -0.14193086
Ga 8.10480592 4.56016035 9.55988611 -0.18931492 -0.22291843 1.00614404
Ga 20.60450919 4.58686698 9.51224769 -0.60493633 0.01130396 -0.36125341
Ga 7.73415918 -0.00759413 1.80186697 0.30562515 -0.31775336 0.64195042
Ga 20.12901824 0.02651655 1.70475738 1.15038751 0.68020489 -0.37718723
Ga 7.86858525 3.05788514 1.81640844 1.04378592 -0.14749041 -1.13588682
Ga 20.15400101 3.06212361 1.75647232 -0.30926880 1.33502817 0.37138129
Ga 6.40622290 -0.08460134 7.50686651 0.24489605 0.59176952 0.29925507
Ga 18.74671018 -0.06586496 7.54615405 0.15455970 0.01705035 1.15094038
Ga 6.42934878 3.09335902 7.56263854 0.66688819 -0.43693543 -0.07739729
Ga 18.72554061 3.09284944 7.49849172 -1.33401783 -0.32534905 -0.13674424
Ga 3.45153913 0.01437104 4.01334162 -0.43519596 -0.60585272 -1.63141513
Ga 15.82026613 6.21080269 3.86614440 -0.24487337 1.24212817 0.59431314
Ga 3.08517854 3.00970232 3.77749130 0.13992149 -0.71149746 -1.26383401
Ga 15.80738222 3.03359315 3.91836952 -1.86187685 0.71631303 -0.36281370
Ga 1.94533615 0.00600126 9.60567946 1.70280018 0.05468048 1.40494601
Ga 14.35344677 6.15789542 9.56608127 0.43710004 0.94719259 0.25798648
Ga 1.91774839 3.02400704 9.62460063 0.00849443 -1.64793459 -1.56206304
Ga 14.41392717 3.00470661 9.64708351 2.31908386 -0.17355321 -1.06333941
O 1.89016695 6.15126180 0.67649103 -0.86900590 0.82451590 -0.32645968
O 14.32376845 5.98513733 0.60452152 0.70580232 0.75995658 -0.61299940
O 1.89632438 3.07085845 0.60786362 -0.31473758 -0.94954933 -0.22236225
O 14.31222739 3.00270321 0.64749871 -0.82509997 -0.68542133 -0.34327810
O 0.44907950 0.02636700 6.21760257 0.24745707 2.37247108 -0.73066800
O 12.87941242 6.16659871 6.36997860 -0.57447809 0.38890663 -0.61810781
O 0.54810867 3.08842130 6.27738333 0.07998340 0.78479354 -1.19902693
O 12.87571635 3.09930700 6.32028837 0.40456006 0.25889558 -0.43900682
O 9.26945268 0.09385037 4.97620778 -0.07183899 -0.60233479 -0.24454648
O 21.67854823 0.14422104 5.09137211 -0.53509927 -0.17378907 -0.94756741
O 9.21537549 3.02692757 5.08067234 1.39841558 1.48321713 -0.03789435
O 21.58700582 3.08934942 5.10702344 0.59374058 -0.68925723 -0.13537980
O 7.75441751 6.19371521 10.82089124 -0.82785146 -0.95386963 -0.34477424
O 20.16763576 6.20790979 10.81480702 0.40886846 -0.52195217 0.26793613
O 7.83284052 3.11656912 10.73611399 0.08073025 -0.33262775 -1.52084637
O 20.08166181 2.94256038 10.77985303 0.44359408 -0.93032183 0.45596283
O 8.04577840 1.61930969 0.67975227 0.04715569 -0.38337371 -0.06213306
O 20.65887171 1.56222578 0.70337351 0.58953819 -0.06418565 -1.21823240
O 8.15109639 4.56600002 0.46935213 -0.39019649 -1.87238723 0.10506077
O 20.56982894 4.53885109 0.67629192 0.20586418 1.38763735 0.03862036
O 6.61129377 1.53011291 6.38290422 -0.62919778 1.60436359 -0.70336168
O 19.18400900 1.57974933 6.30294770 0.52673641 1.13591117 0.31592158
O 6.70370435 4.62854636 6.31522315 -0.08996367 0.06188839 0.10448483
O 19.20823790 4.66741583 6.37930882 -0.00293778 -0.27528823 0.45647224
O 2.92686434 1.55579791 5.11348192 -0.36486074 0.28040097 -0.03882858
O 15.41291516 1.47696979 5.17257990 0.44122804 0.08885308 -0.21304943
O 2.95950423 4.58830392 5.11748890 1.21716078 -0.68086519 -0.83303173
O 15.41423672 4.61581399 5.16959026 -0.17002110 0.56332911 1.05658681
O 1.61608838 1.47342582 10.81898262 -0.65520614 -0.37591792 0.42319705
O 14.02119480 1.58820594 10.79070429 -0.90874048 0.45640434 0.30447684
O 1.65644326 4.58533806 10.76311651 -0.26033402 1.11611773 0.39734935
O 13.99739325 4.71495300 10.80360759 -0.00132763 0.01326653 -0.10755235
O 1.36828100 6.18083692 3.30437467 0.27945094 -0.76717444 0.54822037
O 13.72398092 -0.02653126 3.16131559 -0.07651849 -0.42370389 -0.42157885
O 1.36886011 3.03737231 3.30290571 0.63892175 -1.48872759 0.78798421
O 13.81335383 3.03032748 3.19664487 0.19756796 -0.71790922 0.12262976
O -0.00229644 0.03298661 8.94350615 1.34468219 1.34824714 -0.01530622
O 12.39375670 0.03068487 8.92425148 -0.33984172 -0.93277188 -0.04100522
O 0.01557712 3.03179865 8.88488594 0.22657678 0.37253307 0.02374710
O 12.39915130 3.01021426 8.89258773 -0.55677918 0.00545569 -0.20660094
O 9.72713789 6.20760677 2.48771177 -0.37293959 0.46157701 0.05039972
O 22.06863797 6.16635298 2.46155697 0.72661990 -0.71591269 -0.61422376
O 9.65572010 2.94532815 2.55999218 -0.14011774 0.18525489 0.90785643
O 22.11742474 3.14415686 2.44951084 -1.05875234 -0.76206797 0.16383110
O 8.26792157 -0.02718196 8.13577814 -0.16552264 0.38122108 -1.51716417
O 20.76965725 6.18490715 8.22264441 1.41645762 0.15946462 -1.19215472
O 8.27322654 3.10650550 8.21873035 0.45798516 -0.64700666 0.38351277
O 20.74695419 3.09961127 8.26038041 0.89646023 0.93496171 0.25378244
O 7.66723577 1.57073536 3.30160877 -0.70978847 0.45204052 -0.36184965
O 20.00449222 1.51739231 3.23209407 0.01649129 -0.69978723 1.27429775
O 7.58933789 4.55987139 3.25918751 0.53109926 -0.96892465 0.69499165
O 20.14693051 4.64203346 3.24205107 0.18266954 -1.16906469 0.34343857
O 6.09926301 1.53246376 8.90094319 0.59648923 -0.49599575 1.83844481
O 18.80326127 1.54559076 8.95611103 -0.28175911 0.63109920 0.54865946
O 6.29033922 4.49878855 8.93013011 0.47575707 -0.46867273 0.62888556
O 18.63523723 4.64976830 8.88288809 0.24417375 -0.43556234 -1.52034988
O 3.47561926 1.57843223 2.45443891 -0.10870359 -1.30828570 1.90567410
O 15.82305375 1.57577080 2.50184675 0.24647378 0.76993090 -0.04605967
O 3.44656868 4.59951874 2.48341632 0.39608826 -0.20349441 0.46508297
O 15.86788603 4.53809639 2.56033538 1.23614459 -0.12214364 0.44624446
O 2.05737328 1.51798875 8.16095024 -0.94564783 -0.94191956 -0.40101204
O 14.45223140 1.61453234 8.07792267 -0.98650915 -0.45557951 -1.00976338
O 1.97441359 4.62052291 8.18371109 0.19712110 -0.50919843 -0.04441580
O 14.62925739 4.64919683 8.12713381 -0.94191561 0.07140957 -1.24919212
O 12.01086892 1.53137608 1.43522095 0.77673564 0.01151091 -2.48162523
O 24.50693987 1.58787016 1.40001443 -0.80136617 -0.89803278 0.12240293
O 12.05138469 4.67835403 1.44021904 0.20537905 -0.38783544 0.50346432
O 24.51879518 4.59877549 1.36700975 0.33777332 1.33022105 0.48027325
O 10.57486418 1.58223760 7.12233640 -0.86430470 0.78408788 1.88970906
O 23.04713193 1.55011525 7.24596850 1.51536509 0.25311934 -1.23771727
O 10.64997827 4.68223068 7.18561191 0.66906828 -0.76644289 0.94038094
O 23.05345090 4.58442614 7.20161168 -0.71158025 0.32395313 -0.47777923
O -0.97045056 1.53251265 4.22261091 1.49656124 0.24770966 0.75142139
O 11.49506886 1.53552609 4.18064626 0.54073242 0.09149762 1.76476521
O -1.00817684 4.66442043 4.22175394 1.06138378 1.26970304 0.38960287
O 11.53016522 4.66358905 4.33703267 0.18998836 0.36751817 -1.65965908
O -2.47789357 1.52746418 9.82653257 -0.68283734 0.50947676 -1.08861962
O 10.03288822 1.55857023 9.89349156 0.48835796 0.42046978 -0.83723249
O -2.39915281 4.54149076 9.90296488 0.28715463 0.05718531 0.76556877
O 10.06416935 4.61407161 9.90906818 0.34549628 1.10441808 1.33608398
O 5.82144394 6.26196205 1.52473440 -0.77265280 -1.32757087 0.71355631
O 18.29208534 -0.00935498 1.43147823 -0.39515243 0.88255386 0.80318229
O 5.83138592 3.05189237 1.52114804 -0.84320296 -0.52205413 0.45251501
O 18.31678825 3.11602384 1.48002538 1.26150756 1.05330655 -1.17598516
O 4.37873986 6.17728584 7.11596180 -0.13949768 1.18589411 -0.44626988
O 16.79596378 0.07540588 7.15548653 -0.98070720 -0.12706568 1.43944789
O 4.31819909 2.98619340 7.16450868 0.45849498 -0.94012136 -1.00654264
O 16.87228711 3.09128805 7.14961576 -1.26240310 -0.81593849 0.92879686
O 5.33071608 6.15249974 4.19100600 0.14748523 -0.17566549 1.00150549
O 17.62290586 -0.01371879 4.28351914 -0.22201439 -1.02615051 -0.54013864
O 5.21339817 3.11839621 4.15084213 0.02003707 -1.11785207 0.86260189
O 17.62831173 3.10063969 4.22777806 -0.04998107 0.45470440 -0.04393676
O 3.81273362 6.20204511 9.94659736 -1.62689397 -0.38596483 -0.39845159
O 16.25179421 -0.04073015 10.04233473 -0.05353489 -0.25376127 -0.01541690
O 3.88617007 3.06052434 9.93316800 -1.26220558 -0.84265671 0.62556540
O 16.27238322 3.15974389 9.90536964 -1.27138841 -0.86430917 1.31033077
159
Lattice="24.853755 0.000000 0.000000 0.000000 6.153451 0.000000 -2.772481 0.000000 11.392779" Properties=species:S:1:pos:R:3:force:R:3 Energy=-622.992814 Virial="-55.454572 -2.494969 -1.437502 -2.494969 -47.366717 -2.798958 -1.437502 -2.798958 -44.245136" Ga_vac_type=Ga_tetra Ga_vac_tier=low Ga_coord=4 defect_vacancy pbc="T T T"
Ga 0.05511139 -0.01357859 4.53923788 -0.52606077 0.20848276 -0.06162253
Ga 12.34202061 6.20653479 4.56011102 -0.49331108 -0.07233760 0.28865901
Ga 0.01845423 3.06846090 4.29764946 -0.12711805 -0.25780647 0.13529307
Ga 12.35971356 2.90454370 4.56029941 -1.29058325 -0.09792356 -1.21354516
Ga -1.46386308 6.18699947 10.25491011 -0.46189356 0.75691609 0.10776488
Ga 11.13458224 6.19860585 10.20997449 -0.86505384 0.48985939 -0.69036940
Ga -1.36247674 3.08813453 10.42174888 -1.56288065 -1.16254606 -0.13770410
Ga 11.04181937 3.08454257 10.27084390 -1.01972333 0.16383276 -0.77908190
Ga 10.97456622 -0.05049721 1.21835480 0.06427099 -0.32868739 -0.63363791
Ga 23.52166524 0.09316155 1.06032138 0.48191991 0.56732035 -1.13479403
Ga 11.08983894 3.02615278 1.21158619 0.70984429 0.33795189 -0.90476573
Ga 23.44741558 3.07185784 1.12345795 0.10969318 0.39333449 -0.84602470
Ga 22.15458926 0.06590827 6.86536074 1.78962587 -0.74879404 -0.75323393
Ga 9.64009035 2.97041476 6.81545021 -0.04976318 0.15529416 -1.18116586
Ga 22.15099327 3.03227275 6.78756053 0.50211724 0.72539602 -0.14350207
Ga 6.29804513 1.52322787 4.49605300 -0.95713029 -1.24092812 0.09532323
Ga 18.74867411 1.59038851 4.41689408 0.68541752 -0.74878187 1.59017989
Ga 6.16665743 4.60837606 4.51009803 -0.66396637 1.24977590 -0.23654034
Ga 18.70677471 4.55830801 4.54744799 0.47599837 -0.03918003 0.29266654
Ga 4.94552746 1.43410548 10.30235091 -0.04082546 -0.15143278 0.44529035
Ga 17.24109939 1.45365261 10.17485129 -0.08943781 -0.12061191 0.17513746
Ga 4.82142737 4.45629190 10.26920581 0.46512186 -0.92871108 0.30232474
Ga 17.26911167 4.59301464 10.17575220 0.60574795 0.39612087 0.88008266
Ga 4.85501437 1.55153059 1.14169001 -0.91049922 -0.28764090 -1.56320852
Ga 17.28913199 1.53890854 1.24984804 -0.62801468 0.11865166 0.68932336
Ga 4.84273508 4.57683137 1.15709489 -1.05002970 0.42879964 0.60551365
Ga 17.13688976 4.58777710 1.17731615 -0.24507698 -0.39996441 1.73415660
Ga 3.42226761 1.48514489 6.87977914 1.26908727 0.64606581 -0.47477586
Ga 15.87587298 1.50893374 6.88319142 -0.41033387 1.15148009 -1.57014860
Ga 3.45000208 4.63830924 6.72721896 -0.90005880 -0.41494450 0.49713192
Ga 15.70171870 4.55210445 6.83716070 -1.72271713 -0.65159079 -0.14192844
Ga 1.51351784 1.51353786 1.88118970 0.62073828 1.03315061 0.70908481
Ga 14.08641891 1.40201522 1.93736503 0.69674599 -0.35249278 -0.13935879
Ga 1.58891619 4.67447600 1.81058952 -0.55355195 -0.31056709 -0.49286723
Ga 13.94749900 4.60827093 1.78470150 -1.99429006 -0.15441205 -0.52922249
Ga 0.10208102 1.51589757 7.43061219 -0.19006968 0.02363102 0.00198587
Ga 12.69411338 1.59770060 7.44045855 0.33762879 0.66299212 -0.95519640
Ga 0.14150847 4.51340797 7.52395621 0.37867212 -0.05289986 -0.28014436
Ga 12.62002760 4.56720147 7.53594609 0.22070713 0.44616488 0.08213143
Ga 9.50825365 1.59844105 3.95854537 -0.08361231 0.81858521 -0.06217971
Ga 21.94995795 1.37422197 3.91045934 0.26967532 -0.82819771 0.19723873
Ga 9.48777019 4.55259425 3.90505950 -0.79500520 -0.96964723 0.25287902
Ga 21.91984846 4.60942395 3.86661038 0.81038097 1.34607244 1.60286187
Ga 8.06632436 1.52249293 9.66160968 -1.39975040 -0.55494128 1.73064721
Ga 20.51392731 1.64133324 9.62938594 -0.78825569 1.28579309 -0.52514760
Ga 7.98954991 4.53214176 9.75634549 0.09313845 -0.46798367 1.49822461
Ga 20.46338878 4.61671722 9.62332512 -0.55696438 0.91949934 1.44732428
Ga 7.69685446 0.04558347 1.86448006 -0.73672018 -0.69013541 1.35466922
Ga 20.24725217 -0.01542824 1.84500121 0.23593233 0.37596005 -0.64259490
Ga 7.72399024 2.99586835 1.70753608 -0.55486329 0.80372583 0.18782623
Ga 20.16377145 3.16734504 1.99238982 1.06886249 -0.67871916 -0.74321480
Ga 6.23897827 -0.10298235 7.54391608 1.14965225 0.92561501 -0.50988938
Ga 18.71541719 0.09879341 7.51216630 -0.54699120 -0.49023439 -1.22298125
Ga 6.43957085 3.20228867 7.49516733 -1.60402672 0.33736756 -0.97085940
Ga 18.89394466 3.01360261 7.58318430 -0.64896326 -0.41038479 -1.29606606
Ga 3.28942865 0.01431812 3.81275574 -0.40141009 -0.29212526 0.29280440
Ga 15.85840485 6.17991244 3.98002278 1.35013298 -0.96013959 0.12025378
Ga 3.29782257 3.03973567 3.76237018 0.90283306 0.39566712 -0.00476686
Ga 15.78507313 3.03093044 3.88838148 1.24423131 -0.87632774 -0.92488239
Ga 1.88236733 0.02384469 9.69113997 -0.08529412 -0.45685464 0.22886534
Ga 14.27769213 6.12378223 9.63390864 -0.77960454 -0.09119462 0.95302336
Ga 1.86765512 3.16110382 9.74894996 1.58810280 0.25114324 0.64617832
Ga 14.20202173 3.10357707 9.58013345 -0.31715049 1.37834629 0.19393927
O 1.87818692 6.11501297 0.57850482 0.44229563 0.54147127 0.07971209
O 14.30504994 6.23314923 0.63492428 0.56378410 0.04583359 0.02537915
O 2.06729824 3.09449317 0.64668119 -0.16951691 1.04657835 1.29760170
O 14.40812644 3.08376321 0.67141996 0.76559809 -0.96365699 0.13035949
O 0.55868572 -0.00607750 6.48199614 1.11218807 -0.01694415 -0.19118256
O 12.97085082 6.20109948 6.28525414 0.36815960 -0.56447262 0.42137649
O 0.58499421 2.97268545 6.28219236 2.02252248 -0.13768237 0.56879082
O 12.95595792 3.14712620 6.33677381 -1.22284303 -0.30504983 1.12466164
O 9.22865271 0.12114926 5.06006562 0.07588936 -0.34474955 -0.99215778
O 21.63406555 0.21553142 5.16207731 0.43960579 1.59726291 -0.13531904
O 9.28613759 3.17878465 5.10521863 -0.01665523 -0.99497212 -0.12303867
O 21.48425585 3.01383107 5.09073227 -0.09872461 -0.72458671 -0.92032668
O 7.76589316 6.24048457 10.89832602 -1.28612829 0.39268062 1.38954579
O 20.25009755 6.14676181 10.64805654 0.53314669 -0.39109441 -0.07397299
O 7.61536536 3.20108062 10.67307908 1.58040160 -0.73493341 -0.27417911
O 20.21193405 3.00264975 10.74858002 0.45618626 -0.59164176 -0.59244271
O 8.04155560 1.56386433 0.63261153 -0.02275969 -0.07813901 0.48875741
O 20.51210893 1.60907722 0.62084278 0.44637774 0.03547019 -1.15664128
O 8.01190253 4.58650203 0.65565881 2.26012491 -0.46398139 -0.24545753
O 20.44441417 4.55556915 0.58378353 -0.34198847 -0.80631492 -0.25699686
O 6.68197219 1.47152807 6.24081437 0.54046651 0.35162631 0.15748983
O 19.18032247 1.51827714 6.48386316 -0.30233757 -0.21580872 0.97733018
O 6.62459718 4.55712545 6.33587256 -0.67400774 -0.08952414 -1.25738382
O 19.13968663 4.62870044 6.15631971 0.35153963 -1.03789182 -1.01440541
O 3.13527567 1.47878920 5.11482954 -0.72505506 0.85357122 -1.00057608
O 15.40697068 1.55143581 4.99573773 -0.32531074 -0.19725297 -0.29333998
O 2.92211584 4.50511980 5.13311561 0.14999923 -0.17143274 0.12892713
O 15.26764744 4.65595880 5.09337147 -0.07191754 -1.12599194 0.98772092
O 1.63410267 1.51718844 10.83545825 -0.21844213 -0.28330547 -0.00142801
O 13.99091741 1.50938137 10.72942659 0.10567519 0.36013083 1.82760872
O 1.63474472 4.55270484 10.75730047 0.10923987 0.40333123 1.06921699
O 13.95949825 4.73897103 10.83238241 1.37807215 1.87010802 1.12292472
O 1.28678157 6.18202335 3.17675819 -0.23314470 -1.61852208 0.66790153
O 13.74211639 0.05090296 3.22759210 0.48947696 0.23383763 1.12035768
O 1.40414688 3.19415269 3.25149475 -0.12356809 -0.15909564 -0.05282894
O 13.86554853 2.99331063 3.29011645 1.30661617 -0.97056173 0.17041765
O 0.03675508 -0.08839836 8.95879996 1.37707268 -0.24242313 -0.01359519
O 12.46520182 0.00997996 8.89118118 -0.75297335 0.84550286 0.97599171
O 0.00950539 3.13265758 8.79820730 0.16677859 0.22136142 -0.57959749
O 12.48214361 3.06078024 9.06948618 -0.99011776 0.62909457 -0.42678919
O 9.74800634 6.09736346 2.43654729 -1.28830616 0.55466583 -0.54693555
O 22.10231569 6.13283892 2.49893035 -0.26676887 1.47157040 -2.56698025
O 9.67482654 3.14016521 2.42370604 -0.21699175 -0.97003488 -0.77470819
O 22.09124691 3.21877910 2.45962430 0.78290085 -1.35294249 0.68709020
O 8.37870380 0.02511793 8.19492843 1.03263346 -0.15844000 0.63528993
O 20.60537722 6.20146754 8.14592275 -0.64453662 -0.10360744 -0.64026066
O 8.27282309 3.07333765 8.20208957 0.77620232 0.84131189 0.40393562
O 20.76776005 3.04551381 8.15665792 -1.20314328 0.19361829 0.04454744
O 7.68257400 1.43096060 3.28692086 1.37862106 1.40837143 0.77392011
O 20.19419861 1.52379616 3.30779944 0.16652712 -1.29098659 1.07936844
O 7.49370276 4.53947057 3.17535844 0.22919049 1.36134047 0.90219378
O 20.02652647 4.63224506 3.27639816 1.34946015 0.97771366 -1.74536675
O 6.22995182 1.48121931 8.93370607 -1.13505853 0.19498626 -0.09101139
O 18.65707187 1.53514614 8.95475813 2.13759688 0.38823420 0.11678885
O 6.15942009 4.60226804 8.91722805 -0.55098803 0.68895755 -0.26050186
O 18.66915362 4.57352846 8.85526952 0.86106333 1.60049487 -0.17467589
O 3.47293319 1.74285536 2.57921500 -1.56573264 0.21903416 0.32542572
O 15.88309975 1.29890008 2.49364982 0.92760930 0.77867393 -0.55553421
O 3.47860486 4.65633175 2.43711944 1.45925775 -0.75893816 0.57211248
O 15.76852548 4.60952415 2.51821289 -1.40832220 -0.34188987 -0.09094201
O 2.14237222 1.56644265 8.10498512 -0.73286744 -0.69760606 -0.51574642
O 14.52496330 1.55126348 8.30189995 0.13776501 -0.26196645 -0.74912110
O 1.89806942 4.59364635 8.13335119 -0.83358392 0.05998088 0.04161987
O 14.65185309 4.48751884 8.24412548 0.17384786 -0.72158317 -0.61167461
O 12.04800233 1.52172859 1.42375872 0.28772932 0.45617449 0.14461113
O 24.46429307 1.54625658 1.34716741 -0.56394976 -0.73322445 0.03454729
O 11.97931115 4.46342046 1.57036740 -0.45864543 -0.76038861 -0.72755280
O 24.47337082 4.56868465 1.56813322 0.58047958 0.33647421 -0.64332440
O 10.67089565 1.68983731 7.21008795 0.65434528 0.03003590 -0.04862961
O 23.07911045 1.51523230 7.24641577 -0.79439094 -1.30515366 0.03226073
O 10.64816027 4.47869613 7.13857420 -1.30789147 -0.34460860 -1.41562937
O 23.03169520 4.60965902 7.22443733 -0.23997834 -0.24380119 -0.04536228
O -1.00368379 1.54077363 4.16775143 -0.42020995 -0.37291270 0.18605910
O 11.22607242 1.72673486 4.27837434 1.10235628 0.20157840 0.21354999
O -0.96293193 4.74726573 4.16883461 -0.73559729 -0.02585433 -0.10423967
O 11.53319084 4.52354549 4.27371530 0.18967839 -0.12395368 -0.84945924
O -2.25352136 1.53479971 9.85988288 -0.44798927 -0.20127804 -0.04132856
O 10.05911752 1.57625379 10.03134085 0.79485909 -0.27437087 1.23019095
O -2.27323362 4.56806682 9.82208260 -0.41776518 0.60639123 -0.40219743
O 10.13745200 4.51878169 9.93070302 -0.27121171 0.77996107 0.48119540
O 5.87299794 6.16297228 1.41581112 0.89060870 -0.78779596 0.60981176
O 18.17863275 -0.09582272 1.51722114 -1.27167702 -0.56525776 0.32939038
O 5.66022466 3.00645653 1.38904960 -1.13269531 -0.81874439 0.06947497
O 18.31686404 3.01612223 1.52373285 -1.08905868 0.57914291 0.36851043
O 4.30032933 6.16598898 7.08503882 0.86067858 -0.95512267 0.58178849
O 16.81871356 0.04802059 7.13385848 1.42736505 -0.58707590 0.33154481
O 4.24706584 3.04783191 7.08954458 -0.29293335 0.58108898 -1.33541330
O 16.82785214 3.12023917 7.21583210 -1.53709342 -1.19280596 0.79281026
O 5.37706224 5.99835256 4.19079456 -0.48073498 1.59441292 0.20053409
O 17.72364873 -0.04140737 4.28892835 -0.79022185 0.06883518 -0.42283699
O 5.14339089 3.10637136 4.20413466 1.02257224 -0.03600079 0.37042316
O 17.73211528 2.94049018 4.21357739 -0.25723587 0.29108007 0.67516566
O 3.81297086 6.10058363 9.89526333 0.47551789 0.55903020 -0.82126032
O 16.36340908 -0.02201519 9.78124198 -0.68570298 0.38720041 0.29439639
O 3.85669910 2.97877994 9.95872471 1.84118818 0.80367100 0.31378605
O 16.22910359 2.95943530 10.00389585 -0.03977544 -0.72937437 0.63457263
159
Lattice="25.081467 0.000000 0.000000 0.000000 6.209829 0.000000 -2.797883 0.000000 11.497160" Properties=species:S:1:pos:R:3:force:R:3 Energy=-619.767156 Virial="-53.589303 -1.149845 -2.287498 -1.149845 -46.219905 -3.585765 -2.287498 -3.585765 -41.527101" Ga_vac_type=Ga_tetra Ga_vac_tier=low Ga_coord=4 defect_vacancy pbc="T T T"
Ga 0.04754064 0.01258285 4.56483301 -1.04816412 0.31641902 0.88711034
Ga 12.49940562 6.19003817 4.56389126 0.34462869 -0.09157328 0.61104470
Ga 0.06694844 3.06577928 4.52986077 -1.33475906 0.86954351 0.09705365
Ga 12.62424293 3.04596167 4.48089564 0.42440606 0.79528539 1.00971873
Ga -1.39960781 6.22336733 10.30111525 -0.44713712 0.60139414 -0.43533401
Ga 11.22460918 6.17566788 10.41135709 0.15723009 -1.11257908 0.57939838
Ga -1.30994081 3.04742360 10.26166932 0.56253714 0.13409874 -0.35114273
Ga 11.12245610 3.06481977 10.35214443 -1.22982996 -0.55391973 1.15785919
Ga 11.11847267 -0.02860150 1.26801794 0.87915990 -0.71604867 0.55812519
Ga 23.68364901 0.01795580 1.14440080 -0.16872117 1.54964264 -0.19865528
Ga 11.20157143 3.17501211 1.15075921 -0.59150452 -1.08619821 -1.30352610
Ga 23.53731998 3.13731282 1.21639957 0.68858411 -0.10817101 0.19106090
Ga 9.78673182 6.19185175 6.89562424 0.52375316 -0.37910466 0.10819673
Ga 22.28746301 0.03653086 6.89055636 -0.75701361 0.10206478 -1.22787000
Ga 9.74938734 3.12383481 6.97453299 -0.00835705 -0.19292552 -0.67583978
Ga 22.28267772 3.07461726 6.87583842 0.47708047 0.53352078 2.06577528
Ga 6.24296647 1.58467106 4.60036904 -1.29416046 -0.35551094 0.59534446
Ga 18.95024865 1.53406233 4.68930469 -0.17381203 1.05566178 -0.06792104
Ga 6.19309824 4.67346514 4.56544611 0.83185206 0.59628861 -1.55958605
Ga 4.92875927 1.59087122 10.35295313 1.50810391 -0.94619557 -0.39565544
Ga 17.45536611 1.52593656 10.31607483 -0.01533908 1.55072303 1.12205753
Ga 4.98630968 4.70600935 10.33671604 0.25273475 -0.04519306 1.85303701
Ga 17.38233482 4.60072567 10.31027447 1.13945140 0.21006019 0.07041395
Ga 4.78466177 1.62825158 1.09467130 -0.82662088 0.15847478 -1.43672475
Ga 17.41471139 1.57464073 1.24747635 1.70267720 0.87822315 -1.12946898
Ga 4.75720026 4.59889764 1.19199987 1.01458903 -1.05475827 0.69780443
Ga 17.32950877 4.68463162 1.21010033 0.14636989 -0.43114271 -0.01284455
Ga 3.54465131 1.51769751 6.99846016 0.05176691 -0.47880140 -0.87966462
Ga 16.02173040 1.65707036 6.95028148 0.57378891 0.91046182 -0.02239313
Ga 3.45003832 4.74936444 6.97143732 -0.36931405 1.17398117 -0.74936825
Ga 15.99401885 4.57177767 6.88239597 -0.58487337 1.01891836 0.75163886
Ga 1.58124128 1.60358334 1.72317621 -0.08099961 0.08027294 0.92219147
Ga 14.06725844 1.52367188 1.82540242 -1.56881196 0.76268489 0.06762434
Ga 1.60792613 4.65973425 1.76293602 0.09703447 -0.88515789 0.69956439
Ga 14.16699594 4.70378326 1.78722988 0.88216828 0.44107848 -1.43698806
Ga 0.12523489 1.46131080 7.57751097 -0.80037601 -1.23396009 -0.31812354
Ga 12.71886345 1.52141618 7.63917758 -0.82663587 -0.22305656 0.44076800
Ga 0.12532618 4.70591835 7.59412788 1.36678690 -0.51597751 -0.06271424
Ga 12.63784257 4.68137405 7.50595922 -0.27170902 -1.44741412 1.00670809
Ga 9.66722961 1.50485485 4.00033187 0.82022025 0.18878368 -0.85607055
Ga 22.06430392 1.66212997 3.95235535 -0.15309181 -0.99152367 0.00946843
Ga 9.56883913 4.69729211 3.91272997 0.24605142 0.57416400 -0.48254251
Ga 22.14985083 4.58317285 3.93220212 -0.91521306 0.46291766 0.27440197
Ga 8.18079494 1.48960360 9.60362314 -0.86728490 -0.54964054 -0.14882638
Ga 20.75551412 1.61565400 9.62567031 0.22193448 0.15812256 -1.04293878
Ga 8.16865003 4.64430745 9.65689736 -0.05983804 0.79980520 1.18849559
Ga 20.74971895 4.62106725 9.64470834 0.32198166 -0.43707942 -0.88756166
Ga 7.74246045 0.01679425 1.82812278 -0.60814164 0.16419970 -0.11533983
Ga 20.47451267 0.02193511 1.90349502 -0.32717145 0.23276855 -0.01283472
Ga 7.78912824 3.16009228 1.77277855 0.33135119 -0.19640742 0.27732162
Ga 20.36881863 3.07255118 1.71994823 0.58656004 -0.20706027 1.19033746
Ga 6.38549301 0.05547360 7.60139952 -0.59992530 1.56249090 0.39511446
Ga 18.98400560 -0.03395765 7.54557355 0.98188235 -0.25778957 0.69511774
Ga 6.40764217 2.99618918 7.68558156 1.20080028 -0.02830725 -0.69597152
Ga 18.93411183 3.19402957 7.56018014 -0.38265313 0.92958250 -0.26559789
Ga 3.26579361 -0.03291606 3.90426276 0.40437368 -1.16401610 0.23954594
Ga 15.80346371 6.25799828 3.91243211 0.79120479 0.96814883 -0.24479544
Ga 3.34939168 3.17106592 3.81762263 -0.44535660 0.46964569 0.81166027
Ga 15.76461126 3.03207803 3.88950590 0.74368064 0.21102045 -1.19716711
Ga 1.88001091 -0.04767381 9.68794954 -0.94351660 -1.49896327 -0.33911007
Ga 14.43267190 6.20029282 9.68435424 -0.40627370 0.41611587 -0.39830072
Ga 1.96992919 3.01748199 9.79824846 0.73938651 -0.16633825 0.01553544
Ga 14.48318406 3.17648357 9.75624861 -1.19484673 -0.95626007 0.87222087
O 1.85533551 6.26665536 0.53856049 -0.03807228 -0.46445885 -0.19991350
O 14.44598352 6.22039964 0.63587518 0.45773102 -0.49113592 0.34652094
O 1.86737188 3.07945138 0.62340843 0.77709497 -1.22415061 -0.87863427
O 14.35686511 3.10704952 0.64817894 -0.05753101 -1.23213126 0.90002016
O 0.48433072 -0.05822856 6.35897075 -0.88693165 0.86440261 0.49568877
O 13.00022000 6.22483211 6.40255950 0.47119459 0.88160702 -0.36513357
O 0.53336628 3.09178917 6.42795243 -1.04879238 0.15190843 0.24258448
O 12.97068080 3.14600563 6.33675107 -0.85169686 0.23285829 1.25609682
O 9.25765424 -0.02966267 5.05756946 -0.43433332 -0.01004988 -0.13949474
O 21.86992874 0.01850696 5.09977878 0.99997723 0.08955287 0.74474975
O 9.16583418 3.10906177 5.09967706 -1.63446748 -0.67514471 0.75897599
O 21.83236223 3.07814406 5.18738083 -0.25078052 -0.63813627 -0.93845101
O 7.92178361 6.10707405 10.91157292 0.04467209 -0.84150878 -0.81063719
O 20.37852616 6.24000215 10.88742795 -0.00221597 -0.56964286 0.15924228
O 7.84951939 3.13950039 10.85567443 0.40729577 -0.43454681 -0.47854222
O 20.44751247 3.07806145 10.90456415 -0.31442650 1.11539238 1.02769596
O 8.08446688 1.58600364 0.65960432 -0.62650826 0.01068413 0.14742074
O 20.57899459 1.59774211 0.56489463 0.32020271 0.55753825 -0.20804695
O 8.21861017 4.65987878 0.57851498 -0.17857607 0.28102156 0.25244172
O 20.79372557 4.53787351 0.74776178 0.29471986 0.39430189 1.19543411
O 6.74417055 1.46975529 6.37243616 -0.37055204 -0.60894742 0.69967022
O 19.35133910 1.50771045 6.38207820 1.18291400 -0.12877967 -0.28188341
O 6.74446962 4.75345946 6.31756470 -0.62487647 2.05629229 0.07516376
O 19.30177252 4.67387440 6.43852994 0.49617091 0.15199562 -1.20022138
O 2.99232336 1.54430862 5.08355475 0.66491555 0.17103221 -1.16516295
O 15.50393479 1.53966139 5.10341566 -0.12091365 -0.84953149 -1.64711234
O 3.05999394 4.67094647 5.07948218 -0.57444084 1.21607330 -0.79119122
O 15.53558488 4.63098730 5.13519648 -0.40301307 0.21511537 -0.69885777
O 1.51461898 1.65036899 10.89992604 0.55780301 -0.43815967 -0.59740196
O 14.07399595 1.58825471 10.94328130 0.67732158 -0.44704201 -0.57248011
O 1.53482972 4.66972043 10.84381592 0.29294514 -0.03681572 -0.49131526
O 14.04039061 4.64743525 10.81962763 -0.80834590 1.28168667 0.63874415
O 1.34529328 6.26315696 3.21013393 0.64017297 -1.09220855 -0.11780848
O 13.95258815 -0.03152157 3.28184839 1.58115216 -1.06864113 0.10775165
O 1.41790725 3.00477952 3.16270030 -0.47173603 -0.12233693 0.72656152
O 13.92557818 3.17507654 3.22346542 0.90872753 0.13153164 -0.40649038
O -0.00787153 0.06117694 9.11104265 -0.47965518 -0.58560966 0.52732398
O 12.51070321 0.02229845 8.98154598 0.53805107 0.20111097 -1.38432302
O 0.03598042 3.10828281 8.96863067 -0.49851264 -0.30345049 0.65905565
O 12.49129291 3.17188539 8.96057870 0.66879394 -0.65068641 1.24891009
O 9.76466596 6.15797465 2.51474215 0.04570705 0.31983923 -0.36037707
O 22.22174538 6.18926294 2.51134774 0.12551727 0.28272184 -0.86975453
O 9.73881452 3.06250720 2.53739658 -0.70587293 0.97047264 -0.22515827
O 22.45196420 3.10944123 2.48157453 1.10447046 -0.78556775 0.55129734
O 8.44490759 0.05730876 8.33057130 -0.80517626 -0.19940107 0.32042783
O 20.90534407 6.25181407 8.42129947 -0.79300128 -0.98666593 -0.89892830
O 8.39308201 3.09473551 8.32509295 0.30012913 0.50466549 -0.03282199
O 20.87556693 3.23669287 8.21697410 -1.05962311 -0.95363790 0.76171318
O 7.76760076 1.59934514 3.22156905 1.56336410 -0.22059409 1.62275790
O 20.24338382 1.41453673 3.36063642 -0.90528839 -0.09465930 0.03547924
O 7.69227684 4.56570557 3.34649111 0.73588246 -0.56264018 -0.00934226
O 20.26065296 4.61400938 3.15612077 -0.63365299 -1.76162194 -1.63543741
O 6.21153719 1.63642808 8.97536752 0.45021790 0.56694951 -0.01773746
O 18.86901486 1.56057413 9.01267582 -0.95897029 0.40705800 -0.71385244
O 6.36516488 4.52215895 9.04215346 -0.79746169 -1.16623717 0.16110583
O 18.81573191 4.65510829 8.96952588 1.03592913 -0.33289291 -0.90442384
O 3.41093140 1.52699225 2.47584538 0.10437373 -0.78500909 -1.80513876
O 16.08478720 1.56553551 2.53261017 0.86448812 1.41520960 -0.15518391
O 3.43143961 4.66954036 2.53032343 -0.25129103 -0.23679315 0.47447682
O 15.96395886 4.64215062 2.55031997 -0.43383309 -0.50761528 -0.94623769
O 2.05892105 1.50812328 8.40620540 0.74991522 -0.43178352 0.06819760
O 14.61758845 1.55049147 8.32775490 0.08130607 -0.83256669 1.13849077
O 2.06531336 4.67145535 8.22447803 0.19387851 0.19046504 -0.81080277
O 14.59513516 4.69109838 8.22976855 -0.04555297 0.29560090 0.19025364
O 12.17864945 1.50865520 1.44586576 0.03535617 0.11985701 -0.46087630
O 24.70410547 1.52039525 1.38718816 0.32199232 0.05675829 -0.43330131
O 12.08917988 4.65097649 1.46615082 -0.74040265 -0.98853280 -0.68110249
O 24.65144484 4.66819110 1.42974893 -0.70013097 -0.10333836 0.27828861
O 10.77583679 1.56967625 7.15232977 1.14871259 1.40568751 -0.06317470
O 23.27475200 1.56903504 7.13494131 0.01161168 0.40488824 -0.10290475
O 10.65349702 4.77894237 7.21700864 0.73835405 0.51320220 0.81470601
O 23.25723962 4.69104379 7.27909027 -0.25390289 0.34970181 -0.77920061
O -1.04160909 1.52330270 4.30879790 0.40337211 1.20907661 -0.79861830
O 11.57530348 1.55141639 4.28299615 1.67500246 0.59494301 1.04215763
O -0.96458213 4.67254893 4.25532190 -0.79170321 0.51213741 0.73865329
O 11.43681699 4.60240121 4.26450455 -0.30124407 -0.27301487 0.01671546
O -2.38424464 1.57577071 10.02948639 0.90652095 -0.89667174 -1.03048520
O 10.14769741 1.62643835 9.96985959 -0.39409483 -0.26677992 0.46440709
O -2.32198439 4.56609165 9.98970882 -1.08612459 -0.02775045 0.58761744
O 10.10477126 4.58552937 10.10499602 0.23638886 0.91161178 0.69293942
O 5.88255496 6.12666803 1.52485432 -0.87079247 -0.01035162 1.48601827
O 18.34443815 -0.08105693 1.43204797 -0.38415939 -1.28566761 -0.28097033
O 5.85469290 3.17871601 1.55752758 -0.08912988 0.45832022 -0.26046894
O 18.41241859 3.10088744 1.35654985 0.65182765 -0.33552963 1.10276610
O 4.48546520 6.21909444 7.21300396 -0.14083673 -0.44550010 -0.95663285
O 17.01758993 -0.02084929 7.21027595 -1.06361831 1.11382089 1.05137443
O 4.47191142 3.13091331 7.17648469 -0.46681665 0.64745317 -0.42108555
O 17.05523171 3.06079390 7.12729332 -0.02570427 -0.76033106 -0.02816399
O 5.23606666 6.24875455 4.31566098 -1.51296774 -0.00869467 2.01653869
O 17.62810860 0.06272904 4.28241201 1.32492458 0.30868190 -0.82375298
O 5.24092891 3.19104063 4.29520766 -0.96070640 -1.38975780 -0.05320351
O 17.81657846 3.03193693 4.25178638 0.08119261 0.91791871 0.25996935
O 3.93847503 6.24463518 10.04467218 0.38187923 0.35444580 -1.06636766
O 16.52231170 0.00432164 9.91508727 -0.43736240 2.76808944 0.03047696
O 3.81461617 3.10141170 9.97461278 -0.04545719 -1.44177630 -0.29450350
O 16.39745296 3.11014814 10.07393492 -0.63559244 0.83532657 0.66539207
159
Lattice="24.748112 0.000000 0.000000 0.000000 6.127295 0.000000 -2.760697 0.000000 11.344353" Properties=species:S:1:pos:R:3:force:R:3 Energy=-622.260280 Virial="-56.546496 0.951211 -2.202914 0.951211 -48.084547 -3.446930 -2.202914 -3.446930 -45.406650" Ga_vac_type=Ga_oct Ga_vac_tier=low Ga_coord=6 defect_vacancy pbc="T T T"
Ga -0.01089275 -0.04575497 4.46064994 0.97843406 1.48825288 -0.09465005
Ga 12.32847658 6.12646766 4.49894133 -0.39804814 0.79874877 1.50009581
Ga 0.09585612 3.09059957 4.41732579 2.50579062 0.14890210 0.60092101
Ga 12.39273300 3.13876509 4.52901954 -0.88485548 0.70631269 0.71551204
Ga -1.38767562 6.06937678 10.21688686 0.19144570 -0.55447751 -0.19921305
Ga 11.02588623 6.06497678 10.19506604 0.35708461 -0.03287609 -0.72351821
Ga -1.33767166 2.97295760 10.05899767 -1.88840082 -1.27842479 0.01487651
Ga 11.10747912 3.11199689 10.16307591 0.06642809 -0.65792046 0.09554217
Ga 11.06137851 -0.09049673 1.11402212 -0.31618054 -0.72324572 -0.52199240
Ga 23.35785312 0.06020312 1.20847303 0.87936607 0.27756435 -1.03440800
Ga 10.96754315 3.04740896 1.15665145 -0.80660836 -0.08247766 -0.72154670
Ga 23.33019339 3.02124757 1.16661348 -0.57404755 -0.68018828 -0.95826603
Ga 9.60402244 6.08906208 6.77292484 -0.84376075 0.09911504 0.44068612
Ga 22.05799063 -0.10498016 6.84301730 0.47051224 -0.14514154 0.27456009
Ga 9.56238478 3.05258519 6.81466150 0.70698468 0.11150214 -0.07114648
Ga 21.96032687 3.02412779 6.89700492 0.02633847 1.74451707 -0.54717510
Ga 6.33471728 1.51956178 4.47513786 -2.22024340 0.80960119 0.70512727
Ga 18.54830571 1.52624905 4.58020618 0.70039605 -0.62517132 0.25130310
Ga 6.28094587 4.64286366 4.53136245 0.04114387 -0.13754664 -0.44432140
Ga 18.43151019 4.58662758 4.59628164 0.23581895 0.20094412 0.16714582
Ga 4.78561445 1.43370142 10.26086938 0.36193395 1.01250124 -0.39169241
Ga 17.22175494 1.50989502 10.04568317 0.68560013 0.72136069 -0.08297603
Ga 4.87198262 4.63506036 10.21575198 -1.70276944 0.99341485 1.33081932
Ga 17.13144071 4.58424092 10.20237790 -0.07157849 1.31081474 0.76745658
Ga 4.74570422 1.44700686 1.14636211 -0.43661172 -0.48291492 1.17811325
Ga 17.19733108 1.50505784 1.12524796 0.04162080 -0.23952192 -0.93389668
Ga 4.73922009 4.53697771 1.21451952 -0.44792085 0.02036216 0.15641217
Ga 17.13205976 4.62806605 1.36813997 -0.71615352 -0.94677814 0.85432885
Ga 3.41600984 1.46024143 6.81867890 0.91897039 0.47391920 0.28003999
Ga 15.82979180 1.56379501 6.81310588 0.31091239 0.33733889 0.16395811
Ga 3.33790226 4.65336598 6.89798833 0.38526248 -0.17511341 -0.24787377
Ga 15.79374537 4.58243033 6.85253057 -0.56406786 0.06059166 -0.82482546
Ga 1.51100285 1.59951946 1.72715423 1.70747295 1.97216551 -0.52315584
Ga 13.78912272 1.59051968 1.81391435 1.10079826 -0.10756766 -0.02753201
Ga 1.51956495 4.56621462 1.74967581 -1.31644732 0.72560862 0.21792490
Ga 13.97925952 4.57762215 1.79609566 0.18098660 -0.94804203 0.59812729
Ga 0.15863034 1.42617749 7.41514550 1.26813212 -0.87446422 -0.86354716
Ga 12.58358025 1.46045711 7.45021239 -0.03070025 1.34003417 0.85150634
Ga 0.25100808 4.49412210 7.43531207 0.03114698 0.14882410 0.52432843
Ga 12.58376806 4.58478084 7.48065372 2.34554575 0.20625558 -0.48795434
Ga 9.54836604 1.46652598 3.75220631 1.45471740 -1.58877279 0.49081879
Ga 21.92419225 1.52235152 3.89398314 2.30637485 -0.36739499 0.77444114
Ga 9.43722459 4.68048798 3.90465824 -0.06004383 0.26048370 -0.52690367
Ga 21.97842527 4.46012728 3.85302393 -1.63753713 -0.50982623 -0.90052168
Ga 8.03433757 1.53517746 9.58791012 1.68416385 -0.88536267 0.51473549
Ga 20.37856906 1.67422975 9.59109412 0.11813571 -0.28846338 -2.26402822
Ga 7.96228451 4.61299158 9.49314247 0.97125265 0.20537861 -0.88638193
Ga 20.48810005 4.67068202 9.53389718 -0.21987426 0.20058393 -1.05837901
Ga 7.80422855 -0.03355037 1.73734248 -0.27924494 0.51780559 -2.18432155
Ga 20.14182881 0.04819126 1.75832550 0.54052197 -1.76350343 1.56845877
Ga 7.60386996 3.06635320 1.78336544 0.22866028 0.57605178 -0.67860354
Ga 20.14998733 2.97309221 1.65769497 -1.91549040 -0.07928150 0.02569247
Ga 6.25945809 0.01298214 7.37970242 -0.44645789 0.10817518 0.74057703
Ga 18.73754065 0.00200794 7.38820230 -0.19523225 -0.08239987 -0.26023090
Ga 6.35253892 3.09261395 7.52484887 -0.34982733 0.67528595 0.69002217
Ga 18.60930142 3.06865206 7.32640103 0.44438960 0.46905755 -0.51322793
Ga 3.27044008 0.02321734 3.88684904 0.33648728 0.48433555 0.50234779
Ga 15.61846349 6.03697208 3.95162914 -0.38453123 2.25215101 -0.51924168
Ga 3.22034076 3.03654943 3.83764098 -0.31770795 0.28204515 0.09270418
Ga 15.66151232 3.13868616 3.83496343 0.08359188 0.85781484 0.68597848
Ga 1.88322723 -0.03051644 9.45229231 -0.29802617 -0.29476940 -0.40759067
Ga 14.31598931 6.13838298 9.57618952 -0.20615049 -0.08877622 0.93595456
Ga 1.80050628 3.06612029 9.49543069 0.56676993 -0.43469419 -0.28710159
O 1.90748402 6.18602984 0.63996674 -0.08468772 -0.74114326 0.15979828
O 14.30845002 6.11727495 0.61509668 -1.02212666 0.11253651 -1.10617360
O 1.87629513 3.22497060 0.49693640 1.42609820 0.22348057 -0.70015814
O 14.32957353 3.00773843 0.67573317 0.70093122 -0.30444009 1.83105375
O 0.58743952 0.05414056 6.16509192 0.94116202 -1.92365870 0.56758353
O 12.86573854 6.22190540 6.33874073 -0.57642196 0.14437433 -0.26961203
O 0.56653980 3.15204246 6.29114636 0.23096082 -0.52871633 0.73282160
O 12.85556892 3.09795955 6.27269210 -0.06930638 0.07522132 -1.88092976
O 9.12001580 0.00727662 5.05966666 -0.48769833 0.49903536 -0.42373700
O 21.54126366 0.00499147 5.03957193 -0.67314575 0.87443891 -0.21847910
O 9.15346756 3.12651552 5.24840247 1.40755320 0.73534555 0.07895237
O 21.48775656 3.07021967 5.05525115 -0.60380417 1.01106656 -0.91710542
O 7.67749511 6.11617766 10.71407609 0.39538203 0.58627114 -0.44722616
O 20.03858864 6.08072245 10.66720716 -0.53718923 -0.60126996 -0.75954227
O 7.65528872 3.09090172 10.67226841 0.84802002 -1.11848090 -0.33799571
O 20.09965854 2.93403000 10.71055855 -0.27014792 -0.03306587 -0.51380739
O 8.11825198 1.42227412 0.58577122 0.31651071 0.45207538 -0.58553705
O 20.38549496 1.49197388 0.54139154 -1.68403935 -0.46707479 -0.40455121
O 8.12325667 4.56056486 0.74867993 0.77524389 0.01547267 -0.52615763
O 20.43808266 4.68706492 0.51118986 -1.17671254 0.15297815 -1.03889248
O 6.63804419 1.47709148 6.29383584 -0.40721338 -0.09893383 0.25726487
O 19.02148752 1.52651032 6.28329020 -0.00158090 1.74675482 0.31701962
O 6.62258766 4.63065355 6.33038663 -0.86675184 -1.30051066 -0.26988226
O 19.01956245 4.61550812 6.31613861 -0.49888309 -0.28619816 0.25246209
O 2.83853675 1.59968374 5.04134361 0.64099992 0.77523248 -1.81600844
O 15.31697586 1.59233933 5.00027324 0.24837313 -0.30455764 0.42437815
O 3.02467616 4.64662769 5.03086807 0.55725015 -0.62977992 0.60499904
O 15.27526946 4.60922934 5.12867532 -0.66868336 -0.59990030 -0.08767790
O 1.55714958 1.43453979 10.68508113 -0.47763296 -0.42704781 0.65493472
O 13.93458719 1.58397767 10.71282978 0.66029680 1.26734529 -0.87555016
O 1.52634422 4.65465291 10.67912328 -0.28949641 -1.09770697 0.17305582
O 13.94534436 4.56621277 10.73532081 0.92676050 0.04999342 -0.27648296
O 1.27333164 6.03118384 3.19546488 -1.22729010 -0.50947041 -0.04348528
O 13.75450728 0.00591933 3.22426968 -0.35257700 0.09077459 1.12004291
O 1.42944403 2.99464033 3.20772636 0.01204855 0.88425559 0.52942709
O 13.78479873 3.03615995 3.18872414 0.49267225 0.40991719 -0.21304663
O 0.01567072 -0.00944001 8.91067057 0.75830502 -0.81201447 0.82175161
O 12.35995606 0.02796697 8.90507475 0.15651992 -0.36545897 0.54763539
O -0.03998091 3.13204714 8.91622432 -1.03914669 -0.38528458 1.04754545
O 12.39268368 3.07590829 8.82137306 -0.18932125 -0.19718908 -0.00788866
O 9.57142264 6.06775179 2.56216196 0.32555822 0.92529640 0.18052222
O 22.03925593 6.03378058 2.44959761 -0.37055629 -0.30330016 0.81554009
O 9.57929057 3.10165793 2.47304987 0.85502387 1.02204073 -0.94560484
O 21.99774429 3.10678374 2.48928031 1.67595551 -1.05013453 1.34168781
O 8.33892277 -0.11489183 8.26854135 0.31199006 1.32907872 -0.42434064
O 20.69033199 6.01465971 8.08284268 0.13247992 -0.55846011 0.41625853
O 8.32063986 3.02963214 8.14918748 -0.23307454 -0.17798999 0.78946522
O 20.54174232 3.12405322 8.16079231 1.11050054 -0.21069126 0.82770791
O 7.62985212 1.52995482 3.09896841 1.11767728 0.00880607 0.47865191
O 20.01785752 1.43684600 3.26096566 -0.81348380 0.09983378 -0.33904156
O 7.48971174 4.53497302 3.21573615 -0.62058125 0.27099875 -0.37154822
O 19.88860432 4.53421073 3.30674874 -0.46378597 -0.42242390 -0.09828533
O 6.21383363 1.55942608 8.93163613 -1.06767409 -0.95619706 -0.42768593
O 18.53235781 1.62108215 8.98176576 0.82600033 0.05363610 0.14858195
O 6.20316223 4.72503224 8.99344552 -1.17246546 -1.06104596 -0.12973363
O 18.54438796 4.61948255 8.81157036 -0.45203262 0.26545369 0.29584845
O 3.45046962 1.53798674 2.47040530 -0.62420463 0.58662803 0.19156883
O 15.78445421 1.52390198 2.51186439 0.03746585 1.81330647 -0.48049640
O 3.41940927 4.62262067 2.45257594 0.91689034 -0.03656636 -0.24875629
O 15.90594139 4.59062985 2.41779524 1.08259552 -0.75707714 -0.33803318
O 2.03776099 1.42434369 8.13958505 0.76780325 0.36716973 0.87932852
O 14.38271760 1.49313839 8.06804728 0.28762648 -0.57666364 0.71385095
O 2.13396503 4.73173290 8.14657954 -0.78054303 -0.14559956 0.60178323
O 14.40508938 4.50402978 8.11426292 -1.17221832 -0.25474414 0.16601493
O 11.94439358 1.45765645 1.34151307 -0.94439526 -1.15938566 -0.32255234
O 24.56786811 1.59216687 1.49167219 0.86177377 1.70368889 0.60240405
O 12.00341805 4.63139919 1.45655409 -0.76793702 -1.29771270 1.22173224
O 24.29329891 4.52556405 1.51819087 0.01510547 -0.25411397 -1.24516555
O 10.63245219 1.46198111 7.05364378 -0.58623924 -0.15350612 2.02251373
O 22.99398012 1.49689145 7.14699890 -0.15189969 -0.21506562 -0.15595812
O 10.64922492 4.58387012 7.13741970 -1.48415856 0.47852883 -0.42164424
O 23.03496774 4.48933642 7.19267172 -0.72951537 0.10175011 0.32685161
O -0.96699664 1.54051757 4.17813446 -0.81596097 0.22288892 0.51234341
O 11.47545776 1.52693034 4.39905591 -1.22111349 -0.20131082 -1.10779298
O -0.98237307 4.75067821 4.19009466 0.33962221 0.55495242 0.66160692
O 11.39309969 4.55776773 4.22788642 -0.59664784 1.30968702 0.02874044
O -2.23122032 1.60722891 9.87605148 -0.31092679 -1.56365866 0.70184825
O 10.08102235 1.55628342 9.87152421 0.44203050 -0.18569507 -0.39380935
O -2.45387462 4.57691538 9.91878544 -0.43826717 0.47042128 -0.61508793
O 10.00456177 4.66028511 9.93872317 0.98273694 -0.84925010 -0.35998768
O 5.71501377 6.16475368 1.46472476 -0.49693291 -0.54249857 1.06076925
O 18.18421074 0.07621712 1.45069690 -0.03685974 -0.15456831 0.38711393
O 5.76549471 3.11915199 1.43608239 0.13744052 0.53942399 -0.70853066
O 18.24591895 3.07674125 1.44504925 0.28588031 0.03127236 -0.18717079
O 4.35058920 6.05874003 7.28070000 -0.20762803 -0.06944886 0.12109879
O 16.79027463 -0.00755704 7.12755669 0.19055833 -0.57700755 -0.62820229
O 4.37036774 3.18564436 7.11610713 -0.14795073 -0.05098451 -1.09240842
O 16.72127887 2.99053103 7.09349258 0.25751056 -0.38477832 0.59953300
O 5.11814955 6.10863500 4.18228304 -1.25397476 -0.23783295 0.52786184
O 17.58011450 -0.02231940 4.26811572 0.32775345 0.01386257 0.52648058
O 5.23541686 3.05688279 4.16291168 0.77549269 -1.28941142 0.49689064
O 17.57017609 3.20711632 4.18475913 0.21257814 0.50662111 -2.15544845
O 3.81457017 6.05313525 9.81794981 -0.13824339 -0.44236214 -0.21474798
O 16.17129212 0.08565116 9.98592656 0.16711438 -1.21399672 -0.29977803
O 3.84639296 3.03471231 9.86168087 -0.88414618 -0.12507134 0.01177950
O 16.28556840 3.01023798 9.91097193 0.54434804 -0.09416354 1.13034044
159
Lattice="24.871478 0.000000 0.000000 0.000000 6.157839 0.000000 -2.774458 0.000000 11.400903" Properties=species:S:1:pos:R:3:force:R:3 Energy=-624.293060 Virial="-54.786899 -1.805537 -1.816322 -1.805537 -49.178870 -4.784877 -1.816322 -4.784877 -43.028154" Ga_vac_type=Ga_tetra Ga_vac_tier=low Ga_coord=4 defect_vacancy pbc="T T T"
Ga -0.02645124 0.02218992 4.56214062 0.58387132 1.14241598 -0.42386794
Ga 12.37884398 6.18836391 4.51181585 1.78383665 0.02053020 0.21800198
Ga -0.02135709 3.16373073 4.56933418 -1.65066925 -0.24631024 0.20812910
Ga 12.46947233 3.06710894 4.56048400 -1.09796854 0.77892432 0.11832470
Ga -1.37580480 6.05847200 10.24724352 1.23177622 -0.53994957 -0.99929409
Ga 11.00857068 6.10115293 10.28530882 -0.50502872 -0.51461320 0.50958725
Ga -1.34404837 3.10182285 10.27249033 1.90260472 -1.34035911 -0.25897700
Ga 11.03890212 3.06359245 10.28006175 -0.86588121 1.54620056 -0.84112293
Ga 11.02158550 -0.01885792 1.20862984 -0.04952775 0.52792991 0.05421078
Ga 23.50054226 -0.05323035 1.19834193 -0.89213122 -1.02886472 0.16028694
Ga 11.08689058 3.07035973 1.23113409 1.24187836 1.68808140 -0.88042122
Ga 9.59736377 6.22762647 6.88741002 0.81536594 -1.42882074 -1.12054761
Ga 22.09269059 -0.05665394 6.85074456 0.37237244 1.45937545 1.41179579
Ga 9.66768866 3.06841972 6.82760966 -0.65407860 -0.42058126 -0.25172445
Ga 22.00206170 3.03145276 6.92733782 -0.61405444 -0.15486340 0.47250313
Ga 6.26298797 1.60777448 4.47247150 0.57191974 -0.93735682 -0.63249496
Ga 18.64410783 1.57000277 4.60501020 -0.52032048 -0.60287398 0.83834471
Ga 6.23958077 4.63451663 4.48778935 -0.30602780 0.96703812 1.39560972
Ga 18.64668535 4.57660006 4.48098882 0.23149485 -0.02743715 -0.79782918
Ga 4.90548383 1.55246039 10.22044137 0.11471571 -0.64613406 -0.83194612
Ga 17.24473695 1.56232960 10.26317665 -0.42946302 0.16165689 1.60284285
Ga 4.89749840 4.64543766 10.17675444 1.13747069 0.36632594 -0.30302537
Ga 17.21930514 4.62276790 10.23781579 -1.08731929 -0.13976108 0.37193609
Ga 4.83192521 1.51466852 1.20707759 0.73938819 -1.04844893 -0.28278790
Ga 17.29730404 1.56271711 1.25868475 -1.14105415 0.08774300 1.33778243
Ga 4.78364306 4.60943010 1.14947316 -0.47039700 -0.29238365 -1.09118593
Ga 17.18248670 4.63580348 1.12513263 0.39136496 -0.79321973 0.28218886
Ga 3.47143685 1.56283217 6.87501143 -1.80827876 0.89273992 1.09208809
Ga 15.81941404 1.55899825 6.91962625 -0.46434732 -1.06429945 -1.06745689
Ga 3.44812468 4.57706769 6.95008039 -1.78164987 0.56144374 1.19573320
Ga 15.92653265 4.69855897 6.96561629 -2.56027565 0.83580248 -0.37928149
Ga 1.65193827 1.59203024 1.75668049 0.93083410 -0.38763460 -0.32299710
Ga 13.96282461 1.53655370 1.68738607 -1.05433465 0.07232914 -1.72491947
Ga 1.48486863 4.62631823 1.83774722 0.41856361 0.29576373 -1.75233689
Ga 13.96634127 4.59393694 1.78228938 -1.71289889 -0.34884149 0.48351649
Ga 0.14535497 1.56398492 7.47794411 -0.04911733 -0.91434205 -0.65652366
Ga 12.56810969 1.52872860 7.40565164 -0.16137259 0.53262748 0.09381179
Ga 0.16265773 4.66220986 7.49006957 -1.26075837 0.10090167 0.17785298
Ga 12.58247542 4.63581326 7.52740202 1.10392699 0.75579691 0.10655361
Ga 9.51236877 1.52510607 3.93376410 0.23791447 -1.15551955 0.61808623
Ga 21.92452584 1.56730711 3.95737341 -0.20123015 -0.52077330 1.08891707
Ga 9.52891589 4.58994516 3.94507235 -0.32362068 -0.43505460 0.59105830
Ga 22.04602441 4.59150785 3.96114038 0.98477167 0.93635822 -0.32674695
Ga 8.18255048 1.50651465 9.60822595 0.54256428 -0.19997960 -0.70266084
Ga 20.55652486 1.59886633 9.63395486 -0.49085557 -0.59172531 -0.10628572
Ga 8.18431203 4.60815883 9.69873899 -1.30940917 -2.90609191 -1.11404836
Ga 20.65746208 4.57426570 9.52091713 0.30481177 0.91115312 -0.52593013
Ga 7.70681034 0.02935995 1.76914781 0.68841189 0.84738636 0.78487898
Ga 20.18763219 0.05104904 1.76239416 -0.50494038 -0.47160079 -0.58584688
Ga 7.73091325 3.07974426 1.76515968 0.54549884 0.76879524 0.39657187
Ga 20.06905865 3.08728526 1.90831032 1.05226647 -1.27332552 1.47915804
Ga 6.40744770 0.06257867 7.49266221 0.12203924 0.17517734 -0.28616766
Ga 18.77653360 -0.04031102 7.55031778 1.01336401 0.15608780 -1.00991746
Ga 6.43564361 3.24573040 7.43188117 1.32274539 0.46694196 0.64380247
Ga 18.85602912 3.17753679 7.54217851 -0.58692555 -0.86019411 0.49772624
Ga 3.35674240 0.04924627 3.86267856 -0.31191761 0.44140640 1.57135031
Ga 15.83719860 6.13534032 3.95745386 0.07285263 -0.18663671 -0.09842967
Ga 3.33493707 3.10934654 3.91675519 1.31164653 0.56963751 0.83939285
Ga 15.83105973 3.09893166 3.84696596 -0.92201892 -0.73718203 -0.99912318
Ga 1.91041509 -0.01214549 9.56721508 -0.94564967 0.36445395 -0.02001153
Ga 14.36006134 6.14439699 9.64924354 -0.22304840 -0.34489999 0.45923496
Ga 1.87583716 2.99269836 9.63341411 -1.16622575 1.22977479 0.00896800
Ga 14.39787707 3.01653646 9.64843490 -0.27314980 -0.56326282 -1.42667143
O 1.80927751 6.20270844 0.61578617 1.14605852 -0.03082677 -0.33812568
O 14.31605561 6.13282586 0.65809938 -0.68659368 1.10374078 0.25579202
O 1.94100400 2.98439680 0.61918139 0.12740534 -0.41707975 1.29322756
O 14.30620004 3.12316684 0.56634952 -0.02137603 1.24535605 -0.08867561
O 0.52515193 0.06293168 6.30355757 0.17555020 0.07714984 -0.45326147
O 12.94865068 6.14785789 6.32824558 0.30822213 -0.11353858 0.34752088
O 0.38493020 3.10326426 6.32382033 -1.00835843 0.55041047 -0.17175463
O 12.92593498 2.99838953 6.33219655 0.47760217 -0.78155215 0.28270567
O 9.11793628 0.03368559 5.07215391 0.33298122 -0.30890236 -0.74039842
O 21.59248778 -0.03250790 5.04156156 2.16416892 -0.63545930 0.07871869
O 9.17211494 3.11210623 5.11005155 -0.47933282 2.29847939 -0.37502468
O 21.64584802 3.09570451 5.11269361 0.06479277 -1.40712373 -0.61854068
O 7.82520830 6.08839281 10.77822769 1.10334850 0.15283012 0.83594219
O 20.29437121 6.18878422 10.77209231 -0.67481797 -1.43607509 -0.75024538
O 7.80546613 3.10364863 10.79148510 0.80522659 -0.50885977 -1.62934088
O 20.14378858 3.05616481 10.62807641 -1.16925734 0.09596599 0.60310834
O 8.10938306 1.59099674 0.66329459 0.36619486 0.28092133 -0.20437343
O 20.50688231 1.61932072 0.62603296 -0.79235268 0.84019482 -0.43697072
O 8.14865437 4.61445411 0.61683563 1.67728063 0.22055056 -0.40117476
O 20.45955491 4.61582220 0.65859840 -0.86967397 0.98816158 -0.45886997
O 6.77381648 1.46382609 6.27670228 -0.82731455 -0.15022920 -1.11314772
O 19.12473217 1.55674708 6.33967155 1.42954478 -0.37566118 -1.10946637
O 6.72690835 4.62823588 6.36445345 -0.70666246 0.70200519 -0.86626306
O 19.06813545 4.58074621 6.26318800 -0.57935561 -0.77536873 -0.56629312
O 2.92242810 1.55145225 5.05624129 0.38503088 1.40968672 0.54371033
O 15.35862014 1.53595541 4.98891097 -1.16260710 -0.36719226 0.28625733
O 3.01173724 4.68084865 5.10387744 0.97969606 0.91768050 0.06562597
O 15.42754542 4.59978529 5.12954870 -0.59792957 -1.88727377 0.76579871
O 1.59739918 1.54421188 10.72118853 1.86008613 -0.23687739 0.27521655
O 14.06159994 1.52299920 10.85441183 0.37727733 -0.04701701 -0.61467217
O 1.56735485 4.61723664 10.80348070 0.44053324 -0.29869300 0.77377176
O 13.93311905 4.65696374 10.70604598 -0.14017584 -0.56240733 -1.61198061
O 1.38000756 6.19525757 3.20394278 0.28764742 0.06312125 1.26855531
O 13.80849451 0.07665493 3.16667769 -0.58218501 1.02018333 -0.28916497
O 1.47577703 3.12893868 3.24976531 0.90643902 0.40324847 0.25919283
O 13.85319247 3.10531430 3.18892376 -0.20076776 -0.24832642 -0.82711310
O 0.01603163 -0.04622323 8.92663066 -0.87378548 -1.57886471 -0.08892428
O 12.42270784 0.00078399 8.96880941 0.08305506 -0.21798274 0.06947663
O -0.01817924 3.12182653 8.90561557 1.83279568 1.35083893 0.18076743
O 12.44965215 3.00793691 8.92131414 0.88092890 -0.07166189 -0.20441488
O 9.68332919 6.19912493 2.48642705 -0.66257117 -0.15010073 -1.46007257
O 21.99287023 6.16464253 2.43204735 1.08837902 -0.27416012 0.79952459
O 9.69830987 2.99959273 2.41567816 0.59110842 0.71935518 1.26379656
O 22.07268184 3.11135364 2.52808772 -0.89659843 -0.64448584 0.62217060
O 8.18133997 0.06954383 8.17172489 -0.57147171 0.39090099 0.12666823
O 20.71939640 6.10388838 8.23465815 -0.21684059 -0.15555161 -0.30196487
O 8.36049061 3.05430204 8.16137417 0.55408008 0.16021515 0.29394262
O 20.66657532 3.05816220 8.15895403 0.37462067 -0.49012830 1.01387741
O 7.49322737 1.59176596 3.28216347 0.71303188 -0.88786873 -0.05425822
O 20.07655878 1.55502270 3.17196862 -0.09349711 0.73766487 1.13975222
O 7.56865529 4.70134952 3.15631640 -1.25026319 -0.83858145 0.07716520
O 20.04933307 4.65212791 3.14869643 0.26325552 0.23616330 -0.24962064
O 6.24607739 1.52900232 8.96919902 1.14095946 0.87553124 1.03700571
O 18.69859340 1.47431606 8.87989022 0.71550944 -0.20705371 -0.84589478
O 6.18186951 4.64261362 8.94961061 -0.53977734 0.46015326 1.09428473
O 18.65952859 4.61579449 8.86451227 1.98810470 -1.68751396 0.41554028
O 3.41427743 1.47815530 2.44360156 1.30103973 -0.55268438 0.81507249
O 15.91060499 1.56140976 2.48211125 -0.96518821 0.16640033 -0.07308578
O 3.38832887 4.59420160 2.49332888 0.14021757 -0.20072653 0.22396272
O 15.95635695 4.60479340 2.39548154 0.52314006 1.23854120 -0.47132998
O 2.06774684 1.57757120 8.14188620 0.24765305 0.04831736 -0.78340590
O 14.45600154 1.50222626 8.22195309 -0.40710080 -0.06287300 2.14024613
O 2.04502667 4.63140312 8.23969788 0.47493650 -0.70404444 -0.56910049
O 14.45942283 4.59997828 8.17803738 -0.40830077 0.36559748 -0.52100305
O 12.07341924 1.54346965 1.47458739 -0.15603883 0.58237712 1.24630310
O 24.48802171 1.42673159 1.55844666 -0.73697262 1.46877481 0.17172028
O 12.04048542 4.52002134 1.42593165 -0.97520294 -2.04127119 0.25579539
O 24.50409752 4.63981959 1.37537417 0.01256326 -0.10700821 -0.09681209
O 10.60950535 1.56487563 7.21179374 0.69160907 0.38407810 -0.51145004
O 23.03344403 1.53855549 7.13543923 -0.23276508 0.20839234 0.17144505
O 10.67899959 4.58024479 7.15952416 -1.11296567 -0.50361215 -0.38507319
O 23.02780976 4.61437461 7.22014964 -0.62586577 -0.28915059 -0.93046551
O -0.99274289 1.49561692 4.30441173 0.01940345 2.21054403 -0.36666407
O 11.37938966 1.54808673 4.21991518 -0.81648526 0.07198166 0.59795422
O -1.04818400 4.60932009 4.27493369 0.49669383 0.21050011 1.41992201
O 11.45147803 4.66835291 4.23361112 0.83309049 -1.11975811 0.82239621
O -2.32438144 1.59419237 9.97247146 0.02234522 1.09853107 -0.83090704
O 10.11249997 1.53261116 10.00407345 -0.29158389 0.19124230 1.20074673
O -2.41206042 4.54061558 9.98010599 0.33383958 -0.02605764 0.36656050
O 10.01957273 4.64382295 9.83547205 0.45432935 1.05731973 -0.84575211
O 5.73197655 6.10135968 1.45802802 -1.70407670 -0.65916236 0.56096654
O 18.29276911 0.03413248 1.43121544 -0.32609334 0.26219629 0.51769653
O 5.88046467 3.02082775 1.54651366 1.43411280 -0.26334857 1.03814983
O 18.23857558 3.08156438 1.49641598 -0.39465984 -0.36825439 -0.15450758
O 4.38534342 6.19898249 7.17275063 -1.28248294 0.71330891 -0.50064057
O 16.90156917 0.00147358 7.13594296 0.94415410 -0.93871690 -0.52259154
O 4.51182580 2.96780697 7.20207119 0.63753777 0.53661127 0.84941237
O 16.84708753 3.09914245 7.19489250 -0.08533127 -1.03686561 0.78924197
O 5.25875324 6.11945967 4.30871337 -0.33560851 -0.15872836 -0.47632805
O 17.64567788 -0.01324210 4.14345544 0.92936477 0.18595217 -1.18510726
O 5.32008434 3.02505301 4.23125420 -1.15903867 0.80897442 -0.79506396
O 17.63417197 3.13343605 4.21528640 -0.82536938 -0.11008621 -1.42676617
O 3.91021050 6.26345204 9.97093958 1.52178336 0.82860282 0.94745676
O 16.25221900 0.00169825 9.92818529 -0.11778256 -0.38224390 -0.57163905
O 3.92754508 3.11464924 9.85308288 -1.66466888 0.78468582 -0.28526307
O 16.30378801 3.10528189 9.92426571 0.19409310 0.05611337 -0.32086674
159
Lattice="25.029490 0.000000 0.000000 0.000000 6.196960 0.000000 -2.792085 0.000000 11.473334" Properties=species:S:1:pos:R:3:force:R:3 Energy=-622.832666 Virial="-53.322866 -0.092777 -2.547667 -0.092777 -42.953635 -3.036945 -2.547667 -3.036945 -46.629504" Ga_vac_type=Ga_oct Ga_vac_tier=low Ga_coord=6 defect_vacancy pbc="T T T"
Ga -0.04362182 -0.02055621 4.54068611 0.63921198 -1.09261712 -0.14646952
Ga 12.54863096 6.14688659 4.55404390 0.85157535 -0.54394349 -1.47795510
Ga 0.09998829 3.24130596 4.49118178 -1.73484468 0.09912879 0.57798803
Ga 12.46847574 3.07667033 4.50079712 0.32133867 -0.01101832 0.40371820
Ga -1.38892342 6.11619780 10.33764174 -1.46858224 0.71811825 -0.68318085
Ga 11.13647201 6.23512371 10.33696844 0.45587918 0.88186932 0.81738074
Ga -1.33103382 3.08952618 10.26258495 0.11814720 0.12250059 -0.61316777
Ga 11.14591553 3.14600640 10.24737825 0.80655069 1.24780328 -0.24772569
Ga 11.09431324 0.07510775 1.22758708 0.79665805 -0.58123570 -2.06183814
Ga 23.56637933 -0.14582495 1.20746833 0.62132811 -0.04267624 -0.07074347
Ga 11.17623604 3.10300076 1.23932393 -1.38235046 -0.02114460 -1.17008909
Ga 23.64442708 3.07930209 1.11459623 0.56861452 0.24592268 0.82125754
Ga 9.60618855 6.23088437 6.88786842 0.30286174 -0.40801702 -0.41959568
Ga 22.32047788 0.03149245 6.99446900 -0.50747091 -0.63670723 -1.88540187
Ga 9.69663230 3.06868910 6.84002577 0.34558813 1.46094423 0.36448882
Ga 22.21708640 3.07236350 6.96494669 -0.67648714 0.62379813 1.85932927
Ga 6.38209737 1.52565821 4.61402209 -1.38984126 0.34524508 -1.21961466
Ga 18.73246586 1.51763598 4.61915694 -0.03380708 0.95874526 -0.39050882
Ga 6.33296927 4.73217560 4.57682631 -1.50039060 0.55405399 0.03093510
Ga 18.71006149 4.60796361 4.48334693 0.66512302 -0.22515166 -0.53091372
Ga 4.81192014 1.50163245 10.30898101 0.33083451 0.77076092 1.43563582
Ga 17.47056598 1.37671107 10.23331773 0.60033525 1.16326481 -1.24774340
Ga 4.94435603 4.69659967 10.40048345 1.20291257 -0.12709403 -0.30212158
Ga 17.39451330 4.56834813 10.31931724 0.32607993 -1.76010974 0.74879102
Ga 4.93817611 1.58636418 1.13945155 -0.98017903 0.53768093 1.25634424
Ga 17.29669821 1.57454504 1.15428827 0.25707737 0.20827033 -0.16672739
Ga 4.77573989 4.65994309 1.16189519 -1.02337953 -0.19136917 0.63034115
Ga 17.38698870 4.76028258 1.16257541 -1.81883687 -0.29205273 -0.53014681
Ga 3.44090269 1.61101104 6.96052269 0.05609569 -1.13134999 0.25238768
Ga 16.00568961 1.56244510 6.90717337 -0.00671826 -1.09605257 0.83708305
Ga 3.47865522 4.60527995 6.92515908 0.80086651 -0.81837941 -0.39220226
Ga 16.02100728 4.70322850 6.97662101 0.30322689 -1.23762272 -0.11796655
Ga 1.60670447 1.60867622 1.71356858 1.25059544 -0.90830600 -0.36116837
Ga 14.05571756 1.46190485 1.87381024 0.32675406 -0.41684501 -0.79252003
Ga 1.45034741 4.55453645 1.85171413 0.51523684 -0.92187061 -0.17425669
Ga 14.11419196 4.57506104 1.79165326 0.74717321 -0.13995686 0.66414381
Ga 0.24535175 1.48586050 7.46051694 -0.30561742 2.22422272 1.30194477
Ga 12.65714933 1.56472938 7.47700558 -1.41869800 0.46277514 0.38690266
Ga 0.13849114 4.65623047 7.50549670 -0.71773713 1.33435524 1.31071598
Ga 12.66706898 4.65626170 7.50335337 0.27453943 -0.96290293 0.86916219
Ga 9.60713832 1.59252736 3.76550153 0.76995942 -0.94991101 0.02436827
Ga 22.05497945 1.56323943 4.00635033 -0.75216860 -0.93261527 -0.53792287
Ga 9.63958579 4.73286375 3.84669590 0.54208389 -0.22598473 -0.44032585
Ga 22.06734339 4.60149940 4.01260265 -1.78247325 0.02169392 -0.46710029
Ga 8.18134655 1.48802919 9.64573492 1.04808534 -0.30024599 0.81458945
Ga 20.77777991 1.46488884 9.66554741 -0.16222625 -1.39806930 -0.74094058
Ga 20.74604313 4.66043224 9.69385174 0.92499359 0.73256527 0.77160182
Ga 7.80465455 -0.00029110 1.84725840 0.66445640 0.68149950 0.92316246
Ga 20.27477417 0.08607326 1.88760330 -0.19862805 0.33436895 -0.65706924
Ga 7.80752549 3.05729262 1.87155413 1.92023882 0.35606991 -0.70577946
Ga 20.26124799 3.01394647 1.70349302 0.00750253 -0.78249198 -1.10636380
Ga 6.42576173 0.04146388 7.52118667 0.73404372 -1.16290236 -0.10251238
Ga 18.94715706 -0.02999902 7.50773636 0.47279556 0.92027879 0.75080970
Ga 6.35910350 3.07745817 7.60679140 0.34982512 2.01605315 -0.21300256
Ga 18.96978763 3.18641998 7.69858871 -0.41958235 -0.02730914 -0.60862680
Ga 3.35567639 -0.01736814 3.88871955 -0.04840817 0.21679484 0.99895343
Ga 15.83498958 6.16510017 3.95430471 0.69477320 -0.58852844 -0.15449464
Ga 3.33781466 3.15568363 3.97590997 0.28196113 -0.32074152 1.32094112
Ga 15.78159010 3.09874494 3.90488230 -1.19506305 1.23503464 0.01202125
Ga 2.00018739 0.01571208 9.68474956 -0.12503748 -0.40789386 -0.64534028
Ga 14.42130058 6.20625264 9.62967009 0.11767786 -0.09475000 -0.38182426
Ga 1.91741102 2.96866394 9.56338448 -2.86112477 0.67836953 -1.67341156
Ga 14.33770747 3.22512072 9.67267107 -0.65775566 0.55209546 -1.03371669
O 1.95580067 6.18919495 0.57496605 -0.31240778 0.21467981 0.69109942
O 14.38573468 6.17955277 0.61022262 0.53668843 -0.19311418 -0.19699870
O 1.86116312 3.09362626 0.58102833 0.25960364 -1.85878509 -1.03164098
O 14.27065119 3.14756107 0.66361443 1.12807072 0.02945948 -0.72892162
O 0.56454740 -0.05645273 6.38815791 -0.43697246 1.34318455 -0.51502405
O 12.94586556 6.29728326 6.35771694 -0.36649825 -0.94262487 0.07706753
O 0.50298873 3.07391437 6.46466362 0.87847755 0.09888690 -0.78289451
O 12.88132623 3.07597540 6.24279957 0.59453374 0.49399033 0.26863078
O 9.22754301 -0.02387290 5.00711958 -0.66493394 0.80707108 0.51120308
O 21.78184875 0.01427086 5.01543591 -0.14797154 -0.10310622 -0.76220419
O 9.23897613 3.16780246 5.19157439 0.15860085 0.47971832 -0.31993922
O 21.84885653 2.99789154 5.15608935 0.23939270 -0.13126705 0.54569883
O 7.80886433 6.28745862 10.86336313 0.78999818 -0.31701784 -0.42220391
O 20.36864331 6.20786048 10.70591949 -1.22881540 0.67337574 -1.03969370
O 7.79107046 2.95788019 10.90628966 -0.40316346 0.24555249 0.35806376
O 20.33458304 2.94493965 10.84770473 0.81727941 0.05951609 -2.38824676
O 8.06635743 1.47427833 0.51945939 -0.64812236 -1.00590988 1.23465374
O 20.68405973 1.49965977 0.67160443 0.96821355 0.94593005 0.52839390
O 8.06247063 4.77757342 0.63700515 -1.43780651 1.30870626 1.48341260
O 20.68119763 4.69659120 0.72711498 -1.89387281 -0.21370783 1.36356496
O 6.80158231 1.50665911 6.39992645 0.06247150 0.82938503 1.08391635
O 19.23084174 1.45642951 6.42103294 -1.87666051 0.41997391 -0.29947914
O 6.86011952 4.65922394 6.37896022 -0.63992082 2.05541035 -0.12508737
O 19.24230419 4.63567196 6.19290665 0.24565812 -0.48969667 0.93209505
O 2.83445355 1.51662576 5.16712491 0.25115146 -1.13988695 1.08252304
O 15.61485467 1.61310643 5.10432844 0.50952623 0.61071004 -0.87248655
O 3.02985788 4.58601034 5.06023408 1.02203200 0.68858455 -0.08042743
O 15.43189166 4.58029241 5.02160944 -0.52854405 0.13889820 0.81550444
O 1.61445981 1.51227772 10.85889624 0.46775886 -0.43318162 -0.30662948
O 14.10479488 1.52007920 10.80004442 0.34760027 0.05429954 -0.30678770
O 1.58245911 4.64023869 10.83448267 0.91078935 0.34437846 0.41464878
O 14.08827111 4.70507764 10.80644181 0.69267670 0.93332913 0.27434297
O 1.35548273 6.21627312 3.25518302 -1.16805562 -0.66138861 0.22861721
O 13.90336022 -0.09411810 3.24712470 -0.33210327 1.92809773 0.27199278
O 1.40966983 3.07915076 3.28355272 1.65577127 -0.26224465 -0.73769051
O 13.97254503 2.94070029 3.29892475 0.36951045 1.78171914 0.35348933
O 0.00429807 -0.05925850 8.87523785 -1.03840838 -0.73908761 0.67217479
O 12.56361968 0.07841159 9.03622468 -0.04912273 -0.91943727 -0.43650306
O -0.07342984 3.11749675 9.02831407 0.65684500 0.63416933 0.94824820
O 12.48620865 3.17428001 8.99781188 0.57515450 -1.01390936 -1.62553497
O 9.67477015 6.16835587 2.58741344 -1.03446877 -0.21808356 0.19043202
O 22.26133234 6.19305344 2.45765022 -0.06519727 -0.49656103 -0.57038307
O 9.70973405 3.13074629 2.36544278 -0.71481287 -1.10222986 -0.28057803
O 22.27446349 3.22338565 2.50571101 -1.34383090 -0.50212065 -0.20018847
O 8.36169321 0.04536758 8.15754429 -0.09054909 -0.67730560 1.36698429
O 20.77411709 6.12554507 8.28035466 0.44868607 0.08086653 1.95160457
O 8.29526559 3.02375928 8.25079895 0.14516288 0.05103755 -0.30461150
O 20.78502873 3.06652847 8.22538391 -1.03816703 -0.94523146 0.16104505
O 7.67162420 1.74473623 3.33300675 -1.47783017 1.18576517 0.76930726
O 20.07150836 1.51832931 3.33424056 -0.63107861 -0.20735319 -1.22013581
O 7.61014358 4.70803877 3.26380740 0.85452978 -0.18760190 -0.24033624
O 20.10945077 4.67300495 3.32486555 0.71961140 -0.45442895 0.42693168
O 6.26692678 1.53383151 9.00562458 -1.09789143 0.37840145 -0.09239097
O 18.86171442 1.56530639 8.97550646 -0.21271075 -0.15422762 -0.41560622
O 6.16692316 4.72844437 8.98438533 0.48942192 -0.64499252 0.56436111
O 18.76314264 4.64632531 8.94923972 -0.02387027 -1.64240306 -0.06483691
O 3.62330917 1.55447760 2.45797126 -1.32098116 -0.52787602 0.74791518
O 16.01112218 1.57409818 2.45263357 -0.71515194 -0.05986532 -0.21898427
O 3.39588578 4.62803202 2.52223580 -0.24329812 1.52480598 0.56997018
O 16.02291037 4.64903262 2.53188670 1.08820997 -0.77688710 -0.57682777
O 2.10305835 1.46435500 8.17503296 0.39403489 0.77218451 1.44146590
O 14.51907423 1.45481995 8.28180427 1.14076411 0.82857803 0.06435110
O 2.07609158 4.52907596 8.15219917 -1.20954718 -1.26823937 0.18977349
O 14.57342256 4.63115640 8.13789137 0.54102749 0.13724777 -0.78597976
O 12.19652844 1.53641866 1.42783566 1.30504159 0.61804278 -0.67593608
O 24.61892904 1.57335233 1.45059521 0.05270079 -0.54337269 0.42889669
O 12.09589233 4.73513653 1.44503288 0.41103307 0.86657834 -0.46522691
O 24.58666629 4.63698918 1.48389106 -0.93820199 0.04195194 0.16382239
O 10.67469056 1.46361348 7.18976858 0.87257491 -0.74650652 -0.75411522
O 23.10557974 1.60906760 7.14189221 0.60016535 -0.80386780 0.93444880
O 10.76102647 4.56652563 7.18039825 -0.20722672 -0.03680759 0.82817227
O 23.25584283 4.55354507 7.24071379 0.56009460 -0.51308990 -0.42944109
O -0.93843822 1.46793155 4.25010364 1.21710263 0.16947380 0.03814130
O 11.57732001 1.50945947 4.26885773 -0.19512239 -0.59994813 0.03894595
O -1.02489642 4.61013219 4.26151209 -0.38196662 0.27595269 0.52271541
O 11.61252672 4.76558257 4.36880268 0.15866313 -0.09896123 0.64100058
O -2.35993136 1.54611513 10.10012783 0.49651094 0.50680459 -1.82187636
O 10.22937754 1.40697879 9.94991296 0.21542202 -0.14610269 1.25306592
O -2.28026401 4.61568181 9.93304463 1.23601760 -0.01280707 -0.80776715
O 10.01198386 4.61003404 9.92557774 -0.24870192 -0.34193021 0.27258887
O 5.87163770 6.14818195 1.48610929 0.05744289 -0.65459421 -0.31992842
O 18.40719456 0.02249763 1.42660408 -0.40024855 -0.61620615 1.23756686
O 5.79739829 3.02974138 1.49634298 -0.27462059 -0.80364025 0.45452050
O 18.30020639 3.09342669 1.44114495 -0.16342513 -0.19461514 -0.48403933
O 4.48095903 6.15226719 7.21791106 -0.42027908 1.25284810 -1.20249283
O 16.95793021 -0.02752007 7.29545491 0.97398372 0.74432941 0.21526350
O 4.42035111 3.09734816 7.12824797 -0.26218343 0.62584797 0.13996346
O 16.98642809 3.19336340 7.33676882 0.29419598 -2.51607131 1.42775771
O 5.20964081 6.17005115 4.30642788 -1.70637440 0.43722609 0.66752032
O 17.80251851 0.05048459 4.14007133 0.59471775 -0.40067303 -0.67461076
O 5.17619266 3.07527129 4.19869402 0.35223537 0.39927228 -1.31004651
O 17.82327724 3.20894912 4.27496375 -0.20901367 -0.04912404 -0.81871908
O 3.92524928 6.20239306 9.96863513 -0.78478367 0.73357048 -0.57201733
O 16.40518000 0.10069346 9.91369453 -0.75907675 0.98592451 0.30692713
O 3.83262792 3.07390974 10.07938090 1.56360489 -1.37450017 0.67283520
O 16.35302823 3.08434069 9.95587618 1.57763752 0.06043767 -0.25667516
159
Lattice="24.946218 0.000000 0.000000 0.000000 6.176343 0.000000 -2.782796 0.000000 11.435163" Properties=species:S:1:pos:R:3:force:R:3 Energy=-622.945154 Virial="-55.855705 -1.132232 -2.442285 -1.132232 -45.808123 -6.331445 -2.442285 -6.331445 -46.692422" Ga_vac_type=Ga_tetra Ga_vac_tier=low Ga_coord=4 defect_vacancy pbc="T T T"
Ga 12.48264936 6.16593837 4.48890745 -0.00735271 -1.39663007 -0.77814393
Ga 0.17230438 3.02251344 4.64454645 1.69919293 1.45878230 1.20809483
Ga 12.39300663 3.02692067 4.51768455 0.73291359 -1.01140293 -0.06381602
Ga -1.40652276 6.22592796 10.24576265 -0.63147716 0.02612597 0.37543198
Ga 10.95551567 6.16333977 10.30501851 0.44425408 0.94780870 -0.04388986
Ga -1.33940448 3.11142474 10.32001253 -0.34351141 1.03372829 -0.44932767
Ga 11.12743501 3.20246624 10.22478473 -0.34292856 1.52630185 -0.09124783
Ga 11.03322758 0.02058250 1.20555776 -1.03733833 -0.85187660 -0.36430035
Ga 23.57962181 0.04683111 1.21849467 0.81808670 0.64716951 1.00587510
Ga 10.98194156 2.98777759 1.32372185 0.16201641 0.42875405 1.75317291
Ga 23.59491778 3.04907473 1.23696614 -0.42122487 -1.68253725 0.69428823
Ga 9.61449039 6.19052981 6.85755319 -0.65840280 -1.33859039 1.12067393
Ga 22.21611473 -0.06021643 6.87255076 -1.06122786 -0.43839412 -0.76663250
Ga 9.67001124 3.06382779 6.93705768 -0.28603376 -0.97921951 0.97418324
Ga 22.20630771 3.15738699 6.80353439 0.10984454 -0.36321445 0.26878009
Ga 6.21950159 1.58823248 4.52621654 0.28477642 0.03028118 0.23496952
Ga 18.65037489 1.43275720 4.52038643 0.28997538 0.49326418 -1.05555784
Ga 6.20270470 4.56735667 4.54124213 -0.05536788 -1.07511460 -0.37884743
Ga 18.63823776 4.69378779 4.59254301 -0.02146664 -0.73316141 0.01501790
Ga 4.77356698 1.40726373 10.15773594 0.94547735 0.38695912 -0.45300471
Ga 17.43238807 1.57488889 10.28997481 -1.46747255 -0.69637052 -0.30525098
Ga 4.85121569 4.70725972 10.23045729 -0.21198642 -0.53834063 -0.19121874
Ga 17.35095759 4.62290951 10.25181827 -1.06568189 -0.86628117 -0.96848265
Ga 4.95858176 1.58567943 1.18667250 -0.74951861 -0.09998271 0.88499718
Ga 17.41226775 1.53762547 1.11746609 -1.08054446 -0.05944076 0.08199179
Ga 4.70181803 4.52608764 1.09250848 -0.62868166 -0.07375720 0.51932878
Ga 17.24590628 4.65605895 1.10026559 -0.36203002 0.99084407 -0.48376018
Ga 3.38271264 1.51114374 6.90623904 -1.92958815 0.24041657 1.08808477
Ga 15.91309335 1.65887631 6.90318195 -1.47652709 -0.19127530 1.25175000
Ga 3.49691920 4.71369580 6.83110994 -0.01047090 -0.44777213 -1.16827710
Ga 15.93283975 4.70970889 6.89965318 -0.46979418 1.01143230 1.09380916
Ga 1.54786474 1.64240602 1.69255605 -0.72223746 0.46846535 0.62120242
Ga 13.93812168 1.57312253 1.83408785 1.83062951 -0.84411512 1.05564928
Ga 1.55041246 4.62013516 1.70276480 0.34306010 1.64617351 1.55986678
Ga 14.00459677 4.62259943 1.68441628 -1.96115886 -0.42048744 -0.40737982
Ga 0.13596738 1.50814478 7.49145994 0.30864142 -0.40497151 -0.08434056
Ga 12.54565269 1.50894471 7.47995914 0.93358795 0.13064005 -0.27037710
Ga 0.12347104 4.63528851 7.46537651 -0.16764101 -0.19524891 0.79473090
Ga 12.63929782 4.59446796 7.49205404 -0.27898142 -0.64150432 -0.73982858
Ga 9.56750545 1.56273055 3.98590294 1.53945051 1.33370976 -0.77583491
Ga 21.80661023 1.57182628 3.90789530 0.58512544 -0.50884544 0.18847161
Ga 9.59206438 4.68196842 3.93253362 -0.18972430 -0.59394011 -0.10238273
Ga 22.01116666 4.58158274 3.89765964 -0.53284155 -0.90160540 -0.00048442
Ga 8.09218787 1.56367917 9.69266318 -0.66287179 0.61625133 0.31414520
Ga 20.70707164 1.45423488 9.61702786 -0.13292446 0.50157492 0.15985107
Ga 8.17109798 4.57493894 9.63039346 0.14695304 0.50247204 -0.62514461
Ga 20.64193741 4.66403538 9.61526398 0.17069825 -0.78609535 -0.50622097
Ga 7.80666402 -0.01659591 1.85344645 -2.13401830 -0.39565408 1.72740173
Ga 20.14903131 -0.07209937 1.84619605 0.13934776 1.01431689 -0.19795648
Ga 7.75768614 3.06365142 1.75076174 -0.12319886 0.02035128 0.31162322
Ga 20.23847665 3.11835943 1.80403763 -0.39003760 -1.13122904 0.05629014
Ga 6.29451603 -0.15323454 7.50073092 0.68950766 -0.55100095 -0.57306228
Ga 18.88704340 0.09166306 7.49919214 -0.05742171 0.49274486 -1.25058419
Ga 6.43936768 3.11292406 7.45860394 1.19423164 0.70180994 0.23970722
Ga 18.81185126 3.20474334 7.48493496 -0.62653274 -0.86304787 0.38442169
Ga 3.39682333 0.01252016 3.92972125 -1.45397667 1.06628010 -0.66831657
Ga 15.83697093 6.15196923 3.98890296 -0.25148840 -1.27158264 -0.00248698
Ga 3.19946911 3.10322932 3.96644673 0.93575662 0.58544771 0.34284953
Ga 15.87449533 2.93983154 3.91574166 0.70324076 0.76228955 -0.07506909
Ga 1.96037474 -0.02132395 9.63510029 0.80886209 -0.39844532 1.47616510
Ga 14.57985808 6.19350184 9.55656554 -0.11955252 -0.22547984 -0.30960468
Ga 1.89943699 2.97327096 9.69333352 -0.76282944 -0.49391279 -0.58134834
Ga 14.30759963 3.01146184 9.54707230 -0.17830612 -0.35436066 -0.17229447
O 1.86972779 6.06770325 0.57950001 0.11589998 -0.15526210 0.50905746
O 14.44442765 6.12925274 0.57152815 0.00189562 1.62811149 0.65440800
O 1.92904118 3.01269534 0.51773648 -1.65180033 0.36873841 -1.02490334
O 14.28299449 3.10674697 0.59299025 0.68263683 -0.20365283 0.86628323
O 0.45019348 0.00472342 6.41656115 0.59397932 -0.99295634 0.15209756
O 12.94222335 6.27555600 6.35056016 1.25402788 0.01928081 0.69990328
O 0.55038451 3.12594580 6.40188389 -0.60476677 -1.23909688 1.41759516
O 13.02243160 3.21419109 6.40187289 0.89856143 0.47760830 -0.88739868
O 9.26351897 0.10346978 5.09953542 -1.15813964 -0.15148253 -0.85131164
O 21.62255151 -0.05827375 5.10043473 -0.48439349 0.57064911 0.83158391
O 9.12802161 3.02116430 5.11887932 0.35452791 0.64850256 -0.48691796
O 21.72203307 3.17726796 5.14934536 -0.44361425 -0.31951267 -1.24003479
O 7.78983899 6.16273130 10.76120363 0.47694821 -0.54248228 1.01173905
O 20.25876004 6.14348040 10.75913834 0.22283149 1.00543632 0.28001376
O 7.86836629 3.05774115 10.75325156 -1.30242683 -0.22808481 -0.75255437
O 20.25966984 3.06201666 10.77206187 -0.03875663 -0.29567675 1.40370205
O 8.14263586 1.52462044 0.72902906 1.77981071 1.29305907 -0.42737465
O 20.56964231 1.52075913 0.73801614 -0.39785611 0.91951934 -0.56139035
O 8.19457191 4.65608748 0.68147668 0.61941017 -0.52254634 -0.86026427
O 20.69752049 4.62085936 0.66205973 -1.78816030 -1.45825494 1.05955633
O 6.64488235 1.41158843 6.20041094 -0.39521548 0.76192047 -1.89111445
O 19.28646186 1.58228929 6.42205861 1.17229402 -0.42295414 -0.95387340
O 6.71948424 4.76303054 6.30067618 -0.58210397 -0.61043106 0.10999705
O 19.21959000 4.67468115 6.36611214 0.18107631 -0.45007682 -0.59777716
O 2.96885476 1.45829799 5.04251717 0.46495299 0.82423756 -0.87460529
O 15.49447160 1.56300959 5.04569112 -1.12661344 0.25446452 -0.40475131
O 2.96836160 4.53875701 5.05604836 0.72089860 -0.14867073 -0.16354879
O 15.47029526 4.69288161 5.12693121 -0.29331355 0.38747922 0.42906160
O 1.54563431 1.55833864 10.80022166 0.05869836 -0.71880837 -0.99046621
O 13.98653172 1.36781358 10.88997940 -0.26921232 -0.31432041 1.00929335
O 1.49181386 4.56308034 10.79978450 0.04677559 -0.16684504 -0.48602129
O 14.01514427 4.63709913 10.76371705 0.53467516 0.19422923 -0.87610250
O 1.33205770 6.03624084 3.28409380 -0.24039624 0.41888657 -0.32291886
O 13.83226306 -0.10200593 3.22283514 -0.57836017 0.93517732 0.03173983
O 1.40578497 3.09663261 3.23614051 0.03770507 -0.06729140 -0.10267279
O 13.85063951 3.09077084 3.28159902 1.57206436 -0.73447945 -0.34480588
O -0.14585372 -0.08784714 8.94445367 0.97869907 -1.07848993 -0.50166506
O 12.43760424 0.02815884 8.90816731 0.96789534 0.67721423 0.10383607
O -0.11838986 3.09920899 9.01030490 0.57887972 -0.89370062 -0.16488272
O 12.51721425 3.17980158 8.99544861 -0.49296521 1.42990262 0.21252211
O 9.72423773 6.10149303 2.48970698 -0.82973506 -0.08436929 -1.86484393
O 22.13211960 6.15838132 2.46155230 0.14402119 0.76814148 1.22176743
O 9.70747756 3.07504444 2.42871340 0.91244426 -0.70722485 -0.13154817
O 22.18719714 3.14064993 2.43144877 0.47936407 0.89632147 0.98096895
O 8.32138629 -0.00247657 8.07077039 -0.40092568 0.56558250 0.84567980
O 20.82710925 6.14382664 8.23409818 -0.09735125 0.48670827 -0.43205603
O 8.45816835 3.03086132 8.26006696 1.19452685 1.24281466 -1.07789597
O 20.80226291 3.11576357 8.11690904 -0.03089340 -0.52972659 -0.35891914
O 7.52597201 1.46100125 3.22579491 0.77438278 -1.07329090 -0.43618922
O 20.07053031 1.58336370 3.27469277 -0.34325175 -0.20117745 -0.01335743
O 7.63891198 4.63119488 3.13961199 -1.05359096 0.76333829 0.96549920
O 20.05381496 4.65375678 3.29453792 -0.76138086 -0.89280560 0.39269498
O 6.17689336 1.58783754 8.92193013 1.15360328 -0.75804430 -1.40604147
O 18.65583132 1.41266846 8.92688755 -0.29517728 0.90638464 0.42554141
O 6.24533395 4.54077586 8.92499789 -0.74492184 -1.19533962 -0.63669266
O 18.80057657 4.61003839 8.92921201 1.41758435 -0.08076378 0.21288506
O 3.48413138 1.58292705 2.66198943 -1.17953655 0.42534193 0.34131548
O 15.92458074 1.62932384 2.54263500 -0.21853916 0.71052649 -1.18388786
O 3.44871336 4.62601491 2.46089491 1.33355808 -0.88713582 -0.60120395
O 15.82159483 4.58985766 2.48500921 -0.43725747 0.27942055 -0.16365810
O 2.01211362 1.55854297 8.24402316 -0.47367073 1.60356825 0.78661895
O 14.43760900 1.63716182 8.26570948 0.94063853 -1.35227395 0.98697898
O 2.02825447 4.66531206 8.13364252 -0.13516193 -1.13549808 0.47247203
O 14.46789461 4.60401367 8.22910524 -0.32207688 0.03905401 -0.03040898
O 12.12129381 1.51155741 1.47043467 0.00594182 0.82311938 -2.24188730
O 24.59918601 1.58519361 1.44602131 0.65192954 0.25354792 1.14240156
O 12.12013623 4.61300359 1.45394862 -0.37210002 0.38318988 -0.26874772
O 24.51029461 4.72282821 1.46478734 0.89838904 0.16151887 -0.59930614
O 10.81523743 1.61771335 7.25803523 0.44339903 -0.01667665 -0.67991989
O 23.21674679 1.53503331 7.19698051 1.03426303 -0.83684378 -0.74518119
O 10.68567282 4.66431603 7.21429252 1.14731725 0.49465031 1.01779818
O 23.21493255 4.67716674 7.34705027 -0.52990274 2.14952572 -1.58885741
O -0.97362572 1.68496880 4.25778507 0.31015065 -1.01325450 0.57559454
O 11.43963741 1.45708100 4.30460813 0.65812824 0.84551083 0.24619154
O -0.91127500 4.59981337 4.30459196 -1.25121441 0.64708945 1.17592136
O 11.54879045 4.56032842 4.23226742 0.72105253 -1.18885729 -1.45615067
O -2.28622494 1.45671649 10.06112463 1.56470218 0.85182745 -0.48145906
O 10.06520464 1.67872734 10.00390815 -0.70510662 0.88223130 -0.15201325
O -2.42313723 4.67905834 9.99181078 -0.34902356 -1.53016016 0.78965480
O 10.15645335 4.59213071 9.99378333 -0.33318806 -0.96825009 0.22278136
O 5.95040962 6.17751385 1.61353839 -0.16467043 0.32477248 -0.95340248
O 18.30964397 0.01005736 1.46285100 0.18074483 2.01480576 -0.79438291
O 5.87135238 3.10833617 1.37939929 -1.14625194 0.06775113 -0.00718067
O 18.43269312 3.11530856 1.47156302 -1.32869298 -0.15541897 1.27592678
O 4.47665794 6.19259127 7.14900712 -0.18377372 -1.23020892 -0.24184839
O 16.90724289 0.09025678 7.12453701 0.73062123 -0.07727341 -1.02089216
O 4.41146642 3.04978914 7.19018417 0.40946043 -0.42241160 1.17953586
O 16.97531158 3.05347923 7.16485172 0.08926733 0.15859213 -0.41602988
O 5.33392519 6.12618833 4.40322070 -0.34865038 -0.07952910 -0.86033643
O 17.76737306 0.12448226 4.20155462 1.10718696 -0.02092742 0.93545405
O 5.19891354 3.01587948 4.21793452 0.68730322 1.86191260 0.05531903
O 17.74032791 3.08156328 4.32165191 -0.80694117 -0.08784005 0.84869667
O 3.81989529 5.99734750 10.01906771 1.24098754 0.03561823 0.22670443
O 16.33084770 0.04108074 10.06371513 -0.07326350 -0.18997544 0.16559245
O 3.82533194 3.22688712 9.91895994 1.54028615 -0.55948115 0.35924307
O 16.29191412 3.00751163 9.93188981 -0.07331255 0.29304521 1.08167572
159
Lattice="24.879095 0.000000 0.000000 0.000000 6.159724 0.000000 -2.775308 0.000000 11.404394" Properties=species:S:1:pos:R:3:force:R:3 Energy=-622.167105 Virial="-57.775015 -0.953086 -4.224009 -0.953086 -45.034767 -5.843494 -4.224009 -5.843494 -44.249127" Ga_vac_type=Ga_oct Ga_vac_tier=low Ga_coord=6 defect_vacancy pbc="T T T"
Ga 0.02376783 -0.00500627 4.53912334 0.40596321 0.99668553 -0.60371747
Ga 12.44169830 6.19843856 4.50668375 -0.84535934 0.48987311 1.12921547
Ga 0.04989795 3.03390516 4.60316541 -0.72183683 -0.90279224 -0.46612474
Ga 12.48245987 3.20036037 4.56742619 0.19901245 -0.68765891 -1.09928225
Ga -1.28000588 6.22845857 10.24641117 0.22374247 0.59420075 -0.52984742
Ga 11.10810798 6.27679595 10.18609962 0.43264152 0.20466538 -0.27713216
Ga -1.35133596 3.05797289 10.28434587 -0.34572702 0.68982812 0.96018175
Ga 11.04959439 3.12785616 10.20637439 -0.02445489 0.34982278 1.02619091
Ga 11.04280996 -0.07381007 1.14289779 -1.30447776 -0.04817949 0.96113873
Ga 23.52148871 -0.08905441 1.21063078 0.21467574 0.77021516 0.66937079
Ga 11.07724810 3.12878590 1.19464347 0.91871425 -0.44058762 -0.82077565
Ga 23.41447935 3.03421688 1.14896869 -0.13529018 0.73319583 -0.30703718
Ga 9.61338609 6.20986780 6.95302059 -1.23065805 0.49777902 0.19950126
Ga 22.02447971 0.02578826 6.90665179 -1.34206722 1.00490483 0.46521541
Ga 9.57434149 3.03531046 6.80604265 0.56761881 -0.04060461 -1.10787898
Ga 21.99933457 3.06251337 6.89501750 -0.24010752 -0.76431515 0.37899945
Ga 6.20660455 1.40334985 4.57493651 0.99918227 0.46239858 0.54372458
Ga 18.69347919 1.48177851 4.61212945 0.26673284 1.24543432 0.62121774
Ga 6.21328119 4.59624882 4.55784892 0.05389346 0.34889197 0.42503826
Ga 18.75595261 4.69830750 4.50146121 1.16464162 -0.31365963 0.71773819
Ga 4.88887142 1.57078187 10.32629320 1.06589387 -0.45430476 0.48490281
Ga 17.35003374 1.61493075 10.21525140 -0.24230914 -1.73279956 -1.05323600
Ga 4.83087202 4.61629053 10.21636149 0.59384969 -0.61572319 1.21048324
Ga 17.24963465 4.53104039 10.22152032 0.71494328 0.94413553 -0.09502154
Ga 4.85587167 1.61408351 1.14090825 -0.29398366 -0.20388112 -0.62580177
Ga 17.27192102 1.51605889 1.11575781 -0.62826466 -1.73537201 0.61988313
Ga 4.91467571 4.58940659 1.16246955 0.81658267 -0.29901448 -0.14068533
Ga 17.28380586 4.58756848 1.16842293 0.37263154 0.08336829 -1.81581593
Ga 3.50175777 1.52212511 6.91560878 -0.66123654 -0.42767866 -0.38815805
Ga 15.97829320 1.56751245 6.90125387 0.94724145 0.14744677 0.83681206
Ga 3.39519193 4.58916483 6.90168844 -0.29941085 -0.00849058 0.79151026
Ga 15.84443656 4.62960545 6.93022796 1.13306001 -0.00992808 -0.39807802
Ga 1.62339881 1.49920545 1.75661505 -0.78736561 0.13417399 -0.93304311
Ga 13.97849569 1.46766321 1.76779900 -0.87470914 0.57814360 0.54932941
Ga 1.56093540 4.62152417 1.72215513 0.07253539 0.18103337 0.14388803
Ga 13.94101770 4.52444504 1.77563376 0.90863459 1.19831219 1.06113070
Ga 0.20797521 1.61722916 7.43330584 -0.68377533 -1.08061781 -0.98425817
Ga 12.56737328 1.58011698 7.52369912 -0.41380391 0.10493307 1.33233387
Ga 0.20897699 4.57868887 7.52851749 0.46771788 0.20001736 0.19002398
Ga 12.64275490 4.61125780 7.51525983 1.39717902 1.70727023 -1.12044418
Ga 9.62872963 1.51500913 3.89701820 0.87927020 0.38367066 0.42193737
Ga 21.93107869 1.49671756 3.89410899 -0.76219419 1.26987938 -1.08174562
Ga 9.54812760 4.60285847 3.88584462 -0.17909857 0.30808755 -0.61260347
Ga 21.98927557 4.60117452 3.90733961 -0.74689887 -0.77499380 -0.64745098
Ga 20.60573219 1.50164441 9.56298786 -0.87078233 -0.15063923 -1.02914690
Ga 8.07598725 4.53625163 9.58955641 -0.00837695 -1.03576496 -0.21591628
Ga 20.60589921 4.62581959 9.59500127 2.23749387 -0.90890588 0.37125365
Ga 7.80049016 0.00576544 1.75281833 0.12802122 0.12042503 0.36170232
Ga 20.22860403 0.01941690 1.81085377 1.04202453 -0.67853569 0.23509270
Ga 7.80384071 3.10273543 1.84451162 -0.94947560 1.26004617 -0.06510204
Ga 20.13662932 3.08679254 1.84167146 0.88106192 0.26154633 0.48014421
Ga 6.31973835 -0.01872330 7.44840077 0.62547111 -0.64896233 -0.68663734
Ga 18.80528252 0.03096726 7.64916555 0.59558359 0.00979508 -0.33857232
Ga 6.46686389 3.07639972 7.52893071 -0.44520973 -0.10377076 -0.81042167
Ga 18.85015738 3.04927208 7.52558114 -1.90673366 -0.08981061 -0.05295837
Ga 3.32779108 0.02811948 3.88244054 0.45399542 -1.25181105 0.17004563
Ga 15.80926340 6.13083962 3.91056236 1.27700136 -0.04580854 0.88998578
Ga 3.27418179 3.09818167 3.97658809 0.45194633 -0.80384812 -0.32160842
Ga 15.71209296 3.00670230 3.77736946 0.92892597 -1.00292675 -1.04461308
Ga 1.95246723 0.00317578 9.56637077 -0.08266152 -1.80289433 0.84373619
Ga 14.35761505 6.14772453 9.50461537 0.51611902 0.56153068 0.73627327
Ga 1.83317930 3.05858999 9.64543068 -1.03518623 0.75095106 0.90343006
Ga 14.38101318 2.99097513 9.54703999 -0.20045399 1.12218479 0.35487102
O 1.82165245 6.18775000 0.62437680 0.45495756 -0.60327960 -0.63601601
O 14.33215094 6.20205888 0.61263680 1.03703552 -0.49291374 -0.65538929
O 1.93049754 2.98567222 0.54644931 -1.34719261 0.03213986 0.00405887
O 14.31808243 3.02902990 0.74111710 0.01357199 -0.32820906 1.16485878
O 0.55133808 0.04688482 6.26718897 -0.39285274 -0.99030130 1.39243658
O 12.92316605 6.08598069 6.23891879 0.70535844 0.56790546 0.43075859
O 0.42761990 3.13684440 6.34049702 0.37255957 -1.09032853 -0.25913792
O 12.93158968 3.10825442 6.23296313 -0.66789506 0.87608475 -0.92748690
O 9.16905185 0.00180636 5.05043641 -0.84425748 1.34998514 -0.41718741
O 21.61539132 -0.03410894 5.05497317 0.94905779 0.00889761 -0.16080149
O 9.23869140 3.06621740 5.13613170 0.13003749 -0.79710596 -0.40502874
O 21.62562740 3.08774863 5.11276630 -1.15211849 0.49155648 0.84810551
O 7.82076958 6.10449330 10.69433484 2.01405151 -0.47339901 -0.85481245
O 20.31826497 6.18757269 10.88753299 -0.96247637 -1.75101183 -0.33380216
O 7.78646240 3.17507099 10.84014226 1.04500154 0.48026093 0.67693565
O 20.26449211 3.10247242 10.73627543 -0.46982473 -0.06950621 0.17513803
O 8.09016771 1.52650928 0.67385816 0.78905079 0.63115581 -0.19462454
O 20.54927872 1.50514231 0.64272308 -0.40942994 0.14871087 1.00906389
O 8.12159462 4.57677540 0.57590360 -0.17338014 -0.24226462 0.51507291
O 20.50674138 4.63448268 0.57447665 -1.09795730 0.19870207 0.17131649
O 6.64021333 1.49645644 6.17513465 -0.44608260 0.06881358 -0.10634409
O 19.09155933 1.57912373 6.39236281 1.23317940 -0.26083859 -1.11365662
O 6.75511890 4.57101855 6.35432074 -0.98892099 0.68351363 0.56545843
O 19.17340597 4.59043420 6.38107223 -0.16943980 -0.50105143 -1.02224281
O 2.90450357 1.48267220 5.12153409 -1.19549240 0.28286542 0.00176009
O 15.36364478 1.52621394 5.04672835 -0.48731959 0.36289249 0.71189288
O 2.95545607 4.65245657 5.04475373 0.25873631 -0.84596590 -0.16170642
O 15.47700010 4.53551611 4.96599820 -0.00871799 -0.64147305 -0.17830778
O 1.56819689 1.55591774 10.73779868 0.31900146 0.18058054 0.82532488
O 13.95909334 1.58171775 10.72540285 -1.19279085 -2.09372472 0.52906440
O 1.59441708 4.51425533 10.92535482 -0.57767163 -1.05106272 0.17828228
O 14.02991941 4.59634757 10.72083638 -0.55895093 0.19540350 0.13205334
O 1.39992922 6.17323390 3.20555782 -0.01764584 0.70627156 0.25240234
O 13.86234623 0.02566657 3.24562057 -0.43001146 0.08528803 0.52172880
O 1.36247506 3.00585603 3.24965675 -0.29725032 0.24648204 -1.60420609
O 13.88500010 3.10130208 3.24860915 0.19198022 0.06254821 0.29887727
O -0.09058424 0.06883645 8.97070971 0.14379810 0.17087909 -0.96635760
O 12.38195861 0.07334956 9.03420935 0.60903857 -0.08652638 0.21190900
O 0.04071403 3.11650032 8.96363174 -1.77885280 -0.36339253 0.01249684
O 12.35970193 3.04159695 8.87819597 0.30744523 -2.42064017 -0.25791354
O 9.69127316 6.20068628 2.44085145 0.44238075 0.16275316 0.07970582
O 22.08935975 6.08430094 2.41623679 0.05121298 0.02206014 1.37199057
O 9.56556689 3.10807391 2.46314633 -0.04971488 0.53214407 -1.17995523
O 22.11205353 3.04832370 2.45510362 -1.14190710 -0.20795763 -0.09866712
O 8.22448411 -0.03911580 8.16230139 0.31890847 -0.60317366 1.35125152
O 20.64736969 6.20662981 8.06648878 0.49933000 1.10989524 -0.10684993
O 8.24673455 3.09027909 8.18315822 0.35519573 0.19097789 -0.17736664
O 20.69434502 3.10243594 8.14931608 1.22536331 0.26415760 -0.35825820
O 7.59472668 1.63922695 3.27823584 1.13435504 1.32899594 0.81473004
O 19.94123249 1.47710725 3.26892232 0.38944600 -0.27717903 -0.34568872
O 7.65947960 4.62354568 3.12383965 -0.42956531 -0.29709785 -0.65120759
O 20.13508222 4.62714904 3.15501467 -1.83782219 0.88459681 -0.59770440
O 6.23355073 1.56142464 8.96339555 0.58741418 0.64531038 0.69150656
O 18.60543031 1.59213387 8.88017687 -0.76725912 0.83992752 -0.12510557
O 6.23545714 4.62327526 8.93373655 -0.57682513 0.32440322 -0.78723841
O 18.62990199 4.69298636 8.94660024 1.40945848 -0.37885358 -1.93726284
O 3.49440518 1.54604037 2.48786617 0.88311161 -0.43807122 -0.77201593
O 15.80347469 1.55311165 2.44452683 0.17848546 -0.10327331 1.17541756
O 3.33529876 4.67154689 2.48814566 0.36771396 -2.19478015 0.45337034
O 15.92789439 4.67176369 2.50556608 0.69948809 -0.41102190 -0.97048214
O 2.09098709 1.54593597 8.28848771 -0.46441709 0.80595538 -1.16214623
O 14.48840090 1.45913393 8.12171613 1.58695221 1.36845174 0.40356952
O 2.08202407 4.53284284 8.09776536 0.95854264 -0.03255669 -0.70723938
O 14.56620592 4.72867829 8.17109368 -1.63089913 0.59781279 0.08147711
O 12.03372201 1.55101264 1.50463442 -0.14499172 -0.39086743 1.26290836
O 24.52484180 1.54505956 1.32176825 -1.63716192 -1.20630324 -0.32075838
O 12.05020447 4.60863813 1.50603594 0.69524943 -0.79249963 -0.11079557
O 24.47776227 4.58531188 1.51774316 0.81690013 1.26340771 0.44661896
O 10.63787852 1.51380051 7.07942415 -1.60882538 1.68381361 -0.29226023
O 23.14919378 1.53829580 7.15256344 -1.31872337 1.17722950 2.00370096
O 10.60120995 4.60022135 7.18152557 -1.58161382 1.02799909 0.00415410
O 23.04300317 4.57362295 7.17350723 -0.98041117 -0.35776926 0.35048926
O -0.95209575 1.51080854 4.24424567 1.78950748 0.90871761 0.04147019
O 11.49755639 1.61839489 4.23730748 -1.57294648 1.41278301 0.26363251
O -1.00295873 4.66255586 4.27087091 1.17599887 -0.28466965 -1.04334801
O 11.48257689 4.67500953 4.21235311 0.79141356 -1.19590943 0.90720614
O -2.47298139 1.55923379 9.88739121 -0.12009760 -1.34341532 -0.48038880
O 10.05291389 1.49482187 10.03929661 0.54109411 0.51679782 -0.73503863
O -2.48256898 4.69489730 9.97491250 -0.07751025 1.02482471 0.03946322
O 10.10284845 4.52525496 9.96996718 -0.34477289 -0.59818944 0.00978974
O 5.81031973 6.17830045 1.43656776 -0.52872195 0.22755714 0.15156463
O 18.21145771 0.02026325 1.50354988 0.46071809 0.29648832 -0.65178893
O 5.82880156 3.09313666 1.49160472 0.50962566 -0.90302492 -1.08182855
O 18.24824523 3.00587610 1.45450620 -0.21966601 0.30491988 0.80769880
O 4.46052493 6.10960640 7.10263774 0.72005208 0.12140946 0.03015397
O 16.90994924 -0.01587931 7.17852945 1.04871441 0.01233542 -0.73519942
O 4.35270749 3.06620537 7.19202672 0.00763705 -2.18824861 0.49688404
O 16.86300501 2.99988678 7.21190364 -0.82413667 0.27056951 0.21472769
O 5.22479952 6.12175392 4.28464100 -0.44885982 -0.50583360 -0.42664694
O 17.68594890 0.01444237 4.21453149 0.87933210 0.95292542 -0.21649378
O 5.26668378 3.15390637 4.16318675 -0.70609173 0.26746151 0.44309325
O 17.79749281 3.06311072 4.27347373 -0.13002647 0.34220379 -0.58568696
O 3.76591904 6.16670069 9.98294950 -1.19974399 -0.64577255 0.70538467
O 16.24429436 0.03455749 9.85293012 0.99944957 -0.40167602 -0.02071983
O 3.90611944 3.08212138 10.01779368 -1.47159230 0.53305620 0.78267517
O 16.30976845 3.14514875 9.87182641 -0.30817071 0.95769426 -0.49365409
159
Lattice="24.929773 0.000000 0.000000 0.000000 6.172272 0.000000 -2.780961 0.000000 11.427625" Properties=species:S:1:pos:R:3:force:R:3 Energy=-621.438734 Virial="-55.304316 1.167577 0.343446 1.167577 -45.427508 -4.450106 0.343446 -4.450106 -41.689580" Ga_vac_type=Ga_tetra Ga_vac_tier=low Ga_coord=4 defect_vacancy pbc="T T T"
Ga 0.05951548 0.09578968 4.47251157 -0.70978080 -0.05835699 1.48966696
Ga 12.45041330 6.21558287 4.68261041 -0.41218900 0.15504425 0.98743852
Ga 0.21332331 3.18041143 4.56270469 0.45964457 -0.17293979 -1.36584231
Ga 12.31355288 3.00452304 4.65058700 -0.98355126 1.74968260 -0.23414168
Ga -1.37363441 6.12782945 10.34462133 0.51349409 -0.15385088 0.52642929
Ga 11.20957880 6.13983762 10.25909081 -0.07071113 -1.49889230 -0.54435157
Ga -1.48563792 3.02739460 10.16871141 0.25304275 -0.70305308 0.31312234
Ga 11.11215834 2.91754883 10.24673135 -0.53282751 -1.10579721 0.30977955
Ga 11.08255915 -0.07810151 1.08980731 -0.65122362 1.14257756 -1.09440502
Ga 23.51869057 0.13409537 1.15142011 -1.62180956 1.55410131 0.68331431
Ga 11.11592987 3.02499518 1.16953954 -0.03377453 -0.67833092 1.05303572
Ga 23.54147854 3.02381095 1.13589373 -0.11264761 -1.91950791 -0.98179945
Ga 9.76124737 6.14182879 6.92870635 0.11680024 0.56220824 -1.05013041
Ga 22.07093761 -0.10964605 6.87801232 1.35963853 0.59104017 0.63435678
Ga 9.70037738 3.10612164 6.77418941 -0.39652539 -0.98477729 -0.19808507
Ga 22.04638175 3.07641680 6.86413211 -0.35850669 0.74502854 -0.58393832
Ga 6.14915941 1.68884746 4.56411805 0.81743534 0.33488366 1.44843555
Ga 18.70258104 1.49397775 4.49205236 1.17978452 -0.67968155 -0.67106528
Ga 6.31637181 4.60064089 4.51252961 0.18833060 1.03859420 0.53211411
Ga 18.73250076 4.65617299 4.60675329 -1.30653450 1.47182191 0.95403858
Ga 4.78408265 1.59539124 10.32950224 -0.34188660 -0.65490673 -0.03569668
Ga 17.34659691 1.47726125 10.21038707 0.16191032 -0.66546062 -0.87848648
Ga 4.88582796 4.65702918 10.20950490 -1.30379392 0.70490855 -0.30023491
Ga 17.17059270 4.57290377 10.19107463 -0.60114260 1.28209461 0.87659939
Ga 4.79764102 1.50811205 1.13201126 0.71265922 0.92186078 1.62697595
Ga 4.90488295 4.58500516 1.12988519 -0.40098088 -0.21531932 1.37386198
Ga 17.33929171 4.64311502 1.17826762 1.25936597 0.70561623 0.49053000
Ga 3.37432048 1.59055594 6.85359496 0.25667279 -0.55534224 -1.10323998
Ga 16.00442992 1.50661931 6.86702492 -1.44277468 0.24449185 -1.16983760
Ga 3.47994940 4.60822698 6.74250567 -1.05154097 0.46827307 0.87462987
Ga 15.90425822 4.63790208 6.84467424 0.26302664 0.24804460 0.20570453
Ga 1.44567752 1.54637411 1.79805175 1.44335212 -0.69055679 -0.12032428
Ga 13.91604903 1.53732945 1.68964875 -0.04952174 -0.61189075 0.69658481
Ga 1.68062849 4.65005912 1.79523015 0.76362272 -1.51191449 0.23600054
Ga 14.10213148 4.51324782 1.70674411 0.19754602 -1.57487694 0.30904153
Ga 0.05904719 1.60708047 7.51857728 -0.20356999 -0.53933933 0.39001672
Ga 12.66323282 1.59679110 7.63538448 -1.73798972 0.23759596 0.23494197
Ga 0.18776366 4.58460992 7.37957841 1.08858961 0.10050421 1.82800658
Ga 12.56790691 4.57033093 7.49985062 0.56975469 -0.49583398 -0.91874745
Ga 9.45409001 1.65911691 3.90405026 0.62412784 -0.22691864 -0.85759192
Ga 21.97576299 1.52422220 3.85100097 0.21216701 1.35876276 -0.23060139
Ga 9.45344869 4.60853175 3.79621931 0.37412438 -0.37193091 -0.73023912
Ga 22.07074230 4.69377720 3.91992415 0.12689425 2.16992869 0.46888764
Ga 8.07076528 1.45280980 9.69917366 0.21822918 0.67427849 -1.08083902
Ga 20.67044348 1.51475107 9.67182461 -0.33676966 -0.51700781 1.26976462
Ga 8.14126976 4.58601193 9.68407363 1.03098577 0.73195806 0.14165397
Ga 20.66441835 4.69930578 9.58524627 -1.04397334 -0.12461776 -0.67710734
Ga 7.75182446 -0.05456459 1.80187311 -0.13596331 0.41502123 -0.87820202
Ga 20.22692074 0.00270301 1.77435718 0.41127613 0.05145234 -1.49871000
Ga 7.79235896 3.12311614 1.85478202 -1.35559730 -0.10522410 -0.10010113
Ga 20.21689301 3.10565048 1.75798110 0.58887824 -0.61624236 0.88629033
Ga 6.45042457 -0.00202465 7.51935572 1.71731378 -1.85547216 -0.30240750
Ga 18.91787622 0.05704976 7.43362235 -0.21620443 -0.54438166 0.66281155
Ga 6.46948033 2.98831249 7.55191128 0.72257534 1.33104923 -0.33310374
Ga 18.90301275 2.99447241 7.60341682 -0.51879050 0.36233769 1.25441610
Ga 3.21923012 0.11544591 4.00776947 0.02317114 -0.71520809 0.29764388
Ga 15.78874499 6.15746348 3.84110115 -0.39016661 -0.43052271 0.42690557
Ga 3.34554720 3.10469292 3.95445546 -1.38780971 0.11045112 0.61364424
Ga 15.64425287 3.10190332 3.87433923 0.15058673 0.49220876 -0.60354541
Ga 1.93273814 -0.04589509 9.62398521 -0.04100404 -1.67880523 0.98288212
Ga 14.30084126 6.19679764 9.57553863 0.02054318 -0.39229015 0.01838842
Ga 1.97762724 3.15933567 9.57790624 -0.99400214 0.95037399 1.61870995
Ga 14.35201013 3.05009474 9.61393031 0.28462588 -0.35678522 1.72415790
O 1.76781882 6.17885279 0.65003601 -1.17608286 -0.62340681 -0.43765253
O 14.29516178 6.13487256 0.65681758 -0.54157841 0.20661861 -0.12125598
O 1.88323205 3.15807945 0.62076337 -0.69835827 -0.78727393 1.06216550
O 14.24232406 3.10920469 0.71201318 -0.90144003 -0.24431177 -0.50185106
O 0.46246203 -0.01955071 6.31102783 0.54775354 0.08975518 1.52884789
O 12.94815072 6.17177739 6.18874569 0.56406849 0.24081721 0.10078520
O 0.57814704 3.19362451 6.32008475 1.64244679 -0.23206173 -0.72830411
O 12.89512891 3.02447012 6.26026905 1.03918350 0.87923919 -0.89968964
O 9.20104816 0.09244912 5.00284112 0.89338251 0.90298059 -1.41531462
O 21.60678967 -0.10219612 5.15203018 -0.47629082 -1.00662891 1.76487653
O 9.30638779 3.12087675 5.05258467 -0.08594290 0.57183142 0.55583088
O 21.69688877 3.07965204 5.07987292 0.05707340 -0.70742478 1.15195740
O 7.74062213 6.06212733 10.76646930 -0.05090670 -0.44205332 0.62244266
O 20.33909872 6.13218614 10.71609195 -0.16585155 -0.62172890 -0.50753064
O 7.86916022 3.08026517 10.82308911 0.16789914 -1.32218074 0.73272400
O 20.42239933 3.13852070 10.79004468 -0.34837407 -0.42558956 -0.78342020
O 8.15538989 1.59207054 0.73967325 -1.40863465 0.53213343 -0.18704419
O 20.58528071 1.57438074 0.75954516 -1.24741885 0.19174857 -1.29684641
O 8.14834636 4.75308276 0.53928932 -0.31151692 0.28241745 -1.84227075
O 20.61989996 4.63584615 0.50878714 0.88707229 -1.17878678 -0.35247763
O 6.79024805 1.46423077 6.25933887 -0.99583308 -0.64253192 0.40586398
O 19.03380651 1.61583591 6.33924712 0.89553732 0.04757412 -0.21776866
O 6.72544044 4.64858071 6.29408077 0.50619496 0.96066011 0.36591771
O 19.27296793 4.65779299 6.30331357 0.18571345 -0.10080287 0.33699811
O 2.92710085 1.60837008 5.04792192 -0.55971881 -0.67439775 -0.62886142
O 15.33038635 1.60342902 5.07737713 0.30210020 -0.26250009 -0.20126132
O 2.92576046 4.60183089 4.98003129 1.10025076 -0.68407934 -0.17122683
O 15.54666882 4.66808619 5.12011637 1.34544814 0.55842496 0.52296693
O 1.54357040 1.51503064 10.70563828 0.94982024 -0.01295803 -0.18781682
O 13.96896703 1.50666524 10.71747981 -1.05517628 0.38159839 1.04462570
O 1.60457540 4.62270150 10.86707975 -0.20135212 -0.87121908 -0.16981826
O 14.06461250 4.49622410 10.70265161 -0.11959716 0.61025491 1.10957210
O 1.28431914 6.21110116 3.23207952 -0.61390840 1.13391003 0.93153696
O 13.79905044 0.00834656 3.19461733 -0.79027990 -1.34533591 0.42399300
O 1.30623217 3.11950682 3.22509635 0.16897761 0.25229296 0.34202394
O 14.03831627 3.13170696 3.19352423 0.04894883 0.26045408 -0.80356567
O 0.03257077 -0.03475909 9.03479380 -0.47846416 -0.60905104 -0.24723364
O 12.42507427 0.10428805 8.97850371 0.70698817 -1.27779149 -0.77936494
O 0.06772995 3.16201110 9.10911142 -1.02781890 0.35955946 -0.86599020
O 12.35794147 3.01610089 9.02697952 -1.26694640 1.24560602 0.08129870
O 9.64641610 6.18301197 2.50202877 0.70636359 1.03703898 0.87216843
O 22.23449443 6.12329259 2.58633840 0.59821592 0.02656181 -0.54329415
O 9.75536495 3.05280715 2.49031233 0.33149825 -0.35919793 0.91231387
O 21.99866485 3.13905960 2.37434289 0.95685979 0.79387925 -0.47871224
O 8.41986709 -0.01400608 8.17429013 0.94260984 -0.47997469 -0.31192622
O 20.55641498 6.08678511 8.28407858 1.59374736 -0.15508685 0.03577357
O 8.28912142 3.07489860 8.10742841 0.95776578 -0.60656527 -1.15583565
O 20.84897836 3.06960215 8.25491713 -1.52497498 -0.44961838 0.95016389
O 7.55551912 1.53196937 3.20962766 -0.33645350 0.05229590 -0.34725076
O 20.05990307 1.61724072 3.24359058 0.82462747 -0.92678048 -0.18964360
O 7.73437537 4.49079790 3.20862518 -1.63974016 -0.10621292 -0.04033863
O 19.98272403 4.63874849 3.13615262 -1.04280722 0.25968191 -0.43397355
O 6.27070094 1.62907389 9.00141365 0.03152982 -0.44963932 -0.23727387
O 18.69577854 1.53144666 8.94145891 0.52763227 -0.97846761 -1.45982164
O 6.30620270 4.49842836 8.92906316 1.25525739 0.89448834 -0.73234523
O 18.64585465 4.71037584 8.77773107 -1.05790101 -1.44939686 1.29685524
O 3.47740359 1.49738283 2.53487015 -0.58100325 0.14331661 1.13264275
O 15.92758513 1.52084827 2.42746159 0.14080972 0.51837153 -0.02890193
O 3.38258785 4.65289421 2.51559435 -1.02575909 0.04685796 0.67910189
O 15.91053190 4.65260829 2.65061342 0.49163087 0.06595346 0.46422342
O 1.94723520 1.55432821 8.22503565 -0.39708108 0.94022597 0.40418204
O 14.51510070 1.53793321 8.20320077 0.97073551 0.91232034 -0.73012920
O 2.07794503 4.58335614 8.20735376 -0.74286732 -0.26107950 -0.13468388
O 14.61085284 4.64667023 8.19505398 -0.72707508 -0.15191711 0.71666066
O 12.04913360 1.55776713 1.56689033 1.18205587 -0.80296372 0.52030037
O 24.56956027 1.56295290 1.56888382 0.59915710 0.36275512 -0.81078737
O 12.00435372 4.70553299 1.46910226 -0.23911720 -0.94708354 -0.34237030
O 24.59470142 4.73640824 1.50525483 0.53400250 -1.33320831 -0.23406394
O 10.77144202 1.41350943 7.16567962 0.10248854 1.31512680 -1.32767002
O 23.00217557 1.74554105 7.23107986 0.87262551 -0.17527861 -0.44833322
O 10.50974968 4.60368743 7.29355189 -0.73161424 0.66013655 0.29208732
O 23.15417004 4.65316478 7.10335556 0.03583998 0.76651675 0.03762597
O -0.99719893 1.51474408 4.15116184 0.14082883 -0.91889583 -0.11607954
O 11.44283003 1.72375920 4.16934191 0.28571793 -1.45924251 -0.96154614
O -0.95069912 4.68574570 4.32784397 0.23848114 -0.31451658 -0.24039651
O 11.38196874 4.59571645 4.26287884 -1.13164162 1.05780894 -1.44524324
O -2.45306429 1.50891848 10.04952183 1.45003254 0.25985403 -0.34980153
O 10.18863843 1.56082206 10.00594671 0.49360143 -0.35500115 -0.62111707
O -2.41050356 4.73567409 9.95415785 0.01272122 1.37080084 -0.16028103
O 10.09354224 4.72008191 9.94735583 -0.34080535 1.52258439 -0.21550583
O 5.81359953 6.27719371 1.48865069 -0.12900988 0.29896359 -0.23639609
O 18.37146793 0.09736528 1.40000094 0.51553021 0.22648617 -1.58261193
O 5.92241769 3.20255825 1.52531114 -0.21770278 -0.93148997 -0.08065668
O 18.28707691 3.08711626 1.57247124 -1.26286438 -0.85014075 -0.72814097
O 4.36087349 6.03114614 7.18788433 0.33162758 0.67668455 0.47029858
O 16.97371195 -0.15472035 7.21851174 -0.65893305 1.03990169 0.38706583
O 4.54173689 3.13261244 7.10747945 1.65164149 0.09371477 0.65734544
O 16.97708179 3.07887965 7.27737340 0.68980482 1.07949455 -0.82869101
O 5.28799342 6.09155913 4.20668653 -0.10403631 1.47236657 -0.20485193
O 17.73557642 0.00346734 4.34299671 -0.77283349 1.46703619 -0.12200015
O 5.28849596 3.11060630 4.26383127 0.60218216 0.39176328 0.18605774
O 17.80748305 3.11652282 4.15143677 0.44587848 -0.36724051 -0.89175942
O 3.99729224 6.10223713 10.00117568 0.93530483 -0.86173938 -1.44091793
O 16.42931221 0.15676064 9.87354718 -0.23646138 1.31224965 -0.22723890
O 3.82671134 3.08042130 10.08114075 -1.07277889 -1.11205429 0.29238777
O 16.31965614 3.14183789 9.98783659 -0.32931850 0.60163485 0.49746806
159
Lattice="24.885339 0.000000 0.000000 0.000000 6.161270 0.000000 -2.776004 0.000000 11.407256" Properties=species:S:1:pos:R:3:force:R:3 Energy=-623.421348 Virial="-52.465463 1.250489 -1.956530 1.250489 -42.633872 -6.250799 -1.956530 -6.250799 -45.127416" Ga_vac_type=Ga_oct Ga_vac_tier=low Ga_coord=6 defect_vacancy pbc="T T T"
Ga 0.00921407 -0.01346952 4.58405991 0.21961007 -0.23668620 -0.29738647
Ga 12.43191401 6.16058768 4.48191409 -0.33230885 0.25706969 -0.73530868
Ga -0.03174389 3.03651228 4.51034165 0.06714878 0.82562440 0.73294222
Ga 12.47026270 3.04161707 4.44047218 -0.51599672 0.07300363 -1.15078380
Ga -1.37501498 6.16101085 10.13578900 0.15097394 1.32885192 -0.37896565
Ga 11.13049505 6.14437532 10.23955757 -0.00089957 -0.27020439 -0.02316432
Ga -1.42770127 3.10953565 10.24433648 0.75083604 -0.18542949 1.09198865
Ga 11.02520268 3.10095184 10.23181013 0.16172165 0.54362111 -0.57217849
Ga 11.07924697 -0.06327908 1.11836017 1.86427935 -0.32050988 -0.62504563
Ga 23.52244453 -0.02085317 1.16000617 -1.66477163 0.20170107 0.17705989
Ga 11.02779614 3.05908570 1.21530438 0.34282793 0.77241660 0.72644906
Ga 23.44674684 3.02181468 1.21624499 -0.10368263 -0.17333959 0.78655871
Ga 9.54000797 6.07652066 6.89554342 0.46469709 -1.07927689 -1.59357569
Ga 22.21163816 -0.05415108 6.84321466 -0.60418541 -1.29913042 -1.66381195
Ga 9.60257906 3.14139163 6.88021893 -0.92038479 -0.26196990 0.09097401
Ga 22.07037289 3.03367058 6.82551441 0.46400828 0.31865502 0.62790360
Ga 6.20918734 1.54915389 4.52659887 -1.52887919 -0.84486318 -0.67634770
Ga 18.66679540 1.53383890 4.53275610 -0.57547550 1.76498458 -0.44342563
Ga 6.22129236 4.63661737 4.54909623 -0.18829502 0.83863697 -0.97869416
Ga 18.66997110 4.68733674 4.49520462 -1.63530575 -0.45876122 0.80689693
Ga 4.81952271 1.57472875 10.25910026 -0.05901375 -0.77273865 0.54049542
Ga 17.26994027 1.53167812 10.23970281 0.37613711 0.39282412 1.07678397
Ga 4.73815710 4.60523463 10.31247336 0.36492285 0.25821070 -1.67611896
Ga 17.34853084 4.63061417 10.30878704 0.97553885 -0.03576982 -0.03165124
Ga 4.74098044 1.51586503 1.18376987 -1.24268062 0.61873856 0.04432828
Ga 17.26602900 1.59842362 1.22995347 -0.63122268 1.04624812 0.00743155
Ga 4.88582666 4.68540133 1.13973384 0.62605399 0.19299060 -0.17812690
Ga 17.25363637 4.61635493 1.17211819 0.65037540 0.69257976 0.50515627
Ga 3.41521662 1.60666893 6.85408644 -0.74680382 0.43023906 1.39638164
Ga 15.90192037 1.49328735 6.87893798 0.21890459 -0.47273958 0.90430349
Ga 3.37287762 4.65140418 6.85696975 -0.76588696 0.51436488 0.21121594
Ga 15.91943080 4.56142636 6.92813682 0.27088668 1.35719475 0.01575262
Ga 1.48804689 1.50000308 1.82435570 -0.87452774 0.37543187 0.45032894
Ga 13.89216455 1.46191548 1.72146953 0.10937119 0.47853267 1.53803041
Ga 1.53650244 4.74858789 1.82305097 -1.57416480 0.75342914 0.89286442
Ga 13.99331867 4.56903139 1.84163794 -0.56853215 -1.57545782 -0.07835699
Ga 0.18156138 1.56150826 7.49081189 -0.05074041 0.86444482 0.08906246
Ga 12.54025324 1.51453219 7.47945823 -0.86495262 -1.15321711 -0.38175739
Ga 0.13928277 4.66933045 7.49074740 0.26026697 0.36082548 -1.06552548
Ga 12.59183518 4.63789269 7.46939545 0.89748525 0.93569038 0.57459876
Ga 9.54932248 1.55894610 3.93473229 -0.22398548 -0.30333744 -0.46647304
Ga 21.93845601 1.59084805 3.88936661 0.15265432 -1.54752653 1.43482517
Ga 9.56259889 4.73598996 3.95072339 1.00776153 -0.74629540 0.46439845
Ga 21.90415204 4.62394956 3.91243258 -0.80939670 -0.58337114 0.87916744
Ga 8.04342513 1.53114854 9.57682758 1.21610828 0.66205222 -0.43971878
Ga 20.53903061 1.47844699 9.55769422 1.20934816 -0.84567745 1.73526275
Ga 20.62376652 4.61572708 9.62898996 0.78121100 -1.45830700 0.80006563
Ga 7.81894822 -0.01450951 1.74612110 -0.47091809 1.55446912 -0.08786979
Ga 20.17926478 0.00007074 1.82382518 0.00140958 -1.17779608 0.25510922
Ga 7.76827024 3.07810559 1.79389580 0.76068258 0.99001644 -0.73480010
Ga 20.12553080 3.04219338 1.84277232 -0.64051186 -1.21855534 -0.98117423
Ga 6.34946568 -0.00080764 7.44673606 0.07495101 -0.67291499 -0.38548349
Ga 18.83934436 0.02844671 7.53202847 -0.06649971 -0.17207833 -0.86141788
Ga 6.32857142 3.12896263 7.50622897 0.75758734 -0.02342644 -0.98487056
Ga 18.76697825 3.08594766 7.53179726 0.15892610 0.56956798 -1.37302486
Ga 3.25702241 0.03402226 3.81931897 1.64515826 -0.11562844 -0.30687420
Ga 15.78308337 6.18641900 3.81821110 -0.71714541 -0.29287896 0.03284556
Ga 3.34785385 3.08551518 3.95558583 0.06463507 1.25426064 0.48101173
Ga 15.72988453 3.06065411 3.95613960 -0.10019446 0.72033578 -0.90323341
Ga 1.93340915 -0.02925138 9.58313671 0.83798327 -0.45343171 -0.81605379
Ga 14.35178705 6.22461528 9.61445916 -0.03328020 0.42524290 0.08582793
Ga 1.80429729 3.14138509 9.65777650 -1.24876912 -0.28780597 0.27599845
Ga 14.35510209 3.05262732 9.66802709 0.07201777 -0.36022164 0.71873418
O 1.93430798 6.15521050 0.62986215 0.84221271 1.90478752 -0.14019604
O 14.31401061 6.10974062 0.61244359 -0.09786562 0.83792287 -0.65268802
O 1.80403390 3.07322252 0.59701768 0.11011322 0.15804859 -0.74757082
O 14.31716543 3.07703100 0.62433783 -0.28103875 -0.37028247 -0.36223908
O 0.48095562 -0.04527782 6.33385694 0.28192536 0.41624140 0.41199278
O 12.90154683 6.13238318 6.29889015 0.16115127 -0.11243772 1.11862838
O 0.52015887 3.03432060 6.38374021 0.91220901 -0.46104572 -0.28094244
O 12.88455571 3.09680213 6.34295688 -0.67377227 -0.63578693 -0.82989201
O 9.17351391 0.00623746 5.11200068 -0.85181076 0.18587963 0.70177299
O 21.63413514 0.00882904 5.12498902 1.19778310 -0.57553698 0.85715269
O 9.20759096 3.09566976 5.08036843 0.20892445 0.12616244 -1.56263847
O 21.63230859 3.01274702 5.18947454 0.42823123 -0.09526673 1.26214463
O 7.70370302 6.16657052 10.76543122 0.14010101 0.77440746 -0.94653595
O 20.20089437 6.13845385 10.77478470 -0.04520696 0.76715071 1.61649185
O 7.79149679 3.07716194 10.77954359 0.03998901 0.68740208 1.68577748
O 20.23470451 3.13417540 10.84220444 -0.85597335 -1.12762317 0.39485412
O 8.05915958 1.58490321 0.57729482 0.27463633 1.03472368 -0.14771789
O 20.41563639 1.58437899 0.62767210 1.38485589 0.56943584 -0.75958110
O 8.05822200 4.59743869 0.56739621 1.21660870 -0.58475462 0.66272589
O 20.52032932 4.60545204 0.65446230 0.07838013 0.55271569 0.73193432
O 6.70914004 1.56360424 6.30684415 -0.19742993 0.13058055 -1.05682281
O 19.19744358 1.58574237 6.33642599 -1.72827340 0.37386797 -1.54703276
O 6.75586771 4.59260972 6.39618321 -0.48579889 -1.64935128 -0.69649839
O 19.12051388 4.56619899 6.34358568 -0.02072794 -1.33937825 0.89028771
O 2.96252052 1.58301106 5.10547264 -1.49235191 -0.62717948 0.95023431
O 15.40429377 1.51801908 5.07459107 0.42543693 0.81513311 -0.42962765
O 2.94251057 4.62493177 5.13342013 0.28457574 0.31597345 0.74698822
O 15.40905301 4.61124648 5.10609394 0.36189663 -0.05794154 0.05056672
O 1.61095153 1.47722873 10.70824518 -0.70328008 0.57137638 -1.08398545
O 14.03113612 1.61740491 10.75144480 -1.45812591 -0.12034662 0.68424946
O 1.60570905 4.53669669 10.78279210 -1.03414077 1.19203727 -1.10418806
O 13.85366621 4.63572879 10.74369279 1.07736414 -0.21364097 1.18422449
O 1.34259781 6.14903605 3.22968838 0.32392540 0.17784220 -1.15189150
O 13.79138033 0.00989937 3.25120204 0.21375574 0.80858919 -1.30589248
O 1.36733902 3.12548581 3.20548721 -0.44902567 -0.45136814 -0.89146191
O 13.87405091 3.03842979 3.14382418 -0.81939280 0.23929782 0.36126747
O -0.09872155 0.07721074 8.96621498 -0.74123556 -0.27008615 0.18325991
O 12.47214351 -0.05963981 8.94744242 -0.85424713 -1.45159324 0.46353114
O -0.04446234 3.08520921 8.92878330 1.39424936 0.45389252 -1.25529628
O 12.50111131 2.95441438 8.90348032 -0.16601100 -0.30890451 -0.15515384
O 9.66430004 6.13668579 2.43933164 0.23361042 1.20288842 1.52450445
O 22.09808369 6.20429225 2.50264480 -2.19811289 0.62207972 -0.08298890
O 9.63176896 2.98651180 2.50356406 -0.48877950 0.55981082 0.85002240
O 22.21022706 3.18447422 2.50313964 0.67853260 0.22020042 1.13703136
O 8.31200227 0.07486082 8.12740678 0.77368571 -0.39573014 0.70386453
O 20.79811322 6.17667735 8.24003822 -0.17668713 0.11117563 0.10456669
O 8.35138624 3.08638804 8.17049269 0.07909888 -0.80901795 -1.04857701
O 20.70809374 3.09646369 8.23410301 -0.69417868 1.29295433 1.19366932
O 7.50310434 1.55955022 3.21084488 1.55343450 -0.29446670 -1.25848750
O 19.93542646 1.59049599 3.23652292 -0.61593367 -0.03061618 -0.76336869
O 7.62594548 4.64002863 3.30024478 1.65625189 -0.03354495 -0.82258590
O 20.01554463 4.64344183 3.18344200 1.20994820 0.15166459 -0.27606710
O 6.17705825 1.58081431 8.94635316 -0.31195467 0.27651476 -0.64215354
O 18.57705369 1.49418541 8.99254006 -0.24952718 -0.25034078 1.67520205
O 6.20340723 4.65271077 8.93461773 0.34203603 -0.53839880 0.33608221
O 18.65269345 4.68702394 8.92367681 -0.85159018 -0.96266855 -1.06348374
O 3.47437190 1.49679866 2.49221917 -0.59326251 1.40537353 -0.80579175
O 15.92868970 1.56386093 2.46357806 1.10035552 -0.01728414 -0.27341901
O 3.48425018 4.57120426 2.48741206 0.04294377 -1.37440665 0.15792919
O 15.87112440 4.53282898 2.41911685 0.17689889 -1.10460555 1.97174852
O 2.13473002 1.53752478 8.13392533 -0.57573194 1.05925322 -0.69651962
O 14.48429719 1.47721853 8.20157218 -1.48990505 -0.91487435 0.45155076
O 2.03748895 4.64037694 8.23389066 -0.51838623 0.75353643 0.95655027
O 14.46056910 4.57359906 8.11647575 0.55374131 0.18151566 0.00509393
O 12.00507421 1.45457611 1.52359505 0.28876162 -1.32532927 1.10362548
O 24.45010356 1.51779302 1.47350057 -0.12579537 -0.42879980 -0.42788861
O 12.06692330 4.69412112 1.52161546 -0.39885899 -0.07811595 -1.66434633
O 24.51253239 4.61713229 1.47761394 -0.97870094 -0.15482982 -0.97536447
O 10.61650424 1.56732030 7.13586005 0.90912457 -0.11170492 -0.23404768
O 23.13376017 1.50011452 7.09539978 0.88459132 0.10687932 -1.56062355
O 10.70400205 4.54966509 7.14956873 -0.68825403 -0.81751770 -0.01816794
O 23.09893350 4.64118837 7.19267148 0.31947618 0.59102482 0.23953054
O -0.97494107 1.45240161 4.29657393 1.39032167 0.84039230 1.07768122
O 11.43570286 1.53558652 4.34037976 0.39068005 0.05279600 -0.37471961
O -1.03223043 4.61473593 4.23208465 -1.18656869 -1.23483663 0.60760578
O 11.45233554 4.60001015 4.24799515 -0.20539512 1.96701042 0.38872581
O -2.39811555 1.52706694 9.97039220 -0.53051333 0.59197400 1.32272512
O 10.00593934 1.61327046 9.96094860 -0.37384195 -0.29334979 0.57354640
O -2.42130998 4.58576914 9.87276823 0.08618119 0.65155758 -0.03805370
O 10.04945438 4.62325401 9.94417367 -0.19665863 -0.71985674 0.76873023
O 5.88638536 6.14372851 1.46461025 0.14500538 -0.73374580 0.81860819
O 18.19007410 0.03907035 1.41433902 0.84237861 0.47514416 0.46352993
O 5.80508273 3.05110596 1.44188899 0.16195159 -0.74308296 -0.04038385
O 18.26152706 3.10814340 1.46738571 -0.20680867 -0.37032751 0.40340728
O 4.43023358 6.10159266 7.14834004 0.15034880 -2.11081266 -0.96975531
O 16.89270327 -0.06912811 7.20923856 0.53289346 -0.91626031 -0.55607604
O 4.45623124 3.03458613 7.19087221 1.52449316 -0.79915434 -0.26040712
O 16.86235883 3.07347674 7.21436499 0.22191916 -1.10292687 -1.54506143
O 5.20702960 6.15199557 4.22977552 0.36451296 0.12053015 0.20598606
O 17.66908179 0.02943998 4.26618132 -0.70807385 -0.44087564 0.34049090
O 5.17327843 3.11141701 4.26975485 -1.53397294 0.66952744 -0.23434572
O 17.65472003 3.04078982 4.20095919 1.36326740 -0.41639784 -0.51846290
O 3.87019476 6.14982643 9.94940799 -1.17953523 2.55405112 0.00883775
O 16.33529099 0.07251699 9.99900305 1.64829953 -0.43126149 0.25077059
O 3.79314074 3.06992674 9.92996271 0.48705996 -0.96606624 -0.02275231
O 16.27424479 3.03679838 9.98516448 0.34553770 -1.15049967 0.12251632
159
Lattice="24.902317 0.000000 0.000000 0.000000 6.165474 0.000000 -2.777898 0.000000 11.415039" Properties=species:S:1:pos:R:3:force:R:3 Energy=-623.534772 Virial="-54.763337 0.367803 -1.150525 0.367803 -45.298406 -4.704071 -1.150525 -4.704071 -44.166685" Ga_vac_type=Ga_oct Ga_vac_tier=low Ga_coord=6 defect_vacancy pbc="T T T"
Ga -0.01551403 -0.05440004 4.50831486 -1.72205747 -0.11374991 -0.32568649
Ga 12.37050910 6.17249931 4.54259230 -0.34142732 0.90554713 -0.70098669
Ga 0.04069048 3.04640201 4.48123504 0.33514302 -0.34878977 -0.88896338
Ga 12.41965032 3.09604566 4.63237709 -0.64723001 0.79686232 -0.37534036
Ga -1.29475554 6.11420876 10.23166405 -0.16986774 0.23366749 1.84988757
Ga 11.10699254 6.17889879 10.29235131 0.28550330 -0.03604418 0.69510783
Ga -1.35048764 3.12564604 10.19499408 -0.13333544 -1.05367706 0.27631053
Ga 11.03002852 3.02024658 10.19060830 -0.32441048 -1.28346992 0.47824784
Ga 11.01544853 0.00869040 1.26185942 -0.71151554 1.16877599 0.44834149
Ga 23.59131031 0.04734333 1.16880462 0.60233561 0.44082463 -0.24932266
Ga 11.10442071 3.09637796 1.21334572 0.51578283 -0.01384791 0.41995892
Ga 23.45559414 3.05619497 1.21870966 0.45534697 0.03064424 0.41317592
Ga 9.72576501 6.09553877 6.82266439 -0.02831597 1.24663266 -0.36074229
Ga 22.01528814 0.04662743 6.89572321 -0.73664482 -0.42860623 0.12748237
Ga 9.64066178 3.06164672 6.89357692 0.24650624 -0.85669943 0.53986062
Ga 22.08636146 3.11340175 6.87532800 0.93218876 -1.02549995 0.93817173
Ga 6.23183520 1.52824297 4.56177881 -0.20314732 -0.45626277 -0.18252058
Ga 18.77165103 1.50979182 4.54932951 -0.12611567 -0.03229389 -0.66806930
Ga 6.27928454 4.49726685 4.54607798 0.00418891 0.61523369 -0.19475066
Ga 18.67422132 4.68639146 4.49118205 -0.39031568 -0.97485097 -0.48474278
Ga 4.82399661 1.62036706 10.27946028 0.31909464 0.31855391 -0.10953118
Ga 17.30341808 1.52934777 10.28951948 1.15592737 0.30235719 0.25045722
Ga 4.85551588 4.68843968 10.36016270 1.17603145 -0.12063916 -1.01110950
Ga 17.31993665 4.58927863 10.24929744 -0.43155637 0.15908446 0.60898163
Ga 4.84511497 1.53698875 1.12364790 0.08740817 -0.31335840 -0.25307261
Ga 17.33340586 1.48177514 1.13376883 -0.75024726 -0.21431480 0.26005785
Ga 4.81939017 4.71813675 1.10152117 -0.94377575 -0.87821918 -0.11507526
Ga 17.16916582 4.66815205 1.15305267 -0.03746785 -0.84352994 -0.15575518
Ga 3.54329030 1.48183931 6.84922782 -0.77895906 0.86881499 -0.16465129
Ga 16.00341926 1.55484108 6.83652017 0.06547227 -1.44273825 0.09626470
Ga 3.43935657 4.58087755 6.95180668 -0.64340271 -0.86990086 -0.31493626
Ga 15.90909767 4.64697566 6.90115731 -0.71993791 0.87100691 0.00280107
Ga 1.53991236 1.52894994 1.86846708 -0.77456949 -0.37116770 -0.36651809
Ga 14.05242624 1.59618348 1.88354937 1.07494240 0.60999508 0.02534045
Ga 1.52003181 4.63496817 1.83656641 0.10583876 -1.17667703 -0.50503315
Ga 13.91876412 4.65225531 1.83445119 1.11154221 -0.77617023 -0.06787204
Ga 0.19446074 1.53412418 7.54093028 0.64991390 0.16083609 -2.14565999
Ga 0.12965752 4.66373873 7.47427068 -0.33834190 0.47175455 -0.34396171
Ga 12.62925224 4.71515842 7.46419692 -0.02857192 -0.21402583 -0.58353854
Ga 9.48959829 1.62290688 3.97240590 1.93596683 -0.17261347 -0.28261109
Ga 21.91180344 1.51499358 3.83681507 -0.47084781 0.83738430 0.41915963
Ga 9.52341498 4.55996349 3.92234674 1.77839221 -0.05405200 -1.01823599
Ga 21.98591875 4.62669191 3.98986927 -0.90658373 -0.30497297 0.06677775
Ga 8.10018228 1.56830800 9.68598155 -1.68883899 -0.32657938 0.16920007
Ga 20.61840152 1.51459291 9.54152410 -0.69119434 -0.66140527 -0.30348397
Ga 8.01547029 4.68443196 9.67524220 -0.15562596 0.26333200 -0.06396420
Ga 20.57789332 4.48222335 9.60431316 0.20719697 0.45456324 -0.09792275
Ga 7.78863757 -0.03104588 1.83116831 -0.22361179 -0.70754509 -0.80821246
Ga 20.22353293 0.05615012 1.83069657 0.67869751 0.03315753 1.04184792
Ga 7.71137934 3.10076886 1.79330175 0.04581823 1.23824409 0.98610823
Ga 20.20496641 3.06812117 1.78125698 0.44218726 0.59717953 1.47043202
Ga 6.35652642 0.02625401 7.47617104 0.86020753 0.83970030 0.07581192
Ga 18.85946652 0.08769524 7.52054446 -0.09974625 0.49029578 -0.46167298
Ga 6.45064824 3.07588047 7.60560010 -0.12196671 -0.65009197 -0.93795277
Ga 18.85441593 3.05637904 7.50659904 0.75604911 0.13318353 0.12927435
Ga 3.19720025 0.00342047 3.97052835 1.19820990 -0.64519131 0.45171257
Ga 15.76216313 6.13879040 3.92662076 1.36813886 0.56044291 0.02189009
Ga 3.27218168 3.09662648 3.95745245 0.26180688 -0.10975391 -0.66878956
Ga 15.70793024 3.04298725 3.90936392 0.34587332 1.00094269 1.14473562
Ga 1.90452281 0.09996523 9.60602125 0.02048016 -0.34870445 -0.54345662
Ga 14.38179755 6.15418612 9.61894604 -0.06248337 0.86595944 -0.34738009
Ga 1.87682925 3.08391642 9.65014330 -0.77287213 2.05362931 -0.33349690
Ga 14.37365968 3.09507522 9.51662977 -0.55914630 0.00044894 0.27124949
O 1.89069199 6.16526068 0.59573018 -0.83103247 -0.25223380 -0.27458972
O 14.40818780 6.16020782 0.63339942 -0.76937344 0.49503591 1.13909420
O 1.89796605 3.13743121 0.59192772 0.43553738 0.98386603 0.00363497
O 14.26000898 3.10418419 0.69356013 -0.59538573 -0.51068385 0.92792510
O 0.43347727 0.06871856 6.44118766 0.74840752 -1.03776327 -0.31253197
O 12.97055401 6.07148574 6.34313371 0.61211894 -0.58542441 0.33661590
O 0.45325406 3.04349716 6.32933639 -0.83877991 0.28302109 0.23128417
O 12.92372019 3.18502044 6.29363960 0.39489387 -0.67826598 -0.25081916
O 9.13606790 0.04909428 5.00658897 -0.22963456 0.16135531 -0.26762531
O 21.73497538 0.06749349 5.16525505 -1.00744758 1.00046850 -1.33100716
O 9.09111573 3.14104904 5.06094060 -0.85720608 -0.98636778 0.81121538
O 21.53044709 3.09030588 5.05816652 -0.06024392 -0.98279870 -0.37775907
O 7.88801362 6.17308444 10.86874796 0.34093652 0.35510721 -0.98850823
O 20.32908520 6.15598391 10.69301691 -0.57307360 -0.15103393 -0.04478722
O 7.75565670 3.12110682 10.71877544 -0.74781662 -0.16858273 0.06068591
O 20.27126580 3.17151443 10.77755105 0.69729573 1.75438671 0.96836592
O 8.03570134 1.56576521 0.65030588 -2.08758616 0.72913739 0.26300465
O 20.50498592 1.62033390 0.53214446 1.27929189 0.82516363 -0.20409465
O 8.10975528 4.58668850 0.62936925 0.51855470 0.63891196 -1.25866717
O 20.48813887 4.68747804 0.69837649 -0.19763841 0.39062141 -0.02632178
O 6.72390243 1.60404244 6.29043395 -0.33837345 -0.13838509 0.27826578
O 19.10629134 1.60240252 6.34934116 -0.89898643 0.40690508 0.49503794
O 6.64146147 4.51864216 6.30972846 -0.11770538 0.05872321 -0.37370172
O 19.14572212 4.59035644 6.25405073 0.91663748 -1.28053516 -0.13280853
O 3.01878070 1.62399861 5.07549049 0.39657216 1.02510983 -1.34263379
O 15.39919243 1.47713274 5.01112705 0.05898007 -0.05023434 -0.40329393
O 2.96698227 4.58824283 5.15294934 -0.31429862 0.44061016 0.59075981
O 15.43621458 4.67454920 5.00203959 1.03562408 -0.59179218 0.58024831
O 1.58163343 1.58258290 10.77283060 -0.41657120 -0.79057527 -0.15538560
O 14.02382871 1.58147484 10.72000949 -0.87260192 -0.64620398 -0.30672086
O 1.54945369 4.56835919 10.72544458 -0.07720989 1.08546560 0.78643517
O 13.97581317 4.55957111 10.86556541 -1.27060411 -0.25887038 1.39280386
O 1.40050217 6.12431499 3.18232719 1.02492078 -0.22194369 -0.32663054
O 13.77553034 -0.12196700 3.18592701 0.23205211 -1.06001254 0.50594867
O 1.49559959 3.18326827 3.30800220 -0.39941083 0.34345677 -0.50374421
O 13.82486825 3.06374983 3.18985330 0.70326451 -0.17920148 0.79669149
O -0.03183774 -0.07578787 8.94735617 -0.00949710 -0.91568147 0.20768077
O 12.36340137 0.06901504 9.07149355 -0.34113600 -1.31112787 -0.18578422
O 0.00777669 3.06740280 8.90515268 -1.20967488 0.53185642 1.91340503
O 12.46779485 3.05667534 9.07208170 -1.05929530 -1.27496991 0.21106758
O 9.71352908 6.22603274 2.56464566 0.82590898 -0.32693569 0.20673064
O 22.11806255 6.17923991 2.57055270 -0.68097469 1.24072809 1.70934236
O 9.71933847 3.06560142 2.40459270 1.29033799 0.83080355 -0.01573496
O 22.25121333 3.05984520 2.48035778 -0.96892134 -0.07922429 -1.02163479
O 8.26403334 -0.00870985 8.30679563 0.34533540 -0.60036081 0.32507210
O 20.70614480 6.07687020 8.25794244 -0.31018612 0.75282206 -0.75391661
O 8.27684575 3.02152504 8.29749563 0.41696724 -0.99978374 0.45354029
O 20.86846872 3.10815088 8.11633412 -0.37702669 0.37041252 -1.36220484
O 7.65287889 1.56085493 3.22233981 0.40032476 -0.25595769 0.11001003
O 20.06425377 1.53415087 3.21688590 0.02229737 1.52104366 0.76913551
O 7.64780155 4.70285925 3.24378459 0.46314466 -0.35441582 0.30692567
O 19.99503639 4.70520677 3.15865439 -0.40630167 -0.00640273 -0.91364148
O 6.31639269 1.54263002 8.94144045 0.35597495 -0.41948983 -1.14072249
O 18.72123159 1.51292774 8.93352223 -0.22855897 -0.18542056 -0.26420173
O 6.06924145 4.66838082 8.95007135 -0.92296115 -0.15511770 0.74401247
O 18.64415898 4.54051543 8.98821100 0.33739558 1.03617721 -0.74062098
O 3.47883963 1.54911977 2.51617260 -0.15421162 1.07378357 -0.34584816
O 15.86440150 1.49604466 2.51197069 0.15848842 -0.87458421 0.71827557
O 3.48357334 4.57335788 2.35013392 -0.13946685 1.75012976 0.76400259
O 15.87323576 4.54843342 2.46947244 -2.41357316 -0.20789540 -0.19113740
O 2.06102503 1.55988628 8.13435590 -0.00890892 -0.86998150 0.55450016
O 14.46536261 1.53279836 8.20026616 -0.31865377 -0.49146388 0.76211090
O 2.08035350 4.58118154 8.14995831 1.29120628 0.89339540 0.15111394
O 14.47952236 4.66995854 8.19970595 -0.41774698 -0.52177741 1.34315738
O 12.08683313 1.51478326 1.46032949 1.41768848 -0.00997888 0.25121457
O 24.42243632 1.52136995 1.48516088 1.16086010 -0.20077204 -0.03007112
O 12.12354192 4.63246904 1.47521855 -0.35038892 -0.19602226 0.34305822
O 24.52121260 4.59100939 1.37691440 -0.44039689 -0.15492816 -0.36705261
O 10.52117456 1.50248396 7.13585397 1.04514996 -0.85111744 -0.26246366
O 23.10975432 1.55195133 7.20909668 0.70337236 -0.35078880 -0.80770379
O 10.66857095 4.58841460 7.18404484 1.58621827 0.43846179 0.13311589
O 23.08860415 4.66213713 7.14732656 0.14130946 0.69647567 -0.15064177
O -0.98256049 1.48489227 4.24267517 -0.42145898 -0.23624761 1.42235991
O 11.46727420 1.51087639 4.19267766 -1.00747787 0.68202577 0.38452629
O -0.99070912 4.60236711 4.24512917 0.15153051 1.41978625 -0.52925976
O 11.42180539 4.63750336 4.18534469 -0.59181084 0.08002229 -0.71824395
O -2.41732986 1.52965444 9.96323577 -0.05347090 -1.20829491 0.49980973
O 10.09692483 1.53363887 9.89337107 0.24516036 -0.56457402 1.01695667
O -2.36562050 4.64077203 9.88885459 -0.59434883 1.67542188 -0.44392538
O 10.11750102 4.61114393 9.92478435 1.33077990 0.71272810 -0.40450692
O 5.86943069 6.19740497 1.43552483 -0.21052036 0.55650739 -1.80376432
O 18.25086319 -0.03147755 1.52027839 0.87516921 0.19940639 0.46166819
O 5.77337032 3.06445819 1.43953523 -1.59439684 -0.94361117 -1.10554473
O 18.17549077 3.05761989 1.50133666 0.31930635 -0.51878376 -0.28785589
O 4.42161973 6.11887711 7.20192259 -0.85754923 -0.73344672 -0.05958158
O 16.86667308 -0.01129615 7.14557603 0.66373787 0.66378969 -0.20813408
O 4.42863572 3.05696950 7.18749331 0.08237281 0.52131292 -0.82202231
O 16.91149484 3.02771537 7.20004070 0.46130240 0.11651975 1.33084553
O 5.25033660 6.14576703 4.20354407 0.41499009 -0.47152632 0.29608163
O 17.68569511 -0.04572357 4.23410710 1.02229223 -0.88983188 -0.41540341
O 5.17948046 3.13920214 4.25771732 0.51766746 -1.69307815 0.33302970
O 17.65057924 3.11013459 4.22947657 -0.22898268 0.48406899 0.47053555
O 3.89043207 6.12538899 9.93936751 0.04034373 -0.15934396 0.68978996
O 16.28152544 0.08290292 9.99899853 0.28013570 0.20983961 -1.24996408
O 3.79691491 3.15168288 9.82845195 -0.81579122 0.16251066 -0.11717859
O 16.27402041 3.11538962 10.01223510 0.58475189 -0.73714180 -0.69432384
159
Lattice="24.743540 0.000000 0.000000 0.000000 6.126163 0.000000 -2.760187 0.000000 11.342257" Properties=species:S:1:pos:R:3:force:R:3 Energy=-623.088648 Virial="-55.704401 -0.771042 -1.173138 -0.771042 -44.062453 -5.553755 -1.173138 -5.553755 -42.759676" Ga_vac_type=Ga_oct Ga_vac_tier=low Ga_coord=6 defect_vacancy pbc="T T T"
Ga 0.01967368 -0.17433231 4.49167349 -0.26219693 -0.08204156 -1.44681294
Ga 12.38607979 6.09213483 4.56713521 -0.17777758 -0.67918031 -0.07000829
Ga 0.06235504 3.08027285 4.52944292 1.18432014 1.17447240 -0.93091886
Ga 12.42106363 2.99081272 4.54837537 -0.06205291 0.01613174 -1.62679300
Ga -1.39118791 6.07117394 10.21952927 1.28295489 0.67726464 0.68297330
Ga 10.98654139 6.01907521 10.26348821 -1.01972865 -1.52544010 -0.22287168
Ga -1.42484542 3.08505725 10.10060561 -0.18355799 0.66055420 -1.37988887
Ga 11.04439868 3.14206887 10.23767655 -0.35844677 -0.69061596 -0.45717177
Ga 10.93492778 -0.04830865 1.22379494 -0.22403321 0.02755435 -1.33588211
Ga 23.44070014 -0.03268673 1.17587302 -0.25455989 -1.00420602 0.50839470
Ga 11.04617860 3.01983859 1.17833962 0.70025055 -0.66306096 0.45378285
Ga 23.37853306 3.08125618 1.10514700 0.12600346 -0.15762924 -0.10463958
Ga 9.55965770 6.03953412 6.81151022 -0.87193675 0.98555642 -0.27854212
Ga 21.97516486 0.01657488 6.83720666 -0.37891298 0.05155614 0.75880296
Ga 9.61104871 3.06814360 6.91502922 -0.20371016 1.14687414 0.18402033
Ga 21.89882316 2.96218223 6.85019089 0.52326572 0.21020363 -0.40680347
Ga 6.16742049 1.56725654 4.51645701 -1.46447917 0.65829731 0.27234540
Ga 18.63975810 1.52467205 4.54207394 -0.04846702 0.26369882 0.86437203
Ga 6.11443423 4.63927549 4.56354866 0.70603369 0.42953131 -0.55269123
Ga 18.52446315 4.56422514 4.41824958 0.81130091 -0.77853587 0.92861471
Ga 4.93890437 1.53117126 10.20789306 -1.25932309 1.46023721 0.21395748
Ga 17.19659520 1.56278557 10.12086377 0.00684828 0.23862080 -1.25599885
Ga 4.88524405 4.55914568 10.08663538 -1.34402618 -0.61806169 -0.11720737
Ga 17.18623119 4.50417981 10.19795670 -0.65113932 0.10868005 0.20135822
Ga 4.80831547 1.40879705 1.13090058 -0.57808069 0.55719517 -1.21653158
Ga 17.12748634 1.56649319 1.21591449 0.70370946 0.55715723 1.39063492
Ga 4.78211159 4.56603220 1.12742080 -0.72099332 -0.53723809 -0.05453345
Ga 17.20421820 4.62373625 1.11699413 0.35357848 0.52364845 -0.36618040
Ga 3.33469835 1.49976172 6.84657698 0.46331530 -0.13366846 -0.21803040
Ga 15.74969228 1.55980416 6.86283031 0.54281277 1.34802364 -0.19462890
Ga 3.36446859 4.57208128 6.92817728 -0.31101580 0.17925631 -0.31514863
Ga 15.80550523 4.64444258 6.88949029 0.98281097 0.02819092 0.34538177
Ga 1.50533314 1.54251792 1.74963755 0.34094965 -0.56192394 0.35389379
Ga 13.90422178 1.46650367 1.74618783 -0.18700291 -0.03684129 0.18906346
Ga 1.58411706 4.57163752 1.74804854 0.61756640 -0.38179537 0.20203442
Ga 13.88719618 4.53801202 1.78405082 1.38460156 -1.91456857 1.85608131
Ga 0.11445777 1.55160484 7.50221479 0.22929747 -0.12960459 0.16645872
Ga 12.44150533 1.57533957 7.49679841 -0.09432799 0.23311276 0.37067234
Ga 0.10289565 4.64126683 7.47334039 0.28251342 0.72127917 -0.30495031
Ga 12.60617080 4.61212887 7.32738512 -0.84768265 0.06468111 -0.40956484
Ga 9.45577366 1.59207780 3.98745219 0.37574758 0.51156186 0.92022665
Ga 21.89727236 1.53108232 3.90646139 0.44943090 0.29111869 -0.69866698
Ga 21.87005740 4.61284590 3.93875652 0.07419486 -0.77730266 1.08234357
Ga 8.08729772 1.50458473 9.53499799 0.24754208 0.07941124 0.03380638
Ga 20.47346331 1.54432206 9.66702751 0.03581951 -0.48306442 -0.18875213
Ga 8.16802723 4.54114606 9.57346685 -1.26797404 0.31461624 0.10094754
Ga 20.49880251 4.66081118 9.57281736 -0.13865236 -0.33056369 -1.66981760
Ga 7.71442144 0.04828204 1.72258059 -0.77035422 0.96321372 0.99645314
Ga 20.11840281 -0.00424482 1.76949073 0.39472845 -0.55191692 0.51716941
Ga 7.75543179 3.08022501 1.79474530 -0.93199807 -0.58648498 0.95916599
Ga 20.03444144 3.02611452 1.78669765 -0.15995261 -0.24723915 0.68732035
Ga 6.26503204 0.04760564 7.37737296 -2.26170284 0.43550399 1.41452855
Ga 18.67446036 0.01044502 7.40851704 1.15163830 1.13010447 -0.38004889
Ga 6.31644450 3.04769468 7.47586144 0.91655620 1.36541254 0.17349699
Ga 18.76212588 3.06864290 7.50758760 0.61210265 0.85448514 -0.35299784
Ga 3.21347425 0.01997376 3.89161711 -0.22111270 0.48629808 0.88138866
Ga 15.77289443 6.19390824 3.97088220 -0.19514318 0.28434543 0.05096258
Ga 3.22749847 3.15918192 3.84600727 0.49125932 -0.45378429 0.45275745
Ga 15.65303045 2.95171612 3.88713412 1.20295890 0.08737325 0.41917237
Ga 1.97090696 -0.10310240 9.54905517 0.42833774 0.79783395 0.37336328
Ga 14.30909511 6.11540396 9.64464592 0.54456045 -0.81176878 0.64676391
Ga 1.90722322 3.00958652 9.56872362 0.76924406 -0.15741830 -0.39435735
Ga 14.28149434 3.08696264 9.52914807 -1.15404102 0.19789326 0.44148363
O 1.77874934 6.12119082 0.54718240 -0.81914188 0.86218849 -1.53562563
O 14.30060166 6.07673310 0.60693708 -1.28141592 1.61960886 -0.40404332
O 1.82848297 3.11290942 0.69162498 0.20355596 1.57164043 1.26069254
O 14.22417929 3.00648635 0.61634714 0.68307840 0.40440421 -0.49539011
O 0.46455767 -0.01216370 6.25139035 0.97980857 -0.75279055 -0.18174189
O 12.77102838 6.13346699 6.31193159 -0.13515377 -1.02874304 -0.34416092
O 0.48657150 3.05941023 6.27589682 0.63616553 -0.82104370 -1.16284857
O 12.89694286 3.13130047 6.31059949 0.34728419 0.08835463 -1.10213358
O 9.12373409 -0.01742145 5.11045202 0.29545988 -0.71937284 -1.34996259
O 21.55251049 -0.12619294 5.06152796 -0.42693697 -0.99496570 -0.46073699
O 9.07785879 3.05662055 5.17308767 -0.31268586 -0.25107056 0.67167931
O 21.47339056 3.17462749 5.09607190 0.60665795 0.85922340 0.92070661
O 7.89424809 6.09572545 10.66290859 0.38260235 -0.14933978 -0.42741542
O 20.05780136 6.10001895 10.75184691 -1.47378768 1.03156369 -0.91893248
O 7.81070837 3.04239385 10.69587249 1.21541676 -0.64917927 0.52891461
O 20.13934034 2.99067226 10.72149256 1.38741908 0.84433161 1.16959548
O 8.07307318 1.48608706 0.56304935 0.43693857 0.98764263 0.29608373
O 20.49703414 1.59862439 0.62797043 -0.50859196 0.96207366 0.23061746
O 8.11943349 4.55658149 0.61603381 -0.52747756 -0.50073585 -0.19966158
O 20.38886011 4.58920272 0.65573422 -0.84834951 -3.08188183 -0.61503978
O 6.56987431 1.50284868 6.25605635 0.02099374 -1.27911483 -0.09057074
O 19.05220600 1.52137373 6.27014267 0.87058729 -0.96838871 0.42340059
O 6.63238541 4.60358680 6.38683363 -0.42287570 0.81857892 -0.78893830
O 19.17354094 4.50460463 6.32596645 0.69013901 0.22134175 1.41517529
O 2.91897201 1.46891146 4.95459852 -0.42863644 1.34170064 -0.99186644
O 15.34710766 1.66136291 5.06005472 0.78136790 -0.09337979 -0.26535422
O 2.95490547 4.60804060 5.11633662 -0.06687878 0.78361256 0.99805661
O 15.40222894 4.57362130 5.03722253 1.49322642 -0.13829794 -0.24008210
O 1.65286271 1.53183702 10.73084915 -0.89386009 0.15693814 0.26673174
O 13.92589898 1.57781637 10.70538106 -0.39277580 0.79541247 -0.81557990
O 1.49604633 4.55689082 10.70623778 -0.45793292 -0.66398779 -1.03425070
O 14.00925373 4.64014907 10.64892815 0.02427538 0.17872172 -0.88261722
O 1.50335566 6.14850963 3.15617555 1.49921448 0.79767355 0.01819770
O 13.71469368 -0.01679022 3.17368701 0.48844517 -0.76835072 1.94022483
O 1.42922650 3.04100157 3.22494887 0.14333822 -1.08705804 -0.87394659
O 13.74935506 3.08350364 3.17300576 -0.61427870 -1.06581939 0.42527121
O -0.05983965 0.03403134 8.95786807 -1.54588395 0.78618802 0.59427043
O 12.35010621 0.03218573 8.84817739 0.82003737 0.24212736 0.99889643
O 0.00406440 3.01820753 8.87900836 -0.34783417 -1.14972341 -0.01952816
O 12.33757639 3.04734784 8.86665032 0.48023574 -0.27044566 -0.21884926
O 9.55490656 6.14808058 2.45560972 -0.26505233 0.19938409 -0.21951189
O 22.00598370 6.11357504 2.43218395 -0.02076730 0.47708734 0.05685740
O 9.65315466 2.99729054 2.47073457 0.28348570 0.92730723 0.08063659
O 21.99019143 3.10831082 2.39974464 -0.10553460 1.48559543 -0.79087816
O 8.20753508 -0.00859215 8.10595888 -1.73801045 -1.88692714 -0.37318959
O 20.61086987 6.13407788 8.13559876 0.75299684 1.12070496 -1.06043826
O 8.24025309 3.14644726 8.06668779 0.02932185 -1.00311464 -0.07906980
O 20.64540611 3.14565465 8.18389273 1.10563494 0.30552227 2.80455356
O 7.50058096 1.53667807 3.16965748 0.90735494 0.29876574 -0.65617811
O 19.86544871 1.49349709 3.17344010 0.14236409 -0.30069412 -1.36861548
O 7.59152653 4.64751794 3.20934341 -1.06716226 -0.70349374 -1.23809032
O 19.86344239 4.67235643 3.18863156 0.26257563 0.54045022 -0.73781148
O 6.23154326 1.48279832 8.92435192 -1.22051898 0.03955770 0.64395651
O 18.65529044 1.54786201 8.84975632 1.47793067 -0.80925914 0.08290257
O 6.21723450 4.52624086 8.93187115 -0.54372409 0.27038717 -0.26245172
O 18.55891337 4.66288697 8.83586557 -1.30379798 1.02901910 0.33644270
O 3.44256649 1.52155100 2.38925313 1.10050791 -0.75661679 -0.13726956
O 15.81335821 1.55846157 2.45404877 -0.78025070 -0.24811315 0.13873624
O 3.30575355 4.64156479 2.38825331 1.42062056 -0.17564443 0.14587265
O 15.89964231 4.58828656 2.51117361 0.46413873 -0.80641473 -0.47179023
O 2.09363137 1.51950480 8.08052425 1.05327370 0.23784349 0.47700779
O 14.57089914 1.48619988 8.13338429 0.66539108 -1.70373066 0.19332362
O 2.06421616 4.59450033 8.13724992 -0.00922521 -1.17313511 0.85472692
O 14.38842109 4.55775094 8.09521812 -0.06586046 0.71740920 -1.13083854
O 11.91961605 1.55810544 1.54942628 -0.90525830 1.53214875 -0.19042690
O 24.43727576 1.60380316 1.40374707 0.20052095 0.56727001 -0.42316292
O 12.00027870 4.50691178 1.35333624 0.55581805 -0.81363104 0.80921331
O 24.24809786 4.58001274 1.42010844 -0.71701686 0.11817724 -0.00547178
O 10.50989544 1.49315711 7.14557739 1.49084037 -1.04906326 -0.87139640
O 22.91123766 1.39954881 7.05136092 -0.37864103 0.61005782 0.12892768
O 10.62728733 4.58594238 7.17717472 0.67398834 -0.42481549 -0.20912635
O 22.92741153 4.47979325 7.15034717 -0.28668603 -0.22354091 0.61453089
O -0.87495724 1.54729966 4.20700622 -0.40858317 -0.24643650 0.29290642
O 11.42431387 1.50443946 4.17245005 0.53270847 -0.93349363 0.19546637
O -0.97547583 4.52978093 4.27832549 -0.07675338 -0.34473445 1.43076851
O 11.51279679 4.54682361 4.26256236 -0.82402747 -1.31000853 0.09065714
O -2.35285530 1.55600506 9.90116419 0.36557479 -1.09918396 0.69938686
O 9.99426883 1.44889353 9.83777673 -0.08361762 -0.92225480 0.30323977
O -2.39995902 4.58179003 9.82490400 -2.04236508 0.68303431 -0.44033525
O 10.06209864 4.61632960 9.84342089 -0.31617093 0.47519293 -1.33711372
O 5.86429887 6.12272179 1.41965093 1.08114919 0.11762318 -0.34429810
O 18.18980280 -0.05352494 1.51840161 -0.45502338 -1.48335767 0.24963450
O 5.78727185 3.10841326 1.44555937 -0.48146375 0.41332306 -0.64761756
O 18.23820363 3.03115054 1.46815478 -0.04961071 -0.69535376 0.27999701
O 4.43835488 6.23598599 7.08845187 -1.34220577 0.26037899 -0.03064944
O 16.78354070 -0.01439778 7.20556584 -0.03826162 -0.19368237 0.13066823
O 4.37910783 3.07129557 7.16765479 -0.00153700 1.61018635 0.87763725
O 16.79638189 3.16013512 7.14647623 -0.80798589 0.23969329 1.28622496
O 5.16491400 6.15665135 4.23625703 -0.14613214 0.41699975 0.22580648
O 17.50791477 0.04646050 4.17978591 -0.43762214 -0.16517046 -0.89429645
O 5.21424522 2.97797254 4.23215567 0.00458373 0.03806644 -0.41976492
O 17.54332067 3.05265493 4.26562751 -0.59827893 -0.81482206 0.24763024
O 3.93191543 6.11382510 9.89361754 0.03464391 0.61168875 -1.02433978
O 16.22686444 0.09520208 9.85339982 1.90327721 -0.52063713 1.05209382
O 3.83714191 3.02005886 9.86851140 -1.32073581 0.92161642 -0.42197376
O 16.16423396 3.05880777 9.86720800 -0.98444169 -0.20379346 1.17330867
159
Lattice="25.092181 0.000000 0.000000 0.000000 6.212482 0.000000 -2.799078 0.000000 11.502071" Properties=species:S:1:pos:R:3:force:R:3 Energy=-623.021638 Virial="-52.725987 -2.582666 -1.997703 -2.582666 -45.649826 -4.547678 -1.997703 -4.547678 -43.754359" Ga_vac_type=Ga_oct Ga_vac_tier=low Ga_coord=6 defect_vacancy pbc="T T T"
Ga 0.02551929 -0.03890959 4.55570420 -0.78132256 0.45445144 0.63352481
Ga 12.52221407 6.18867855 4.44223932 0.69365568 0.53494004 -0.09981617
Ga 0.07377980 3.08924648 4.59366440 -0.79620520 0.69491270 0.47946557
Ga 12.52750519 3.01136198 4.57596353 -0.37533208 -0.03791076 -0.52562874
Ga -1.40296612 6.18853455 10.26823925 0.50593880 0.16892086 -0.69560015
Ga 11.21329242 6.24526711 10.22528506 -0.21603334 0.16460583 -0.55177797
Ga -1.31264616 2.98663860 10.20959155 1.62976567 -0.86600348 1.67851984
Ga 11.14296839 3.11423741 10.35748073 -0.15900652 0.70505423 0.42433131
Ga 11.05656923 0.03276143 1.21010939 -0.37095769 -0.50934240 -0.17210683
Ga 23.70696669 0.10799430 1.20795790 -0.27316510 0.91377584 -0.15644711
Ga 11.08585790 3.04704179 1.22685443 -1.56380143 0.45835869 0.11587068
Ga 23.61251210 3.04831003 1.16404687 0.18789608 0.18718830 -0.79474289
Ga 9.78072406 6.21527510 6.90366764 -0.09014014 -1.85866000 0.35725510
Ga 22.33646681 0.02919902 6.96638020 1.06286761 0.04623176 0.62522915
Ga 9.77795120 3.06321588 6.92760329 0.43772966 1.13921335 -0.43346976
Ga 22.24976832 3.17555272 6.88480508 -0.42371297 0.05056204 1.64893023
Ga 6.23755173 1.54348337 4.58365134 -0.38889884 -0.57122535 -0.60898489
Ga 18.83635757 1.57118738 4.53543437 1.43284934 -0.20589383 0.28727512
Ga 6.23637416 4.62788283 4.55366849 0.18621605 0.34710266 -1.11789873
Ga 18.78844759 4.70067348 4.52229595 -1.27076277 -1.30765859 0.05441499
Ga 4.86254314 1.63201081 10.32360801 0.34043612 -0.01844396 -0.48760791
Ga 17.43819718 1.61176688 10.41271417 -1.09521283 0.68551687 -1.37047881
Ga 4.89055294 4.61221955 10.21214263 -0.04472615 0.82504217 -1.30028361
Ga 17.47497176 4.60512665 10.34090104 0.17163862 -0.10923334 -0.02667868
Ga 4.91718790 1.49796980 1.20667456 -0.45315689 -1.39006980 0.78967151
Ga 17.41732094 1.52993379 1.05740913 0.62901977 -0.65025029 1.51301134
Ga 4.78612499 4.61977606 1.26411904 -0.58889610 -0.76566053 -0.19809154
Ga 17.39379996 4.71549092 1.13562402 0.13923073 -0.25063504 -0.75512409
Ga 3.52930245 1.64041891 7.02561712 -0.23858483 -1.19038492 -0.10681450
Ga 16.09203587 1.46594669 6.91664233 0.00235197 0.25642800 -0.57692867
Ga 3.38329330 4.61808115 7.03365420 -0.56617520 0.59583891 1.45593573
Ga 15.99943558 4.59842145 6.92314967 -0.03802428 -1.13183556 0.20306195
Ga 1.56127360 1.65736169 1.70353486 0.03698567 1.16032294 -0.30025613
Ga 14.18397252 1.56597932 1.87346811 1.41561868 -0.46533616 -0.14008744
Ga 1.41687424 4.67438742 1.83126136 1.14416324 -0.10291895 -0.55699091
Ga 14.06770924 4.58651809 1.77292953 0.92520321 1.34258987 -0.74676949
Ga 0.20347490 1.42729272 7.41740564 -0.50837284 1.14170329 0.82155609
Ga 12.58515972 1.51353476 7.64487667 -0.31750807 -0.25230159 -1.07385346
Ga 0.04529039 4.76363220 7.61381171 0.11870674 -0.05201984 -0.41907651
Ga 12.68723744 4.54608382 7.58836876 0.25640385 -1.91166401 -1.32872621
Ga 9.61542040 1.62297706 3.92933174 -0.18045403 -0.55744169 0.06836587
Ga 22.19214409 1.45972377 3.89376710 -0.49080012 -0.02547093 0.79560136
Ga 9.60665695 4.62240078 4.07797281 -0.53633314 0.44341898 0.29261776
Ga 22.23910205 4.65982483 4.02066247 0.37383289 0.19079538 0.95635589
Ga 8.09797468 1.55914935 9.63937517 -0.18515149 -1.20885530 0.60423432
Ga 20.79042589 1.52332559 9.68717802 0.48409660 -0.05838312 1.04451274
Ga 8.32479314 4.66289697 9.70533554 0.03659443 0.33146071 -0.73520032
Ga 20.78367558 4.65198367 9.51528085 -0.24746651 0.90587962 -0.28635080
Ga 7.91250704 -0.01805011 1.85337979 0.82511644 -0.38997301 0.01775550
Ga 20.31643030 -0.06877745 1.80933280 -0.31388370 1.16463802 -0.31461042
Ga 7.84092323 3.21774803 1.75465926 -0.95239905 -1.03189021 0.01665122
Ga 20.24866621 3.11634502 1.87279424 0.20771753 0.19129864 0.58828040
Ga 6.49749109 -0.03862046 7.56694443 0.17096372 0.02668989 -0.26511774
Ga 18.87013655 -0.04954537 7.44036174 -0.17079855 -0.45497743 -0.11380733
Ga 19.01278397 3.07214338 7.49999397 0.60685055 0.61983764 0.31635746
Ga 3.36859306 -0.03603579 3.87107051 1.20140329 0.15308988 0.91028631
Ga 15.89867530 6.14795976 3.89243517 -0.74285665 -0.99055299 -0.08870110
Ga 3.40617559 3.15620921 3.94778957 -0.77030230 1.12906346 0.65787505
Ga 15.89034810 3.11711026 3.94624069 -0.16839946 -0.87452413 -1.77158946
Ga 1.85221526 -0.00795247 9.63375917 0.71053469 0.85656674 0.93543081
Ga 14.56036582 6.13129951 9.63601416 0.58491192 0.12444197 -0.75218846
Ga 1.93174791 3.13758519 9.65203449 0.93548780 -1.19990055 -0.03432624
Ga 14.59371432 2.94455528 9.61589751 0.23480251 -0.29698847 -0.90519387
O 1.88396875 6.26821401 0.71529335 -0.62319934 -0.31743223 0.56051278
O 14.45248505 6.17479654 0.60558328 0.21116602 1.21691557 0.95556217
O 1.85324258 3.23961657 0.69361343 -0.66991947 -0.06992868 0.89452999
O 14.37366810 3.11659342 0.67186015 0.15695953 1.42488183 0.41227300
O 0.58021153 -0.02027038 6.46922548 0.92759470 0.10521385 0.74613534
O 12.95949051 6.27616751 6.38292790 0.94818826 -0.98484706 -0.15539393
O 0.59614823 3.06868151 6.43898671 0.33814531 -0.53779534 0.09214199
O 12.97032610 3.19473038 6.52629555 0.21474121 -0.23945906 -0.00302625
O 9.22836079 0.02257717 5.15070018 -0.31330144 0.68637242 0.09876634
O 21.76940995 -0.07684230 5.12301032 -0.38108427 -1.18695454 1.34591893
O 9.25416500 3.09136989 5.12765631 2.90155317 -0.60859886 0.18289324
O 21.84916589 3.05264040 5.12687771 -0.25892324 1.05809607 -1.05463539
O 7.88604590 6.20278024 10.95283189 -0.49297397 -1.08072836 -0.14846260
O 20.45998596 6.17937613 11.00915031 -0.57740704 -0.15162814 0.87693298
O 7.78769607 3.02656307 10.95467918 -0.32928621 0.56778095 0.86562551
O 20.38142411 2.97044139 10.79486686 -0.55913765 1.38246917 -0.25524513
O 8.24101514 1.50165417 0.58841350 0.55363657 -0.12384886 -1.37010691
O 20.68620389 1.50933703 0.50250254 -0.13233410 0.75843207 -0.10908054
O 8.12780362 4.65495152 0.66402736 -0.06053043 -0.00640748 -0.26657185
O 20.67722021 4.55527152 0.71055974 -1.74452174 2.15461983 0.36642833
O 6.78060744 1.52610028 6.38368625 1.25518052 -0.21161262 -0.49182469
O 19.27824951 1.60516176 6.35692825 0.84844203 1.99481424 -1.31545787
O 6.78569686 4.73404552 6.42482474 -0.21144799 -0.35606557 1.28586832
O 19.30955520 4.60283663 6.33776422 -1.56800192 -0.46878086 -0.75507783
O 2.90578129 1.51025348 5.17386246 0.09930385 0.32201558 1.81907370
O 15.55066291 1.59881163 5.15763567 -0.28552855 -0.24436278 -0.65718156
O 3.02636391 4.62016279 5.16445439 -0.77546566 0.67172579 0.34082070
O 15.56319418 4.69568265 5.04744125 2.13524603 -0.16059619 0.77985861
O 1.56726348 1.63845054 10.84462076 -0.81839156 -0.32852057 0.16480799
O 14.12801705 1.56604312 10.88794460 -0.35033156 -0.10482533 -1.20096214
O 1.51217787 4.58884894 10.91876798 -0.48009681 -0.50219210 0.55896836
O 14.18146579 4.64202863 10.93781927 -0.72821348 0.32808049 -1.03151679
O 1.38985997 6.22198785 3.31045053 -0.48733471 -0.14078663 0.40340952
O 13.76475131 -0.05560911 3.36424564 -0.29988235 0.25936511 0.48830389
O 1.39461260 3.14772805 3.20269384 -1.06733441 1.31685323 -0.17725089
O 14.03712024 3.03941362 3.22183577 0.33529937 0.39174208 -0.91767914
O 0.01956887 0.03877975 8.97964674 0.70853824 0.28774703 -1.23232407
O 12.54929290 0.07355958 9.02694745 -1.46382842 0.64155359 -0.19671051
O 0.03951265 3.13110146 8.96134250 -1.02515559 0.40918766 -0.07064809
O 12.63133992 3.06805503 9.08538455 -0.28069739 0.66530369 0.69578170
O 9.72447160 6.19261903 2.47478750 -0.78371544 0.56424277 0.74133161
O 22.25244061 6.26427657 2.51279505 0.36652431 -0.32518996 0.24892337
O 9.67707969 3.12346270 2.57987098 -1.21167478 -1.18391659 -0.90213750
O 22.22162780 3.07690107 2.48397129 -0.78517110 -0.33804521 0.09226143
O 8.29968402 0.00379272 8.18323431 -0.48685516 -0.38010783 -1.28044576
O 20.84279017 6.03548200 8.30072908 0.28905059 -0.15537602 -0.26580175
O 8.25299901 3.15082758 8.23559114 -0.17445290 0.73102703 -0.31992150
O 20.90492676 3.02577047 8.20961027 -0.00233201 0.17622847 -1.07758141
O 7.61249132 1.51950424 3.36805795 1.10927314 0.39072908 0.52571298
O 20.24580111 1.60231166 3.26466864 -0.10635907 -0.18715457 0.86973889
O 7.67148666 4.51347721 3.22397226 -0.13554311 -0.63932141 0.83664240
O 20.22402913 4.58612859 3.26973953 0.11521444 1.36178047 1.13627957
O 6.25171249 1.65949153 9.13937366 0.14494376 -0.03465587 0.59692608
O 18.75255384 1.43519194 8.97025083 1.29333913 -1.29536356 0.39222086
O 6.31235427 4.59175178 8.93302470 0.46638918 -0.38255905 -1.49515999
O 18.86890902 4.84209583 9.03517378 0.04073780 -0.62702432 1.80549898
O 3.41423050 1.60563735 2.51230465 -1.72741930 -0.15127178 0.00364293
O 16.05908215 1.51890275 2.45637833 -0.32224277 0.79481810 -1.39957614
O 3.31358780 4.68247702 2.50713340 1.32591341 -0.61356151 0.29087300
O 16.12530623 4.56750112 2.50440994 0.87194687 -0.63241441 -0.04827667
O 1.91640851 1.55314194 8.15844357 0.05980189 -0.47757103 0.09289071
O 14.66828191 1.54491794 8.32686919 -0.68674039 -0.80111618 -0.79674671
O 2.06555338 4.74001047 8.20715575 1.61223683 -0.48102979 1.59740124
O 14.64374891 4.55749294 8.11092691 0.09453075 0.62077206 0.16752967
O 12.15052790 1.56037220 1.59182528 -1.05109380 0.60596129 0.45093272
O 24.62138624 1.43618447 1.57076106 -1.83670141 -0.36844459 -0.51377070
O 12.27578518 4.81017576 1.53306507 -0.55898395 0.61570738 -0.15198498
O 24.68835032 4.56376951 1.50037683 0.36703400 0.02270728 0.59781988
O 10.64918906 1.47469288 7.27481779 0.04986263 -1.63033588 -0.12798321
O 23.28051287 1.45400884 7.27654231 0.34138974 0.67694489 -0.06778596
O 10.71948202 4.73334576 7.25260818 0.88271317 -1.03181186 0.56641373
O 23.39148619 4.68138758 7.24707159 0.05670629 0.86047298 -0.08980261
O -0.97863635 1.53098692 4.17532471 -0.03156914 -0.83549956 0.09860419
O 11.54450618 1.46104004 4.30017502 -0.92999510 -0.23568378 -0.70566337
O -0.97947709 4.57894845 4.22681047 1.07576020 0.21210017 0.35249515
O 11.67810917 4.70773042 4.20997432 0.43586974 0.37614898 0.74014958
O -2.32289410 1.54098162 9.98336450 0.84745427 1.91378350 -0.90338755
O 10.06639789 1.52354243 10.09697321 -0.06125063 -1.10194545 -0.98177869
O -2.37664121 4.60523665 10.05901471 0.71117432 2.12068164 0.36121516
O 10.14908155 4.67603590 10.00715618 -1.16763128 0.76703646 -0.43894992
O 5.90607748 6.29126530 1.59785231 -1.16401256 -1.54409489 0.11474017
O 18.48013062 0.04070390 1.31245105 0.71024974 -1.38480446 0.15946137
O 5.88324813 3.07920897 1.53690439 -0.64919843 0.15662849 -0.64601073
O 18.36064526 3.10128130 1.39964912 0.70573192 1.07066562 0.18144868
O 4.42823062 6.10043605 7.25801401 1.39964567 -0.54467272 0.12722443
O 17.14183751 -0.08862077 7.30686249 0.47185391 -0.87069875 0.09921663
O 4.40964764 2.98711742 7.09644046 0.65952480 -0.70219363 0.24263885
O 17.00788482 3.10569763 7.22573473 -0.20898211 1.23703575 0.25504128
O 5.41930246 6.24204216 4.25267624 1.25271753 -0.12298862 0.54592378
O 17.79745308 0.01228338 4.25685043 0.50368724 0.15954003 -0.12160789
O 5.32273507 3.11767301 4.25431571 0.04450914 -0.28082452 -0.11421713
O 17.77614764 3.08431881 4.34271814 -1.76062965 -0.63515084 -0.18582773
O 3.92327935 6.21936876 10.04637720 0.03220215 0.52646612 -0.03425491
O 16.42780036 0.13211218 9.96625022 -1.01833805 -0.11076494 -0.67791271
O 3.90681691 3.23670202 10.07580070 0.44501432 -0.99846153 -1.04475297
O 16.55371088 3.05129677 9.98278638 0.05807468 -0.94875683 -0.90636914
159
Lattice="24.722525 0.000000 0.000000 0.000000 6.120960 0.000000 -2.757842 0.000000 11.332624" Properties=species:S:1:pos:R:3:force:R:3 Energy=-621.559100 Virial="-56.597492 0.136276 -0.936421 0.136276 -50.703137 -6.044606 -0.936421 -6.044606 -44.024588" Ga_vac_type=Ga_tetra Ga_vac_tier=low Ga_coord=4 defect_vacancy pbc="T T T"
Ga 0.06738121 -0.12066945 4.54553073 1.48094713 0.59706657 0.71149077
Ga 12.43177026 6.12910811 4.59551354 0.01966937 0.13763292 1.01766590
Ga -0.06560966 3.10543904 4.41595248 -0.52456144 -1.62775613 -0.14582913
Ga 12.42232861 3.07812046 4.56725109 -0.25225505 -0.47954914 0.55009941
Ga -1.36747682 6.03286676 10.13105204 0.29909157 0.28817778 -0.42511986
Ga 11.04535156 6.14022140 10.18833471 -0.58086863 -0.47087490 0.20218029
Ga -1.36364760 3.15254615 10.16373839 1.60775501 -0.08509776 0.98424068
Ga 10.95427457 3.03578927 9.99727658 1.28544842 -1.78749157 -0.74908938
Ga 10.94740849 -0.00715577 1.10301686 -0.40820139 -0.23191569 0.18753352
Ga 23.36221405 0.02545397 1.16977667 0.24538109 -1.21854524 -1.59698044
Ga 11.01386015 3.05758149 1.20237330 1.27135599 -0.21625216 -0.56991369
Ga 23.37569822 3.09506181 1.17104216 -0.35115036 0.86072313 1.03790739
Ga 9.58255634 6.18659650 6.85099626 1.03660563 0.75409262 0.02830830
Ga 21.91793310 -0.02570625 6.87402943 -0.42093513 -0.07113908 -0.82212456
Ga 9.67553415 3.06975575 6.83897151 -0.05346763 1.31462731 0.65723399
Ga 21.95861063 3.02576799 6.86568233 -0.87776061 0.85429086 0.55683073
Ga 6.16997534 1.53728053 4.55697851 -0.10831911 0.31524556 -1.54375753
Ga 18.58835756 1.66584373 4.56071344 -0.46287760 -0.43458689 0.72756932
Ga 6.20419709 4.45762370 4.50814888 -0.65689055 -0.74025500 -0.60622180
Ga 18.47466137 4.61833847 4.55982413 -1.77603653 0.41056312 -0.05218607
Ga 4.78037002 1.46350321 10.23202842 -1.14269999 1.04589230 -0.78040091
Ga 17.25863259 1.56009563 10.10229109 -0.74890584 -1.43991527 1.46758273
Ga 4.87947131 4.61778537 10.19038625 -1.06968543 -0.63554886 0.18693105
Ga 17.22421083 4.56606270 10.18876196 0.92131228 -0.42830459 -0.21926245
Ga 4.85764120 1.60527571 1.27386281 1.60692347 -0.93439356 0.87905198
Ga 17.22413078 1.55278959 1.16002344 -0.54858452 -0.59121236 2.06526207
Ga 4.74521780 4.59102499 1.21508032 -0.49964796 -0.56611897 0.29408581
Ga 17.12491970 4.62848050 1.15797030 1.02179939 0.93579256 -1.48589044
Ga 15.79263735 1.55766492 6.75891030 1.49770113 2.15180447 -0.35048870
Ga 3.37959855 4.67550497 6.79768418 -0.76509383 -0.31393525 1.89787797
Ga 15.75451490 4.56547862 6.78291158 -1.33314743 -0.55164849 -0.41716455
Ga 1.59410718 1.45624247 1.75151010 -0.06165718 0.88626311 0.21456866
Ga 13.92364767 1.47325855 1.79646260 0.76553265 -0.03167231 0.87869138
Ga 1.56650786 4.55786702 1.76588688 -1.30775213 -0.19835080 1.20590786
Ga 13.88228853 4.57687975 1.74815167 1.14893680 -0.09034513 1.02760750
Ga 0.09080118 1.44577199 7.46075504 0.58851971 0.15346755 0.47295623
Ga 12.49219074 1.56023066 7.50686135 -0.26021905 -0.01500524 0.64223084
Ga 0.13827583 4.53956887 7.38425718 0.31083071 -1.45495934 0.85591799
Ga 12.54202850 4.59522430 7.45366104 0.10851789 -0.11921222 -1.50015288
Ga 9.37693119 1.44383752 3.92122434 0.35160712 -0.08076674 -0.92299045
Ga 21.79876349 1.54657355 3.89642052 -0.88199789 1.14411107 0.46088971
Ga 9.43640875 4.64346181 3.90722663 -2.29681062 -0.99644612 -0.33887987
Ga 21.84129588 4.65891320 3.94006501 0.98621527 0.16701507 -1.20585325
Ga 8.08293673 1.59083426 9.54690790 1.07488124 -0.39874877 -0.27233460
Ga 20.47508583 1.46878937 9.56977130 0.45502853 0.76022838 0.50292586
Ga 8.08435367 4.53122765 9.51754719 0.64462582 -0.85432387 0.61419568
Ga 20.50775097 4.58992168 9.58854042 -1.93552106 -0.54802249 0.73915194
Ga 7.63951571 -0.06995150 1.71099163 0.75077083 -0.19390055 -0.26576872
Ga 20.09359623 -0.05174486 1.70039881 -0.00742965 -1.50194691 -0.02589464
Ga 7.74806972 3.01405144 1.72307093 1.77492013 0.83802106 -0.22579143
Ga 20.05569197 2.99407819 1.79980948 -0.53748276 0.58801291 -0.16614237
Ga 6.30845704 -0.05792817 7.49428567 0.34656753 -0.82145141 -0.03970776
Ga 18.70585342 0.06595272 7.55642342 -0.55556156 0.09205695 -0.22393249
Ga 6.27491192 3.09776867 7.45431643 -0.48675717 0.43047275 0.45210408
Ga 18.71198829 3.08314660 7.40221543 0.50864387 -0.41426958 -0.98281852
Ga 3.15631790 0.07415052 4.00520846 -0.70429656 -0.21385872 0.45032270
Ga 15.67311346 6.09036543 3.92029533 0.17431278 0.18767965 0.11187344
Ga 3.16976063 3.04756389 3.90561612 0.41358150 0.46482017 -0.21257274
Ga 15.65025815 3.06628588 3.99279387 0.39603246 -0.39987555 -1.26185395
Ga 1.88793266 0.07300966 9.53777315 -0.97755518 1.52779173 0.09437938
Ga 14.26683285 6.13447005 9.59606266 -0.58129646 -0.82004627 0.15773307
Ga 1.83088345 3.08078340 9.40578047 -0.12213924 0.50334106 -0.36775673
Ga 14.28016712 3.12912701 9.52744278 0.59766776 0.03419491 -0.76554123
O 1.89430337 6.11334029 0.63279823 0.20245512 -1.67533536 0.81672979
O 14.16217408 6.10038483 0.50157739 0.40570644 -0.56633019 -0.03823915
O 1.88579258 3.14148296 0.63384401 0.03032998 -0.38030253 0.36039668
O 14.25493580 3.09001502 0.60548892 0.32107152 0.41830213 -0.17486843
O 0.46456644 -0.05743198 6.38141428 -0.33411074 -0.32937314 -0.15151076
O 12.86473605 6.06039713 6.25065465 -0.58430565 -0.09223908 0.23997367
O 0.48308461 3.08994263 6.22041452 -0.15971362 -0.40205526 1.14602143
O 12.85600603 3.04424785 6.32652592 -0.30007607 0.68231980 0.21412017
O 9.09101459 0.01443087 5.06712298 1.82720071 -0.20550193 0.00840743
O 21.42265015 -0.03523450 5.01046597 0.25745884 0.39291406 0.02235604
O 9.12472152 2.96934003 5.04346152 -0.47838287 -0.87246723 1.37908840
O 21.56331549 3.00067632 5.09573567 0.35261548 -0.41092137 -1.77117779
O 7.73037696 6.10602552 10.80694655 -0.23610588 -0.55592613 0.09869271
O 20.06798505 6.10077451 10.71897678 -0.84953088 0.45586720 0.24485107
O 7.79824601 2.99425574 10.73369589 -0.81847478 0.40393400 0.65206901
O 20.13895686 3.05993030 10.61427949 0.14919320 -0.89525183 -1.39131130
O 7.91272561 1.51474651 0.59536558 0.41928973 -0.57548504 -0.30967095
O 20.35630738 1.49861636 0.69603626 -0.36299187 -0.94947400 0.77756138
O 8.03451102 4.59140148 0.64112048 -0.81817038 -1.17427839 -0.29147846
O 20.23727921 4.52019102 0.53233460 0.08347511 -0.20514090 0.60730878
O 6.71429157 1.58806961 6.33020863 -0.77602833 1.49293730 1.26352243
O 19.02487258 1.44747091 6.24370675 1.07078192 0.25572618 -0.60392875
O 6.67722863 4.61841928 6.23165414 -0.18700470 1.60101626 0.85510087
O 19.02950496 4.58839741 6.26657479 1.39585130 0.03692205 1.03521107
O 2.81084047 1.57066984 5.04124310 0.30180049 1.02891677 -0.88327339
O 15.14893253 1.51529506 5.02871544 0.43502193 0.50210910 -1.67900737
O 2.86213075 4.60739705 5.05413954 1.91609299 0.64392066 -0.89577256
O 15.30594303 4.60284205 5.05463298 -0.05314535 0.62785967 0.09026420
O 1.56049282 1.54153851 10.68839936 -1.84247686 -0.56669041 -0.92090718
O 13.92196681 1.47357032 10.69659018 -0.55341142 -0.96605840 -0.01260916
O 1.59079786 4.57393892 10.67784275 -0.32547437 1.87018815 0.18264269
O 13.96119182 4.59318366 10.82512630 -0.33911479 0.25458049 -0.38410659
O 1.30084471 6.06728239 3.21376101 0.02947404 -0.25803457 -0.94590310
O 13.86613980 0.02420157 3.21503758 -0.01924166 -0.21076327 -0.57564759
O 1.35897413 3.06013362 3.21260070 -1.40056733 -0.77832899 0.00372943
O 13.70838106 3.06526556 3.21680957 0.79434533 -0.78822879 0.12029974
O -0.09395084 -0.14974721 8.88939825 0.74329737 -0.04775566 -0.27959937
O 12.26807036 0.02527911 8.84101300 -1.83159280 0.22340547 -1.07049376
O 0.03022994 3.06365386 8.88143793 -0.53836178 -0.96378813 -0.76670006
O 12.31640076 3.01830103 8.80584060 0.18083165 -0.04281122 0.58594872
O 9.66000958 6.13609927 2.43192798 0.68755693 -1.40833596 -0.71463240
O 22.06312641 6.09361360 2.52300473 0.22407999 -0.36842017 0.37426882
O 9.68583737 3.06954803 2.42121956 0.13929243 1.10712902 0.51795215
O 22.10844089 3.01662011 2.38976438 -1.04933854 0.33038519 0.99051920
O 8.20023335 0.00776011 8.09486215 1.48407741 -0.20219645 -0.03862023
O 20.61257940 6.11336930 8.08110744 -0.56312813 0.77190551 0.60625061
O 8.20737387 3.12033014 8.08857069 -0.93161764 1.18281919 -0.79849443
O 20.57038830 3.06266400 8.15644833 -1.61625510 2.27939693 -0.85556676
O 7.54550086 1.46694647 3.23261038 -0.35788789 0.19140724 -0.76533000
O 19.91514714 1.47262550 3.23052212 -0.00831474 1.09043782 -0.23504250
O 7.48508778 4.60568869 3.21193169 -0.04487106 -0.64045880 -0.98176550
O 19.98718658 4.60338690 3.12387894 -0.74672078 0.25486123 1.35298969
O 6.24915110 1.50526801 8.94377591 0.78321926 -0.36849359 0.79373631
O 18.59622748 1.48333107 8.77393503 -0.75872468 0.19570621 0.42527914
O 6.20498179 4.60417803 8.82187730 0.16315073 -0.58007993 -0.50300610
O 18.54677525 4.60519970 8.90777967 -0.96808865 0.31972385 -0.91176379
O 3.44298431 1.45086986 2.46637169 0.44988297 0.10435359 -0.05583857
O 15.76915779 1.48273247 2.61898730 -1.39126382 0.76087509 1.41720103
O 3.42264390 4.49345485 2.42712327 0.51668863 0.67585012 1.55680920
O 15.84118578 4.53593190 2.38203986 -0.65404939 0.36644389 -0.67188162
O 2.04958258 1.55361150 8.13077871 0.27284772 0.85429852 1.03468309
O 14.49820574 1.56365563 8.23253441 0.28410245 -0.01842080 0.30360826
O 2.09202539 4.55219247 8.15557203 -1.00401212 0.75498929 1.21734672
O 14.42209194 4.52218150 8.02281112 -1.00762959 -0.22182832 -0.87261776
O 11.86350634 1.50944452 1.43404079 0.03269986 0.17333672 -0.46141611
O 24.30897996 1.53363825 1.46974047 -1.00461136 -0.14844762 0.14239729
O 11.92470344 4.51982355 1.49624783 -0.21272435 -0.08947926 0.97516594
O 24.30753564 4.58470848 1.41325226 0.38629647 0.66853806 0.90883827
O 10.57067543 1.57902342 7.00198491 -0.19974654 1.03359205 0.20578314
O 22.91583076 1.52969644 7.10749369 -0.27439233 0.29843704 -0.09648593
O 10.61041890 4.44100247 7.14371713 0.02423078 -0.04848856 0.25996835
O 23.03135419 4.61870640 7.08191801 0.26865308 0.96063759 0.01811866
O -1.00089762 1.59008192 4.28597276 0.03401315 0.17040198 -0.86386623
O 11.38263190 1.56331905 4.17416114 0.51201875 -0.21324185 1.09127686
O -0.96583242 4.66787631 4.13377337 -0.14608545 -1.04520350 -2.28357094
O 11.40708541 4.60186938 4.20861631 0.04624762 -0.03185980 -1.30294990
O -2.42002859 1.45933661 9.84239847 1.22467047 -0.05420815 -0.16174108
O 10.06117616 1.59519972 9.90176690 0.34417605 0.42872041 0.17902611
O -2.36053214 4.56385362 9.88314080 0.57676553 0.18511977 -0.24832378
O 9.98703161 4.64666536 9.80061057 -0.30679030 0.14677823 0.54268048
O 5.86775001 6.14466172 1.54558380 -0.21016309 -0.53474406 0.52706915
O 18.12079438 0.03075015 1.41832990 0.17832731 0.05392847 0.06763593
O 5.79362854 3.11118213 1.37396432 0.20227195 0.65996235 0.21740523
O 18.13874224 3.08816645 1.51087844 0.88993642 -0.56421064 -0.17726891
O 4.40217969 6.07892126 7.22275359 0.89348138 0.33308559 -1.26872602
O 16.80330317 0.07472632 7.11970605 0.48665825 0.49600690 0.51863822
O 4.37918559 3.11089209 7.12928931 1.40110970 0.26450191 -0.17067295
O 16.79703330 2.96123796 7.05773265 0.42567310 0.63736195 -1.03933357
O 5.24039095 6.11974342 4.17623818 -0.01791093 -0.71102639 0.17662136
O 17.51377599 0.04054641 4.20642093 0.13049932 -0.50595533 -0.36375530
O 5.14106548 3.07041337 4.18815337 2.17778884 -0.18527728 -0.96140631
O 17.50481583 3.10117856 4.26096077 0.96438600 -0.82261830 0.10505665
O 3.80754640 6.01905737 9.90027767 1.00792290 0.07583614 0.44176672
O 16.15331141 -0.04780738 9.92932152 -0.31552649 -1.22003121 -1.13263960
O 3.82795150 3.02412462 9.89934753 -0.67061402 0.05784760 -0.53895904
O 16.14297381 3.12735448 9.92223407 -1.25388701 -0.34566958 0.15860565
159
Lattice="24.803604 0.000000 0.000000 0.000000 6.141034 0.000000 -2.766887 0.000000 11.369790" Properties=species:S:1:pos:R:3:force:R:3 Energy=-621.399432 Virial="-52.863848 1.946553 -4.873880 1.946553 -44.976068 -4.677207 -4.873880 -4.677207 -44.655199" Ga_vac_type=Ga_tetra Ga_vac_tier=low Ga_coord=4 defect_vacancy pbc="T T T"
Ga 0.06274790 -0.08660679 4.49011825 0.59200401 -0.42985410 1.04173633
Ga 12.35463200 6.15743692 4.61944206 0.09394303 -0.36837333 -0.99670503
Ga -0.02534039 3.13572891 4.43968468 0.00244000 0.07914469 1.16853329
Ga 12.31728772 3.03856577 4.58430406 -0.14391907 -1.09606466 -0.74600453
Ga -1.31837266 6.08621018 10.30520952 0.74819954 0.29482329 0.25795792
Ga 11.09836234 6.14924519 10.30602871 -0.37048391 -0.24029180 -0.69766763
Ga -1.39884687 3.12078650 10.20786795 -1.40286254 -1.63669962 -1.13865057
Ga 10.97695136 3.02228323 10.18043071 -0.03776979 0.27375651 -2.44382277
Ga 11.02672252 0.01156536 1.12872260 0.72962956 -0.43649118 -0.64001760
Ga 23.40782170 -0.09980629 1.16929782 0.26219122 -0.16952477 0.33434651
Ga 11.16806998 2.99028494 1.11389328 0.06394019 2.04385509 0.89129557
Ga 9.57022759 6.10506304 6.86179364 1.12084333 -0.31771644 1.84998639
Ga 21.98851593 0.06963282 6.77402016 -0.83740185 1.08797488 0.69888466
Ga 9.58391963 3.01039162 6.69348198 1.12844326 0.20142229 -0.70806069
Ga 22.08202211 3.13501573 6.84143868 -0.65985030 -1.03175601 0.30906230
Ga 6.23628883 1.53394689 4.55770590 0.10293267 0.48734466 -0.07234167
Ga 18.59516307 1.52376319 4.48515404 -0.02766419 0.07555835 0.62684607
Ga 6.20921881 4.59486138 4.59697762 -1.36444389 0.51231351 -0.43082771
Ga 18.64389114 4.77118147 4.51029556 0.35457323 -0.98279833 -0.17834707
Ga 4.83497506 1.47824700 10.27057254 -0.54944483 0.61725324 -0.12228624
Ga 17.17979929 1.43980941 10.31340862 0.65555920 0.07416032 -0.82482357
Ga 4.83815358 4.66931679 10.21621767 1.07875447 -0.67670506 -1.19892813
Ga 17.20463828 4.63990719 10.19566955 0.14577479 -0.90890557 0.62199935
Ga 4.74233877 1.51987914 1.08709615 0.10783720 -1.72339541 -0.39063910
Ga 17.11422537 1.50077315 1.23700353 0.87457883 -1.13708765 -0.05488905
Ga 4.78959233 4.54373566 1.07332934 0.56929696 0.51289478 -1.00219681
Ga 17.20357609 4.69804951 1.26695729 0.54604064 -1.64362205 0.91373900
Ga 3.34975406 1.51831138 6.81213195 -0.85840699 0.99879579 1.16806436
Ga 15.74852604 1.53183123 6.75814337 -0.30045198 0.26447212 -0.13438881
Ga 3.33056275 4.65529508 6.90379323 -0.74016718 1.18029768 0.30066798
Ga 15.79568323 4.55282016 6.81806163 -1.46846641 0.43854697 -1.36524014
Ga 1.61958609 1.56546518 1.76359995 -0.74130596 0.31073754 -1.50939850
Ga 13.93958088 1.49666046 1.80591254 -0.24732722 0.06608325 -0.59260025
Ga 1.59641250 4.61209817 1.88162254 -0.16892441 0.77028146 1.15142843
Ga 14.02508839 4.69502778 1.78223445 -0.00059096 0.85434376 -0.29902316
Ga 0.11190439 1.49691411 7.44957804 0.05609650 0.09628554 -0.45591845
Ga 12.52520389 1.55439039 7.46347900 -0.67504615 -0.74520959 -0.27811950
Ga 0.15662680 4.57725452 7.44177751 0.26410090 0.27738024 0.04495085
Ga 12.44368452 4.66097638 7.48772068 -0.34273489 -0.87714767 -1.42950476
Ga 9.54592479 1.56984306 3.96057530 0.05044712 0.29890014 0.43382234
Ga 21.87063868 1.46815912 3.96653992 -0.45764428 0.75711529 1.34787012
Ga 9.49085470 4.54729025 3.97997564 -0.68385908 0.64107288 -0.62494838
Ga 21.93725794 4.63383042 3.88049730 0.12492741 -0.48619370 -0.05715389
Ga 8.08438667 1.46079285 9.50012476 -2.48295109 0.63606247 0.43541997
Ga 20.36993418 1.49384415 9.52773675 -0.71250480 -0.47453010 0.09774586
Ga 8.12556155 4.57745564 9.62578200 0.55720774 0.91402530 -1.41538036
Ga 20.49309116 4.76787408 9.54526522 0.16620060 1.70344843 -1.00671876
Ga 7.75940107 0.05985129 1.86576118 -0.02994707 -0.56431182 -0.17809155
Ga 20.11989991 0.08038454 1.73700590 -1.78008183 0.00493399 -0.12989199
Ga 7.82233148 3.08508863 1.85604147 0.01453861 -0.84667004 -0.10390863
Ga 20.10688273 3.04139700 1.75116670 -0.64240630 1.60005541 1.25450723
Ga 6.40867813 -0.16059075 7.46763244 0.28301563 0.05172224 -0.08150576
Ga 18.73987284 0.11261386 7.44934594 -1.11024019 -0.92270919 -0.98804641
Ga 6.30833687 3.02171983 7.47348651 -0.08836599 0.54137799 1.04531898
Ga 18.74665262 3.09606206 7.46774237 0.19460996 -0.30003814 0.88640464
Ga 3.21677913 0.02056042 3.89469926 -0.13851178 1.51521320 0.35263388
Ga 15.68879564 6.17515215 3.97844081 -1.13607792 0.54830365 1.12683972
Ga 3.29705535 3.01165202 3.90539846 -0.84657912 0.09017663 1.42128836
Ga 15.68674716 3.12531369 3.93622621 0.65196637 0.40270261 0.79380469
Ga 1.97549897 0.06588658 9.64350501 0.90718750 -0.98903343 0.76887253
Ga 14.26720129 6.01552512 9.43736803 -0.28424645 -1.74965468 0.96276624
Ga 1.97663919 3.18815792 9.70005113 -0.49699171 -0.79572047 -0.15725072
Ga 14.37562457 3.03030125 9.64876803 0.52625500 0.86217420 0.37492625
O 1.85718209 6.08025124 0.60123386 0.09215705 0.00420799 -0.53989063
O 14.27897882 6.13937153 0.66304498 0.71659428 -0.37812346 -0.70135159
O 1.88252182 3.14843604 0.65693300 0.52199524 0.61015020 -0.26302179
O 14.18592734 3.08757437 0.68349055 0.07024220 0.34448181 0.83681700
O 0.50825416 0.06408708 6.34863681 1.72460744 -0.60956119 -1.27029594
O 12.82512728 5.99837227 6.32390991 0.53596489 0.47286488 0.14236013
O 0.49267925 3.03980904 6.28194216 -0.48519703 0.48488217 0.99574880
O 12.82729640 3.07506909 6.26741772 0.09738122 -0.68532319 -0.18354497
O 9.12964286 0.00041430 4.92853773 -0.03392933 0.20584283 1.20060497
O 21.52014117 0.03951192 4.96329491 -0.33141131 -1.94048949 -0.43035739
O 9.24461628 3.13765408 5.06122336 1.65574867 0.17386003 -1.15969512
O 21.53696773 3.06951058 5.09826516 -0.09409106 -1.24231949 -1.58031173
O 7.85448884 6.01648989 10.76490279 -0.03366144 -0.63143096 -0.12821700
O 20.19933808 6.16906916 10.70226834 0.63154865 -1.37844125 0.68140410
O 7.78575932 3.02795262 10.70100154 -1.58426342 1.15167227 0.19929363
O 20.18680253 2.98677274 10.79290114 0.21939517 -1.28577097 -0.04539384
O 7.97569786 1.49309787 0.58033963 -0.48583900 -1.10154826 -0.11917712
O 20.41546795 1.54630182 0.62846746 0.42088981 0.69190930 0.70337691
O 8.10613115 4.72513959 0.58149705 -0.58578752 -0.47945399 0.25597426
O 20.38061108 4.61619094 0.64752019 0.97068434 0.52616179 -0.84218134
O 6.71691224 1.61476036 6.38885523 -0.56996095 0.17083985 0.39955992
O 19.10987314 1.52463655 6.34030217 0.07736421 0.60413647 -0.25843262
O 6.64234028 4.60074600 6.18926497 -1.04602632 -1.41075687 2.06276435
O 19.12896800 4.57762352 6.32166161 -0.07426621 0.96182581 0.98725940
O 2.96918862 1.61626917 5.08097961 0.68554389 -0.32935893 0.01500182
O 15.31565425 1.67263435 5.03438271 0.50401144 0.97319267 -0.34144694
O 2.94437369 4.66658482 5.08024473 -0.19158507 0.94957839 -0.37840670
O 15.22190179 4.63508620 5.09566607 -1.16498403 -0.00507426 0.58218399
O 1.56870102 1.63744215 10.76594017 -0.43962664 1.73170687 -0.81203942
O 13.90801112 1.44469365 10.77672637 0.90722637 -0.75127227 0.85997821
O 1.41749966 4.52775712 10.73036443 0.33263362 -1.28946521 -0.73052398
O 13.94853352 4.65522208 10.72777151 -0.84598035 0.25854832 0.35284881
O 1.44912040 6.21622124 3.21395780 -1.16840673 0.16455219 -0.06939493
O 13.83541230 0.08419617 3.18996769 1.04575188 0.68006690 0.77991598
O 1.32946391 3.11964250 3.18857267 -0.23563600 -0.28908664 0.73327442
O 13.82851457 3.14619089 3.20127924 -0.36522977 -0.77584035 1.06975868
O -0.00867862 0.03033043 9.01086690 -0.04887659 0.21781024 0.46453264
O 12.29374798 -0.05772055 8.93605627 -0.38675711 -0.00270799 0.28365400
O -0.00110424 3.09466461 8.94515811 -0.20118103 -0.97031990 0.01985464
O 12.37602321 3.00735350 8.95630128 -0.17523502 -0.34092710 -1.11608482
O 9.69184592 6.00495664 2.39758691 -0.37751941 -0.83797645 -0.64391806
O 21.97409599 6.12865712 2.54232509 0.83373661 1.27137161 0.35587115
O 9.67938469 3.02647039 2.41876026 0.00103467 -0.01611676 1.52033327
O 21.99794738 3.12984586 2.49535877 0.80528272 1.34380232 -1.93683779
O 8.28719970 0.02155973 8.10681338 1.00013727 0.07769875 0.60151607
O 20.66034586 6.19942722 8.09749850 2.87311729 -0.26370070 -0.04217135
O 8.30675778 3.09875110 8.17010476 1.11878303 -0.83697605 -0.35432643
O 20.68700544 2.94496469 8.17703385 0.52509898 -0.35454302 0.41176396
O 7.50419157 1.48896410 3.19444813 0.30749150 1.42050095 -1.26778126
O 20.03468330 1.41181791 3.17433764 -0.03042916 0.03163605 -0.91159164
O 7.58922192 4.51205996 3.17120563 -0.18799126 0.46127743 0.36565122
O 20.03324122 4.67441504 3.22649615 -0.28204010 -0.50288109 0.06497884
O 6.16493820 1.62157195 8.87286197 1.07587987 0.24809575 -0.27407931
O 18.61252536 1.49370914 8.79955887 1.01613142 -0.53017466 -0.37912975
O 6.24605242 4.52826999 8.96517949 0.30769600 -0.11112682 -0.50092037
O 18.55022180 4.66289768 8.75825475 0.63909615 0.76721694 0.34234372
O 3.50622456 1.57429221 2.55025292 -0.40057512 0.87745490 -0.98588506
O 15.88157281 1.61913008 2.41533587 -1.48009272 0.54131203 -0.15884391
O 3.40594459 4.64850171 2.41493599 0.28607726 -1.32647567 0.54578385
O 16.05667552 4.60813954 2.45673760 0.35542940 0.49180126 -0.44357870
O 2.00778556 1.51766760 8.05255043 1.54431887 0.91960151 0.23330903
O 14.44609097 1.55569170 8.26218530 0.55956585 -0.13039454 0.51190628
O 2.13692381 4.67398123 8.19736251 0.17609745 -0.89036389 -0.12840790
O 14.41580258 4.52294704 8.18951878 0.42013875 0.85452414 0.84244206
O 12.00233966 1.59146018 1.37861838 -0.15304982 0.01740389 0.33280712
O 24.34226772 1.49920713 1.46429841 0.16889022 -0.40571591 -0.71421668
O 11.98183602 4.59914697 1.40934055 2.00440616 0.03827678 0.19036751
O 24.39587435 4.55178373 1.43968228 0.03083612 -0.19391739 0.13982088
O 10.55989255 1.42671433 7.18539475 -0.21257550 -0.71122003 0.18216271
O 23.03715657 1.63997599 7.17236055 0.97406351 -0.32157816 -1.99420115
O 10.55472043 4.63331637 7.14458582 0.34354195 -0.33870568 -0.25309495
O 23.03272061 4.62104369 7.08451330 -0.44314968 0.34480924 1.27735772
O -0.88458471 1.58191704 4.33922629 -0.59154210 0.80176074 -1.28148277
O 11.33910961 1.63206390 4.22290928 -1.73435491 0.70686896 0.08126182
O -1.04889085 4.59113565 4.25304975 -0.28954770 -0.60582570 0.35274921
O 11.41913295 4.56683350 4.15091321 -0.45433894 0.92888410 0.18238316
O -2.32479438 1.53832225 9.89129008 0.80216905 -0.41767088 -0.78908697
O 9.95085710 1.41529898 9.96576965 0.28528688 -0.11272659 -0.29729537
O -2.43000686 4.54456387 10.01992642 -0.88153598 0.84542215 -0.63809779
O 10.05344573 4.54928992 9.83788540 -2.48003099 -1.28419858 1.50715927
O 5.80350181 6.13934064 1.50590606 -2.18048861 0.04316776 -0.94424793
O 18.20024313 0.03513458 1.36605521 -0.23227591 -0.06832940 0.23321382
O 5.82262856 3.10977654 1.38703715 0.76113654 0.98886941 -1.29722499
O 18.06916493 3.06523331 1.51402460 -0.02511875 0.43922628 -0.50291884
O 4.47969849 6.16417710 7.12480824 0.27097116 -1.11675652 -0.91537850
O 16.72105726 -0.02422173 7.20408087 -0.15249483 0.41044962 -0.70004648
O 4.41883249 2.99136982 6.99825610 0.02471443 -1.16873291 2.07359521
O 16.88454686 2.87700530 7.06265594 0.84956157 0.67862266 2.03220888
O 5.37777797 6.18764582 4.30933246 -0.18847464 0.16777701 0.42111058
O 17.74582534 -0.03533385 4.23511413 0.07916774 -0.93886491 -0.54309725
O 5.20219398 3.02847211 4.17491859 0.49731687 -0.46021811 0.26787586
O 17.61716320 2.92496739 4.24070360 1.71186422 -0.04008978 0.80328928
O 3.83831609 6.12979078 9.96405328 -0.08123011 0.16292394 -0.86887416
O 16.15792969 0.00830538 10.01610096 -0.68180513 -0.15002585 0.57300646
O 3.85702890 2.95642896 9.96478814 -0.57814559 0.97025256 0.30871790
O 16.29641384 3.10044133 9.93196671 -0.33790637 1.26877251 0.12692811
159
Lattice="24.950093 0.000000 0.000000 0.000000 6.177303 0.000000 -2.783228 0.000000 11.436939" Properties=species:S:1:pos:R:3:force:R:3 Energy=-623.197779 Virial="-59.847841 -1.219964 -1.585539 -1.219964 -42.989724 -2.809804 -1.585539 -2.809804 -40.622259" Ga_vac_type=Ga_oct Ga_vac_tier=low Ga_coord=6 defect_vacancy pbc="T T T"
Ga -0.02216067 -0.12887039 4.58488246 -1.00621368 -1.04418553 -0.77670204
Ga 12.41086403 6.29690416 4.57626872 -0.29423639 0.01471207 0.08252512
Ga 0.06644340 3.03584188 4.50441694 1.19680167 -0.27521937 -0.46603198
Ga 12.40272998 3.09237966 4.55497772 0.20982652 0.24186704 1.01019505
Ga -1.29245370 6.11094715 10.10789015 0.78713884 1.85862447 -0.29314875
Ga 11.19057004 6.23059740 10.17950159 0.48649122 0.03391699 -0.31592440
Ga -1.24626727 3.13812270 10.24526731 -0.32868895 -0.95749078 0.56213475
Ga 11.01281071 3.10113341 10.28446521 -0.41148990 -0.03382781 0.14187192
Ga 11.08075323 0.00914865 1.23317578 -0.46115320 0.45787032 0.42944763
Ga 23.40446507 -0.01154778 1.18639757 1.10371199 -0.22903848 -1.09677318
Ga 11.06603363 3.12479523 1.19539689 -0.49217466 -0.56544213 -0.56137450
Ga 23.60174195 3.00783164 1.09442169 0.38530666 -0.66926384 -0.68518442
Ga 9.68127575 6.10727674 6.89035539 0.19906368 -1.46069285 0.32010344
Ga 22.17145686 -0.08893836 7.07402171 0.78371065 -0.11955305 0.72249872
Ga 9.74727568 3.09377696 6.69848172 0.02609945 1.31187593 0.88684407
Ga 22.22907484 3.09092506 6.74520233 0.58619001 -0.04402943 -0.28471464
Ga 6.32087529 1.67302333 4.31656261 1.28685184 -0.64326583 1.19492828
Ga 18.65602821 1.46958672 4.50203362 0.64329806 -0.78084706 -0.36549670
Ga 6.10530821 4.62475158 4.68973741 0.35830551 1.22222387 -0.06711970
Ga 18.71583817 4.61904897 4.47952697 1.39585037 -0.63774018 0.32417502
Ga 4.85050249 1.47298377 10.18250626 -0.16817579 -0.27864042 -0.49487113
Ga 17.37951923 1.47226250 10.16374812 -0.86632901 -1.25202037 -1.54419476
Ga 4.89631177 4.46575774 10.29776443 -1.25705569 -0.57993806 -2.00168464
Ga 17.32832877 4.62301484 10.26259021 -0.17771230 -0.46584750 1.23622890
Ga 4.84559493 1.49981488 1.30896953 0.19379128 0.65182233 0.66842185
Ga 17.24714730 1.50376056 1.09592143 -0.27832062 1.38392555 -0.29312894
Ga 4.91880849 4.50530743 1.15550136 -1.14148639 0.38726143 0.15253471
Ga 17.28166689 4.63492839 1.15613241 0.34917183 1.50972169 -0.87351827
Ga 3.39403547 1.51562721 6.92210577 -0.90091055 0.31912904 -0.37742976
Ga 15.90051515 1.54571049 7.03458687 -1.22020665 0.32153839 -1.06990561
Ga 3.42731474 4.51952110 6.87439166 -0.38645118 1.18162032 0.68152939
Ga 15.92417379 4.65629581 6.85214016 1.41180608 0.30481445 0.34956601
Ga 13.86279416 1.53397709 1.78716510 -1.42640063 1.29910957 -1.05992761
Ga 1.54636907 4.59102482 1.82587394 1.12292431 0.48972744 -0.00149121
Ga 14.01432325 4.61154141 1.79669356 0.98826628 -0.76561954 -0.59969951
Ga 0.03647572 1.64844478 7.66820299 -0.16340546 0.37575265 0.55063663
Ga 12.64626412 1.62433170 7.57412408 0.95581592 1.56021015 0.12062938
Ga 0.05268881 4.63116470 7.55513831 -1.28853661 -1.87367187 -0.60236965
Ga 12.55307345 4.63864242 7.56893088 -0.51439130 -0.33556324 1.89112228
Ga 9.55733971 1.63283761 3.87034126 0.56347959 -0.02662101 0.15368634
Ga 22.01971375 1.56192956 3.89019417 -0.40561655 0.90300157 -0.02620089
Ga 9.54293162 4.69541734 3.93641689 0.50120561 -1.36598915 0.19620883
Ga 22.06071535 4.70918420 3.93243401 0.11667609 -0.34167310 0.39671992
Ga 8.15123028 1.52128379 9.66295559 -0.20018163 0.20970071 1.39134370
Ga 20.70249395 1.57237530 9.71658932 0.87742320 0.66764703 -0.89637988
Ga 8.19558806 4.70052695 9.73489766 0.59351689 0.26495417 -1.70641515
Ga 20.57514785 4.54255808 9.66346059 -1.59051351 -0.82733706 -1.35329152
Ga 7.86693861 0.05263818 1.81908256 -0.37938198 -1.95621059 1.01295920
Ga 20.37029069 -0.02678251 1.76614820 0.36564423 -0.09762742 0.58567007
Ga 7.69123961 3.10593512 1.73089914 0.52627570 -0.60999261 -0.82339210
Ga 20.28150270 3.04977813 1.94533491 -0.53346518 -0.37387900 1.30570822
Ga 6.44847090 -0.02741942 7.69407064 -1.24077989 -1.08881120 0.49359997
Ga 18.88450743 -0.00025793 7.59652181 -0.28412255 0.22065819 -0.90021310
Ga 6.27500750 2.93585533 7.57059867 -0.16486042 -0.83910647 1.14395560
Ga 18.82307871 3.11062371 7.44728435 -1.53954878 0.31251770 -0.40719614
Ga 3.26812536 -0.01523805 4.00407703 -0.03581904 -1.40640207 -1.26177929
Ga 15.72983757 6.31700227 3.96046149 0.05393721 0.81953945 -0.11914792
Ga 3.18181185 3.19424119 3.92400457 -0.65721782 0.43301655 0.83186938
Ga 15.78604012 3.08324582 3.96199268 -0.61168395 0.24556112 0.40042376
Ga 1.92721894 -0.00876203 9.58597729 -0.10343996 -0.62596014 -0.35995828
Ga 14.35529406 6.14391950 9.63485040 -0.79243353 -0.66795944 1.78076453
Ga 1.94176140 2.92451765 9.76671074 0.26522461 -1.68619333 -0.41071415
Ga 14.35574363 3.14103216 9.63989475 -0.93174639 0.53415478 -0.08991771
O 1.94598477 6.25191255 0.59814673 0.97948393 0.71625872 -0.65048069
O 14.37796537 6.09109011 0.49449834 -0.07296922 -0.07668023 -0.45621529
O 1.85787394 3.08183264 0.62694870 -1.21543355 -0.10406509 0.85971438
O 14.36434562 3.03327327 0.55539392 -0.89069937 0.29465463 -0.65213385
O 0.35157527 0.19533469 6.31439684 -0.35351936 -1.05831337 -1.16188485
O 13.07110520 6.27402254 6.34331195 0.77540194 -1.64679255 -0.40716027
O 0.64522798 3.08659356 6.40287454 0.17346763 -0.24967883 -0.04556029
O 12.90760836 3.06104538 6.22014035 -0.87798615 0.17762326 -2.21877751
O 9.22441416 0.08573589 5.23448868 1.42010169 0.52497323 1.12106554
O 21.69309129 0.00670480 5.22301967 1.60145712 0.02274356 -0.46383271
O 9.08289108 3.18928451 5.17066378 -1.11441837 0.01896892 0.97304272
O 21.62741196 3.01969165 5.08959209 -0.33570549 1.66135423 -0.13040041
O 7.75554206 6.26945261 10.82727059 -0.22530627 0.22175701 -0.83368576
O 20.40642262 6.20259278 10.80628897 -0.81263824 0.25753201 0.85576377
O 7.77585414 3.09160201 10.75176682 -0.52019073 -1.05737662 -1.45368457
O 20.43039710 3.00667699 10.81770772 -0.74206478 -0.96827423 -1.28904199
O 8.25806391 1.53653589 0.60237527 0.14437672 1.15006887 -0.19661349
O 20.63501635 1.48788935 0.55819160 -0.70122820 0.55809928 -0.71172017
O 8.12075032 4.48195487 0.52430279 1.07561468 0.67755431 0.40495406
O 20.70954845 4.55211559 0.62251428 0.33006411 0.93981279 -1.83073119
O 6.72814317 1.56947141 6.23901719 -0.83088691 0.55792335 0.53181670
O 19.15810694 1.48097777 6.28875100 0.56279263 -0.55121862 0.99330315
O 6.80570806 4.69838318 6.28182079 1.74125110 0.55227638 -0.79847577
O 19.24332248 4.54809809 6.31971718 -0.88875661 0.02361703 -2.33309559
O 2.96617668 1.43622234 5.02048888 -0.15644965 0.78508139 0.21840512
O 15.58785869 1.55744998 5.08958392 1.05724153 0.32456207 0.67511644
O 2.95512229 4.53598511 5.08649559 -1.41507033 -0.19508088 -1.04532951
O 15.44565984 4.63345517 5.03043742 -1.38095799 0.57719579 -0.17833405
O 1.45792116 1.57423043 10.98034901 0.52311427 -0.00609146 -0.63441635
O 14.15396106 1.59481454 10.85892288 0.68629112 -1.02927595 0.55778289
O 1.56603791 4.69178176 10.93577282 -0.08948034 0.79639811 -0.66362452
O 14.06374003 4.72293021 10.76069649 1.54034826 -1.53086703 0.81853268
O 1.37929014 6.10572591 3.21724317 -0.77218922 -0.66072155 0.10265273
O 13.82585410 -0.03645424 3.03533784 0.35597765 0.24859323 -0.97114782
O 1.43104730 3.13529345 3.22182380 -0.82014102 1.99812419 0.31483109
O 13.88789954 3.01528509 3.08688604 -0.66560956 0.59191995 -0.20824410
O -0.08722515 -0.08678670 8.88773163 -0.10381617 1.06030700 1.60325398
O 12.39297839 0.02737365 8.97598948 -0.32402610 -0.30017270 0.03472801
O 0.05545305 3.00634959 8.90534040 -0.27549968 0.95460675 0.04258345
O 12.37138516 3.05011425 9.02333504 -0.18654958 -0.87234616 1.06308741
O 9.69813424 6.10673061 2.36203466 0.88405413 -1.54407946 0.67803307
O 22.26631711 6.18651542 2.43269050 0.86136517 0.91577108 -0.38759789
O 9.70355259 2.95766564 2.43100550 1.15881199 0.67846731 0.40950083
O 22.31049737 3.14252782 2.37475754 -0.61836655 0.76096703 0.40178426
O 8.24443169 0.05115567 8.21871196 -0.15777653 -0.14700762 0.06556488
O 20.74759238 6.22410683 8.19364547 -1.36613736 -0.44320334 -0.47593590
O 8.39591889 3.14800940 8.11432467 -1.37096124 -0.78605076 -0.56994308
O 20.77100751 3.04030278 8.11479551 0.45040557 0.04699782 0.14554958
O 7.64114191 1.50990333 3.22186191 0.89205580 -1.49295925 -1.63004382
O 20.12131537 1.45980311 3.27364835 -1.33844109 1.03556613 1.14516928
O 7.58637127 4.66528114 3.25988288 0.35599293 -0.25599201 0.99211136
O 20.05675668 4.71792873 3.26967377 0.79215499 -0.11285167 -0.71705178
O 6.21072498 1.61142078 8.89697387 1.36410747 -0.64303624 1.21272007
O 18.66332205 1.65279884 9.02572536 0.08034914 0.14045880 -0.27764217
O 6.22168206 4.59096336 8.96775722 -1.20879272 1.08381314 0.30874689
O 18.65747916 4.59833279 9.00989404 1.33831728 -0.42027437 -0.46549898
O 3.44747667 1.53244078 2.43922309 -1.04983893 -0.49804519 0.18229247
O 15.99549294 1.43485795 2.47762675 0.49913918 -0.27829832 0.04962051
O 3.32805639 4.71761711 2.45654619 0.06762509 -0.28113555 0.29251963
O 15.86172807 4.70882477 2.39583004 -0.35779833 -0.44793982 -0.00881675
O 2.13776999 1.44164350 8.28890771 0.91916815 -0.24912076 0.70700889
O 14.54258342 1.57615840 8.23536524 -0.15960954 -0.82451592 0.14365629
O 2.02800186 4.71654814 8.15411571 1.23008700 0.75234285 -0.21552711
O 14.49299738 4.53795459 8.32226901 0.11402745 -0.23474180 0.31387554
O 12.07873124 1.58443832 1.48316356 -0.13626182 0.99540416 1.16465261
O 24.61787373 1.48304953 1.45601415 0.25651208 0.21928336 -1.07528813
O 12.06006264 4.63329302 1.47281391 1.23738499 -0.78313344 0.73526938
O 24.50893119 4.70879368 1.34286617 -1.44154410 0.09420187 -0.06648309
O 10.63649241 1.54304948 7.29927192 0.29091958 -0.58957978 -0.00824714
O 23.19531530 1.51148378 7.29472829 0.68506791 -0.09489940 1.11892972
O 10.60669758 4.74263808 7.21177987 0.85463388 -0.66549987 0.39264959
O 23.13748446 4.71496666 7.25805346 0.26729464 0.49956154 -0.95498801
O -0.80927736 1.47057516 4.25103952 -0.28816568 0.09508097 0.65660457
O 11.55402191 1.51785439 4.19477051 -0.85613216 0.04398414 0.75422773
O -1.00413118 4.64483373 4.21622131 -0.52544173 -0.50191680 0.11778265
O 11.44279041 4.51572143 4.30676311 -0.61675901 -1.55578132 0.42506540
O -2.57220946 1.64842326 9.93474330 -0.61087135 1.09380037 -0.30344994
O 10.10402675 1.58824777 10.18534262 -0.90231710 0.84578162 0.59210100
O -2.36514872 4.44687052 10.07163722 0.09947405 1.73808891 -0.67221871
O 10.08233399 4.63417858 10.02474140 0.03152413 0.57014758 0.26503437
O 5.78178928 6.12313856 1.31908821 1.11196018 -1.33383822 1.09737140
O 18.26110521 0.05398337 1.40136204 0.21378791 0.48281042 1.05951823
O 5.83049848 3.03711008 1.53681894 0.82960655 -0.24389983 0.01674983
O 18.31406954 3.10337997 1.51896690 -0.45108911 -0.27866763 -1.65985276
O 4.39796132 6.21209722 7.30295131 1.24977808 0.31352820 0.99486007
O 16.75611246 0.00176638 7.11952376 0.29588525 -0.18369648 0.88006035
O 4.33935844 3.03131464 7.07136122 0.85388311 1.12026732 -0.87388854
O 16.92916106 3.09095792 7.09356108 0.40588685 0.98671358 -0.20057624
O 5.34559798 6.07204249 4.22492132 -0.14961651 -1.52034891 0.12549309
O 17.67112513 -0.02041838 4.35145676 -0.36863568 0.64388269 0.77935463
O 5.26035579 3.13616488 4.09272290 0.21454035 1.50041803 0.75913763
O 17.72675814 2.98537054 4.19208501 1.19464291 -2.25933959 -0.07148083
O 3.87117979 6.08913381 10.02439543 -0.24777678 -0.12250338 0.89915302
O 16.17876979 0.12461720 10.00998537 -0.41152743 -0.69561840 0.03844280
O 3.83131884 3.13298336 9.84676926 0.69462232 2.30253757 -0.35995928
O 16.31181689 3.15806778 10.08664856 -0.43625205 0.53223281 0.40483005
159
Lattice="24.766743 0.000000 0.000000 0.000000 6.131908 0.000000 -2.762775 0.000000 11.352893" Properties=species:S:1:pos:R:3:force:R:3 Energy=-622.530064 Virial="-56.937029 -0.767763 -1.439554 -0.767763 -48.194082 -1.543852 -1.439554 -1.543852 -40.015539" Ga_vac_type=Ga_oct Ga_vac_tier=low Ga_coord=6 defect_vacancy pbc="T T T"
Ga -0.05565517 0.05071203 4.53714115 0.37603749 0.22536837 0.31608016
Ga 12.45875540 6.09979199 4.50169655 0.21160695 -1.08035547 0.19219195
Ga 0.09743015 3.02645083 4.52935204 -0.40366757 -0.65169545 -0.45804199
Ga 12.38143727 3.05967910 4.52695792 -0.26903637 0.49733908 -0.24744972
Ga -1.42350667 6.03348272 10.21601459 -0.93039328 0.06545496 0.00617384
Ga 11.14349805 6.16089957 10.12150424 0.25548367 0.62458312 -1.01303650
Ga -1.33845063 3.17633170 10.21651686 0.40584641 -0.26621345 -0.20134838
Ga 11.05874389 3.01591555 10.21452081 1.39202027 -0.15947852 -0.16056627
Ga 11.02733232 -0.02671635 1.11614526 -0.50961642 -1.49367768 -0.96395776
Ga 23.35105178 0.06508206 1.14436545 -0.22730010 1.12350788 -1.03717045
Ga 10.96700979 3.00675824 1.20064726 0.96585000 0.44541052 -0.14183428
Ga 23.38907092 2.98410552 1.21822999 0.56484659 -0.70218659 -0.18061781
Ga 9.59792785 6.13430923 6.80495225 0.15121256 -1.20155136 0.12789107
Ga 22.00714120 0.16797312 6.78499522 -0.70058911 -0.68555404 0.55140751
Ga 9.63463402 3.06484358 6.87065782 -1.07105861 0.42068200 -0.78307720
Ga 21.95436168 3.00939381 6.73528768 -0.21685070 -0.91817898 0.23614236
Ga 6.25805363 1.46937550 4.53707787 0.01459573 0.04284525 0.42152248
Ga 18.53797533 1.44960222 4.43097668 0.05441616 -0.48970874 0.32468730
Ga 6.18063698 4.58278596 4.55258429 0.20790853 0.85935063 -0.97215214
Ga 18.56475563 4.62230112 4.56345423 -0.28902650 -0.52620791 0.19543279
Ga 4.87931654 1.52162730 10.15007886 0.30019115 0.25442259 -0.35429215
Ga 17.17324596 1.60296688 10.17976410 0.63585712 1.87784171 0.44253459
Ga 4.78716715 4.60350369 10.17430013 0.38852071 1.40720720 0.17007458
Ga 17.05221888 4.73497335 10.16618201 -2.16008368 -0.21273058 0.37709256
Ga 4.85665736 1.51523533 1.13546440 -0.69408118 -0.90724841 -1.54564377
Ga 17.22678713 1.53861679 1.15065551 -1.06693928 -0.07442857 -0.14468412
Ga 4.73146154 4.57684720 1.19997919 -0.15199452 -0.21405893 1.37234022
Ga 17.17569569 4.63198070 1.03028715 1.14134252 -0.08502151 -1.32383346
Ga 3.45039365 1.48057249 6.88399403 0.25987771 -0.31337127 0.01102826
Ga 15.95187036 1.56861902 6.76641304 -0.02508239 -0.81597263 -0.26487165
Ga 3.42139290 4.55560202 6.79668012 -0.49153802 0.64316471 -1.57279391
Ga 15.78690421 4.70650738 6.88503507 0.86474194 0.03754449 -0.32609955
Ga 1.57274706 1.56081921 1.79917083 -0.23243792 1.97237878 0.37215434
Ga 13.90532278 1.54622009 1.68633303 0.23550045 0.05314726 0.04313478
Ga 1.56908372 4.55672752 1.70377051 -0.55112991 -0.20773002 -1.07262263
Ga 14.00254356 4.68664830 1.75825077 -0.32340983 0.42081704 0.62724734
Ga 0.10524148 1.55153195 7.49576825 -0.47365199 -0.15384097 -0.52840498
Ga 12.54629669 1.43612775 7.49578408 -0.29122846 -0.24406878 1.01796870
Ga 0.16196109 4.53826179 7.51160247 -1.21762335 -0.20779907 0.45617845
Ga 12.54448619 4.57540390 7.41162736 1.14246990 -0.28804424 -1.49316139
Ga 9.52416983 1.51828519 3.91271854 -0.82747633 -1.93379698 1.28699455
Ga 21.84938049 1.57334812 3.90010928 0.23435644 0.50447378 -0.31877862
Ga 9.44969078 4.55808631 3.80383764 -0.94771654 0.72514345 -0.41408115
Ga 21.86155646 4.60119123 3.91679523 -0.30949245 0.55598960 0.34030657
Ga 8.00484584 1.52872544 9.46993712 0.88281038 0.87969332 0.28418816
Ga 20.46652729 1.57671314 9.47615415 -0.70152679 0.31377477 -0.04673956
Ga 7.98054041 4.61067041 9.61961286 -0.38529959 -0.43636834 -0.09003522
Ga 7.70285320 -0.02923781 1.70501840 -0.58773825 -0.62558182 1.71125406
Ga 20.08237422 -0.03649403 1.75720001 1.22826029 -0.16777199 0.82259391
Ga 7.73552100 3.12909850 1.78044246 -1.14173142 0.56623672 -0.62731240
Ga 20.11166917 3.12238181 1.78125801 0.08269059 -0.20797674 1.04320908
Ga 6.34509301 -0.05946829 7.49641466 0.40253452 0.52671888 -0.71640243
Ga 18.58796641 0.05592616 7.43209211 -0.85096289 -0.31544254 0.38697408
Ga 6.44170031 3.05563671 7.48058688 0.75007406 0.67982721 -0.31156633
Ga 18.63036633 3.00079120 7.39189024 -0.55175055 0.48719012 -1.94433967
Ga 3.31121128 -0.09584186 3.84799561 0.52234801 0.19884153 -0.45349798
Ga 15.75024097 6.20576186 3.88602480 -0.22025104 0.50461588 1.37373732
Ga 3.30997409 3.11480902 3.91792545 -0.37940529 -0.03448302 0.55061002
Ga 15.63830148 3.21287814 3.81984070 -0.91903425 0.04510041 -0.12171182
Ga 1.88886159 -0.02406028 9.47678961 0.49244703 -0.01038387 2.02386483
Ga 14.25760466 6.15242016 9.49621115 0.67605150 -0.44600044 -0.79913328
Ga 1.97407402 3.11979412 9.55163125 0.03012489 -0.62444902 0.35590902
Ga 14.32394036 3.06144188 9.45774525 0.80816975 -0.28224252 0.46712407
O 1.87755688 5.98973302 0.67124529 1.34822436 0.15703101 0.66989542
O 14.21638301 6.12679790 0.61529970 -0.64730607 -0.20197221 0.63959701
O 1.86858033 3.11475749 0.62453969 1.26984752 -0.51637108 -1.68720439
O 14.14509811 3.02220182 0.59838863 -0.32233195 -0.28354687 0.73426643
O 0.54858866 -0.01527794 6.27297972 -0.13497096 0.05549773 -0.01408933
O 12.81115345 6.11569091 6.27229648 -0.88363809 -0.37746515 -1.28011573
O 0.52983147 2.97616723 6.33147543 0.12621775 -0.12270330 -0.64698524
O 12.98737799 2.97654024 6.25643491 0.30273017 0.15110601 1.47468142
O 9.14615760 0.03744182 5.07097115 -0.59739206 -0.07973121 -0.23985575
O 21.51716213 -0.00714138 5.20769350 -0.24334813 0.86540665 -0.44929494
O 9.15152123 3.08331752 5.08951374 0.00698513 -0.37004580 0.51552468
O 21.48463522 3.10705471 5.17232404 1.75672861 0.90097372 0.08660811
O 7.77740077 6.14074705 10.81159900 -1.39572232 0.69191529 -0.77502386
O 20.22731263 6.19745803 10.68025576 -0.09597828 -0.01751169 0.10164596
O 7.81085212 3.11599956 10.71256675 -0.44833751 1.78993065 -1.19739452
O 20.20523185 3.02508739 10.75367669 -0.20351844 -0.34837951 0.27732797
O 8.12754588 1.54959933 0.54249152 -0.14751525 0.96225496 -0.40840887
O 20.51584473 1.59628412 0.65984280 0.63220579 -0.43004286 0.90386105
O 7.98620178 4.60017350 0.62270627 0.54954090 0.87706796 -0.71289798
O 20.43420690 4.74213250 0.69186671 -0.51122561 0.40565156 1.04926086
O 6.56482291 1.57585640 6.18244920 -0.14261692 0.49955432 -1.03871843
O 19.01377332 1.41428155 6.28951981 0.15055628 1.61176975 1.00929671
O 6.67728657 4.60698339 6.23174787 -0.39954917 -0.62781633 -0.83075418
O 19.13578675 4.71860561 6.31223202 -0.98224226 0.79572509 -0.10652960
O 2.95118286 1.55627508 5.02509879 0.42316394 0.40282376 0.96393524
O 15.35270765 1.55458426 5.14549665 0.48794683 0.43809882 1.54715256
O 3.05299056 4.57280727 5.08008017 -1.33852013 0.06025236 0.71291242
O 15.32657506 4.61442786 5.10065225 1.26085534 -1.01187587 0.43589802
O 1.57074564 1.69438499 10.73423068 0.18682341 -1.05357285 -1.14516669
O 13.90801512 1.53403622 10.80407165 -0.01410089 -1.67857958 0.41645337
O 1.53810304 4.68898531 10.73248987 0.24406758 -1.04594275 0.50671449
O 14.00238779 4.61076843 10.74594055 -1.04078084 1.51478338 1.31866089
O 1.40384798 6.12416883 3.16586262 0.72520673 0.61921378 0.22952197
O 13.71986813 -0.02854464 3.21066278 1.00769033 0.13637372 -0.48841010
O 1.35108188 3.19835034 3.14960456 0.46199505 0.48180466 -0.14068204
O 13.75047201 3.10368820 3.16058369 -0.14663982 0.16493632 0.87638349
O 0.02431643 0.03206439 8.88180657 -0.12515794 -1.21646413 -0.08285947
O 12.28861589 0.03879296 8.85501169 -0.50783071 0.06668351 -1.22765124
O 0.01224421 3.11215640 8.79163811 -0.40396841 -0.17795102 -0.56553575
O 12.41867251 3.08625990 8.95728460 0.32239556 0.17427597 1.63191576
O 9.72269966 6.12932302 2.49726316 -0.57541078 -1.28666771 -0.94694932
O 22.01908973 6.09966939 2.44419028 1.24398474 1.44592607 -0.03141094
O 9.59625266 3.10109126 2.56689171 -0.16939418 -0.26297508 -1.19356969
O 22.08031361 3.03405741 2.44456203 -0.22657619 0.92416504 -1.67754061
O 8.21996464 -0.05854751 8.10547657 1.34888148 -0.27863926 -0.40863105
O 20.60430934 6.14663466 8.20103392 0.38353700 0.41014937 0.74232188
O 8.34980725 3.11131956 8.15766102 -0.44734249 0.78838769 -0.81395887
O 20.63451719 3.10123522 8.09863616 -0.09888883 0.30096918 1.35902777
O 7.50029830 1.63683814 3.21563416 0.48471919 0.12439776 0.71271321
O 19.96204307 1.46421228 3.31133602 0.11258995 0.29104093 -1.18822845
O 7.63012978 4.61852582 3.24452828 0.34641610 -0.46392271 -1.95095135
O 19.97460363 4.59468792 3.24218832 -0.10766753 -0.70166251 -0.46921265
O 6.23482357 1.57547883 8.85130574 0.25983260 0.15084783 0.03757978
O 18.62239162 1.52788463 8.87301439 1.18581010 -0.63915778 0.64933629
O 6.22064467 4.51287455 8.86645613 -0.36681713 0.61871756 0.86076228
O 18.45728837 4.61249501 8.89876827 -0.56016193 0.11665020 -1.02782888
O 3.50180824 1.46746569 2.43336453 -0.96717910 1.95206125 -0.69839187
O 15.78061798 1.58606100 2.48265560 -1.01832851 0.33831758 0.18905492
O 3.44353322 4.51426842 2.47015469 0.93111592 -0.36567073 -0.13210264
O 15.76765005 4.58687188 2.52416741 -0.20836030 1.23961946 0.56981288
O 2.08833151 1.46253299 8.23109955 -0.13888714 0.75188512 1.25171917
O 14.40842047 1.56623221 8.15767674 0.07343133 0.42494296 1.69591058
O 1.93271739 4.64327666 8.12549804 1.07918172 -0.29380708 0.06337885
O 14.40349315 4.50527799 8.16136956 -0.48173877 -1.97004933 -0.24605869
O 12.00184179 1.45569266 1.39413810 0.59715923 -0.55205551 -0.08134701
O 24.36774544 1.64954549 1.40989128 -0.19377895 0.39616479 -0.31847947
O 11.99192941 4.61164830 1.39212511 0.95851034 0.10033764 1.20871991
O 24.36479891 4.60263742 1.56632026 -0.43286682 -0.75175654 0.19876972
O 10.58482938 1.58572374 7.17793675 0.42091951 -0.86393875 -1.09384617
O 22.90144096 1.48226549 7.19881019 0.31506007 -0.12530177 -0.33971318
O 10.62561872 4.65246166 7.19206020 -1.51284994 0.78876545 0.74514459
O 23.04315022 4.63305554 7.08250867 -0.38118071 0.44909078 0.28839743
O -0.91850351 1.55128713 4.21476631 -0.20837190 -1.66681855 0.09402465
O 11.37646335 1.52327354 4.27478565 0.06332901 0.32461817 -0.17175672
O -0.91279032 4.60894494 4.24149103 0.00249978 -0.41615734 0.13702557
O 11.48101257 4.50095524 4.16799342 -0.63975289 -1.79530032 0.08922603
O -2.38140864 1.57712039 9.85844212 -1.50168907 -0.66580548 -0.41936311
O 10.03155179 1.65048154 9.95094598 1.65314425 -0.48516248 1.59599688
O -2.25559383 4.51159066 9.96642162 -1.14915024 0.69695611 -0.93643489
O 10.05771900 4.58516544 9.93343517 -0.65149392 -0.66376317 -0.90874859
O 5.78113293 6.11383955 1.36981447 -0.18521333 1.07650545 0.45496919
O 18.17555307 0.00002828 1.54155680 0.63633826 -0.55236706 0.91253628
O 5.77249406 3.01181259 1.42471274 0.48402225 0.13287171 1.28428392
O 18.19892556 2.99714253 1.29323675 0.07926143 -0.05337143 -1.11619934
O 4.31755773 5.98810305 7.14468300 0.61692757 0.11096599 -0.36143087
O 16.75965349 0.01287286 7.07219678 -0.29295497 -1.01753144 -0.55483086
O 4.34836060 3.06134777 7.19099634 0.42514296 0.19222480 -0.10775316
O 16.83283624 3.14816760 6.96879887 1.36550965 -0.30635367 2.12736147
O 5.18363745 6.07849393 4.25458762 0.99177039 0.24547428 -1.09061085
O 17.68847531 -0.03716033 4.17686091 -0.29302430 0.42057953 -1.64877007
O 5.26958325 3.02723526 4.21182641 0.27141263 0.30289732 0.85825758
O 17.59147904 3.12477489 4.22382166 0.06388853 -1.89886115 0.06978840
O 3.82414434 6.02718846 9.95325865 0.41234515 -0.15800964 1.89928026
O 16.17125517 -0.08239417 9.94738602 0.32027784 0.17845848 -0.86473726
O 3.90147563 3.04458524 9.92370735 -0.00419755 -0.16929563 0.28878732
O 16.21670827 3.19685681 10.00902350 -0.40329971 -1.12779596 0.07194361
159
Lattice="25.071877 0.000000 0.000000 0.000000 6.207455 0.000000 -2.796813 0.000000 11.492764" Properties=species:S:1:pos:R:3:force:R:3 Energy=-622.391064 Virial="-53.933219 1.652022 -2.620648 1.652022 -46.987393 -4.889931 -2.620648 -4.889931 -46.420593" Ga_vac_type=Ga_oct Ga_vac_tier=low Ga_coord=6 defect_vacancy pbc="T T T"
Ga -0.03608371 0.08944964 4.54794613 0.03223741 -0.51674741 0.37193736
Ga 12.46122394 6.25745802 4.61275183 0.26171901 -1.85656196 0.35876054
Ga 0.12690180 3.07124388 4.56669026 0.86212959 -2.14289964 -0.51767658
Ga 12.68230896 3.13471735 4.56146166 -0.55082246 -0.91252826 0.53615783
Ga -1.39957822 6.20515110 10.27386733 0.00679670 0.38204979 -0.70534132
Ga 11.22653329 6.26046677 10.16646386 -0.33294890 -0.32948417 -0.89764528
Ga -1.49366908 2.98648524 10.32273990 -0.61183280 -1.01645755 -0.00526888
Ga 11.22473432 3.20371878 10.39421232 -0.67725846 0.90260062 0.70110014
Ga 11.13010643 0.02114984 1.13877870 0.23650264 1.22380989 -1.69563975
Ga 23.73493889 -0.06841614 1.17989351 1.36429145 1.74841446 0.14300840
Ga 11.04683062 3.18198551 1.26142213 -0.30225026 1.15133500 -1.31778721
Ga 23.65664713 2.98540650 1.11025076 0.07849165 0.57211046 -1.48060869
Ga 9.67607159 6.21437050 6.94629431 -0.62866805 -0.89633759 0.55025198
Ga 22.32529393 0.06051492 7.04734975 0.61573933 -0.65032193 0.01502284
Ga 9.75950603 3.18940030 6.96681577 0.98550323 -0.34703587 -0.84145847
Ga 22.36270769 3.17915296 6.93688453 -0.17186230 -0.49229061 0.36112960
Ga 6.30484131 1.63821318 4.52649268 0.47886077 0.47809605 -1.09879262
Ga 18.79550521 1.62911391 4.54157945 1.89142716 0.55577665 1.94746732
Ga 6.26468702 4.67263677 4.51958598 -0.25986745 1.07180789 -1.50293942
Ga 18.72366554 4.55360128 4.54884363 0.60233795 -0.98995401 0.19647055
Ga 4.92913541 1.53679682 10.31085087 -1.05260163 -1.23761779 0.86989854
Ga 17.36248183 1.46850048 10.41468133 1.20048821 0.08027396 1.09912558
Ga 4.80667194 4.50271137 10.40923907 -0.58387383 0.64538534 0.01428207
Ga 17.34827438 4.68095332 10.34155693 1.41787632 -0.51948778 0.78544126
Ga 4.85307272 1.52849704 1.15802327 -0.20187958 1.83775889 0.55637733
Ga 17.27150273 1.56888528 1.20017573 -0.65787112 0.22578180 -0.87129975
Ga 4.86957826 4.74645055 1.16716808 0.67817751 -1.00650002 -0.01623232
Ga 17.40822747 4.71293335 1.17324186 -0.69468526 0.36263167 0.40062987
Ga 3.41439576 1.53941980 7.01566454 0.88385681 -1.87672357 0.32985436
Ga 16.10937219 1.48487895 6.91280652 0.30637247 0.72040820 0.69677482
Ga 3.46113181 4.72326149 6.93752454 0.08775318 0.41274935 -0.93175868
Ga 15.98802824 4.59979503 6.86591199 -0.48052678 -0.23372452 -0.26048901
Ga 1.38976011 1.53908971 1.81633099 -0.70056677 0.91840741 0.92965593
Ga 14.10214107 1.58550596 1.85225819 0.27517387 -0.01438173 0.63866499
Ga 1.56453733 4.67039992 1.79306322 0.04303591 -0.17143589 -0.97103969
Ga 14.07665492 4.60449214 1.83475890 0.05724312 -0.50690612 0.26564342
Ga 0.11888875 1.54921357 7.43564508 -0.38619377 -0.33230369 -0.13308472
Ga 12.63465519 1.48197034 7.53021862 -1.02226689 -1.11744090 0.60531747
Ga 0.10227940 4.62359565 7.61997687 -0.42235831 -0.35968332 -0.26557446
Ga 12.76773352 4.69457665 7.51652027 -0.76846828 -1.00265197 -0.72212259
Ga 9.58103906 1.50483897 4.13720255 -0.86115628 -0.52099471 -0.17597313
Ga 22.03229097 1.53218486 3.89421455 0.53028461 0.03013334 0.13775217
Ga 9.74484157 4.74145704 4.01869355 0.12234087 -0.64392156 0.42205886
Ga 22.15002075 4.57060344 3.91213507 0.86815292 1.11467796 -1.06600712
Ga 8.22860590 1.51538810 9.66382943 -0.87215499 1.02817657 -1.58391352
Ga 20.66944170 1.57205882 9.74474172 -0.05900620 0.05930192 0.65825340
Ga 8.25196855 4.72794621 9.58198829 -0.36779523 0.98351802 -0.96959353
Ga 20.62775416 4.80749669 9.67185052 0.17666113 1.13966536 -0.92713259
Ga 7.86635420 -0.00561967 1.79893391 0.96068499 -0.96240463 0.10613778
Ga 20.36865366 0.14383955 1.85761722 0.69637784 0.04605811 0.33862049
Ga 7.79535482 3.24302750 1.87110739 0.42298117 -0.19278527 -0.73645465
Ga 20.40054211 3.03730051 1.76204231 -0.03691005 -0.27458250 1.13899767
Ga 6.47154359 -0.04993774 7.55907587 -1.62780448 1.07587294 -0.22052382
Ga 19.01233955 -0.01100304 7.58790853 0.79608080 -0.70484951 0.86370747
Ga 6.44486153 3.10466990 7.58999704 0.63764424 -0.44939106 0.50655150
Ga 18.95168625 3.03222134 7.62285491 0.41417541 -1.12915929 -0.77571227
Ga 3.34156031 0.20664439 3.84016660 0.27989399 -0.89541508 -0.42521971
Ga 3.25534845 3.11629400 3.89579982 -1.27990968 1.20174229 0.80516426
Ga 15.80042258 3.23246388 3.91295242 -0.54924002 -1.10472175 0.71498765
Ga 2.00548712 0.00842821 9.76730750 0.98200996 -0.19538279 -0.41213389
Ga 14.32629320 6.23756671 9.67822377 -0.91615892 0.53416978 0.62326215
Ga 1.87601019 3.13419391 9.75524637 0.70201602 -0.52810120 0.31241936
Ga 14.41248374 3.23475396 9.67541270 -0.13852487 0.33340047 1.04577587
O 1.91562959 6.23329852 0.74180540 -0.67608521 -0.98257191 0.75002096
O 14.50422412 6.16361000 0.66938747 -0.53244094 -1.30345529 0.38394146
O 1.90414708 3.11615162 0.74229272 0.40826796 -0.19077494 1.36778592
O 14.33709859 3.12006072 0.74687348 1.31622103 -0.57253708 0.08271283
O 0.36916311 0.03679497 6.25692783 -1.44331613 0.86267559 0.49029748
O 12.90831170 6.18874068 6.32790598 0.01769005 0.81390799 1.03563960
O 0.57858407 3.01147992 6.40793683 0.55756059 0.68758105 0.89142527
O 13.10511079 3.12688178 6.39075121 -0.98321152 -1.15403803 -0.17500957
O 9.32985860 -0.08653854 5.09162314 -0.07630700 -0.03416216 -0.54829206
O 21.81223284 -0.11816754 5.16424186 -0.15311131 -0.68056253 0.90527160
O 9.27017628 3.11659473 5.17913594 0.33131924 -0.61209719 -0.48814677
O 21.71742743 3.19112476 5.09672326 -0.50218038 -0.35489958 -0.59794166
O 7.85196862 6.14618074 10.83791792 -1.24335310 -0.34883052 -0.68474564
O 20.25754253 6.15484775 10.86184797 -1.36514493 0.26288942 -0.86289091
O 7.82027105 3.02143390 10.88811940 0.68173199 -0.03403149 -2.21610887
O 20.45236881 2.96119796 10.98029316 -0.30057570 -1.05759942 -0.45880297
O 8.13827522 1.55423479 0.62511027 1.06483880 0.33240158 0.54088960
O 20.76402224 1.52059357 0.63682272 0.48854241 0.67645195 0.46434999
O 8.20474740 4.61777129 0.73292151 0.07937366 -0.59588753 0.28461729
O 20.57170618 4.62631288 0.63494612 -0.07154037 -0.10521932 -1.34010484
O 6.77940549 1.50219870 6.25638931 0.67784573 -2.10545884 0.44531653
O 19.27734574 1.55450623 6.30972751 0.24798657 0.05168631 -1.74894904
O 6.81389975 4.73233207 6.36427550 -1.05892980 -1.08073995 -0.36818196
O 19.19130996 4.62351507 6.38398801 -0.19667131 -0.27129936 -0.33988319
O 2.98707080 1.41934480 5.22487990 -1.55792995 1.36159805 0.90314288
O 15.42335042 1.63590633 5.15533202 0.32888033 0.83502291 -0.18679031
O 3.00564299 4.57599258 5.21232099 0.57777993 -1.08852404 -0.06750351
O 15.61319145 4.66476893 5.21114523 -0.28987157 -0.04454153 -0.27336918
O 1.58855675 1.56171059 10.86175717 -0.45065248 -0.84220686 0.30791272
O 13.97850958 1.42803410 10.78887042 0.38282135 0.09321542 0.09281653
O 1.47323497 4.65445734 10.89046092 0.63531113 0.16373124 -0.22865493
O 14.07803193 4.58978392 10.86421058 0.72097050 -0.29091162 0.58985692
O 1.41434394 6.26733777 3.27672813 0.40382164 1.75596511 0.25013821
O 13.81646340 0.03413904 3.23840375 0.78437747 1.80822405 0.98136308
O 1.42293465 3.08608545 3.19713472 0.13213995 0.67975624 -0.12025847
O 13.98833758 3.14881863 3.25454090 -0.44012682 -0.07923998 -0.96951651
O -0.05652719 -0.05458312 8.94837951 0.84304806 -0.03907539 -0.96684650
O 12.57372001 -0.03228877 9.01098415 0.36022444 0.79743832 -0.18054169
O 0.04004935 3.17036547 9.00061485 -1.81591416 0.54992018 0.64044668
O 12.56149443 3.13955365 8.94341631 -0.48908158 0.20186340 0.59432588
O 9.76769906 6.19982109 2.41605372 1.14989614 0.28928322 -1.48426902
O 22.25519874 6.28070645 2.61177890 0.13651351 0.22271277 0.13863704
O 9.68494178 2.98437826 2.42873318 -0.85040168 0.20654384 1.01724104
O 22.24982928 3.06727495 2.48273098 -0.08305634 -0.52277089 1.35977434
O 8.34604933 0.14569136 8.27287560 0.94608466 -0.24686495 -0.36616653
O 20.80933651 6.14686729 8.25307494 1.17747142 0.36595767 1.01152571
O 8.36527825 3.19680601 8.27070841 -0.01886752 0.90349454 -0.37351369
O 20.91407007 3.06764012 8.20078464 0.53232308 0.22415258 -0.97798185
O 7.62790960 1.52290807 3.08500674 -0.32429621 -0.45427369 0.73333080
O 20.13543731 1.53586032 3.26547025 -0.18744135 -0.33690415 -0.32858677
O 7.74692444 4.68122902 3.21939914 -0.56590487 -0.38648779 -1.20735242
O 20.22734831 4.70697835 3.30363400 -0.55219765 -0.12309920 -0.36829964
O 6.33240824 1.53238490 8.97568360 0.55259361 0.55251402 0.33223774
O 18.75300142 1.57744513 9.08818782 -0.19166106 -0.41057520 -0.89987801
O 6.26710364 4.68480066 8.91912773 0.33800457 -0.65153108 -0.23455783
O 18.73209729 4.63985487 9.00708062 -0.09885176 -1.16612855 2.14753056
O 3.50858773 1.47072537 2.45379481 -0.40348726 -0.76249915 -0.13403099
O 16.00359853 1.52385270 2.61409446 -1.45539670 1.02136136 0.78554066
O 3.49219708 4.66973969 2.54044369 0.97366943 1.08971298 0.92017436
O 16.05827365 4.59048838 2.51264055 0.64338283 0.90207956 0.32126715
O 2.14487951 1.44609496 8.18755122 1.08049446 0.77423723 -0.25389864
O 14.62065411 1.54159094 8.27084814 -0.07349981 -0.53449551 0.24990521
O 2.03557916 4.78760681 8.23439192 0.84992101 0.94495144 0.37097336
O 14.57304230 4.60513846 8.36791171 0.67035241 -0.86326596 -0.59812560
O 12.14401468 1.57840173 1.59133367 0.12069419 0.91582062 0.54160041
O 24.74402916 1.50312529 1.47577785 -0.50147561 0.56008201 -0.83052744
O 12.05554449 4.79298919 1.52079880 -0.20191281 -0.22911761 -0.89870795
O 24.52752972 4.78078154 1.47652841 -0.15108560 0.32738839 0.05651083
O 10.69945938 1.62380141 7.28611625 -1.15740312 1.69736976 0.27940615
O 23.21253075 1.51212005 7.23533106 -1.49866447 -0.15284296 -0.26718952
O 10.67312082 4.60974690 7.24358932 -0.10819146 -0.62211387 -1.15376574
O 23.22864874 4.70086883 7.27189441 -0.47426414 1.17102230 0.06588692
O -0.93253522 1.52646639 4.16343231 0.34309083 0.30621419 0.08949719
O 11.53476279 1.60288802 4.29853532 -0.99742365 -0.32911232 0.30791572
O -0.87215419 4.60105103 4.27076055 0.25992013 -0.78968433 0.49279357
O 11.58808847 4.68121702 4.44902194 -0.51820514 -0.61790582 -0.71912728
O -2.37919102 1.46156829 10.14776648 0.25188454 1.23064184 -0.91024991
O 10.07385035 1.40986808 9.97371441 -0.18242241 0.48586820 -0.64604049
O -2.43084381 4.67299603 9.96123566 0.11934306 0.13209876 1.89338449
O 10.13854991 4.79593448 9.99506937 0.28168909 1.28494241 -0.46057447
O 5.94788670 6.34515448 1.57196348 0.41289451 0.13102192 -0.49916150
O 18.34927308 0.07807581 1.45174218 -0.02321068 1.80896719 -0.04075753
O 5.77553550 3.02135211 1.45222044 -0.20512326 -0.46828407 0.84990917
O 18.35278313 3.12519884 1.38797030 -0.96404128 0.34681510 0.72392209
O 4.48453612 6.14593220 7.17041396 0.09411940 -0.58344469 -0.16599083
O 17.09985720 0.01029896 7.25133109 0.53397632 -0.10154607 0.06597425
O 4.37560734 3.12168055 7.21204506 -0.52899147 0.65231849 0.85025949
O 16.82686725 3.07908401 7.04912589 0.21342385 -0.64037678 -0.37794443
O 5.29010279 6.28949394 4.24224196 0.70462177 0.23215826 1.64994325
O 17.76164765 -0.07221429 4.25418802 0.70384463 -0.13859203 0.60905889
O 5.29819494 3.12155587 4.25346489 -0.65035388 0.46631899 -0.44612029
O 17.82611488 3.11613185 4.28025416 -0.52909546 0.39139882 -1.39106655
O 3.77346429 6.19314170 9.89636778 -0.03686333 -1.04058604 -0.18188892
O 16.44373297 0.00395374 10.17325642 0.50678605 -0.77669411 -0.48587760
O 3.81321632 3.22875646 10.08771312 0.81996648 -1.04289203 -0.10862907
O 16.40894452 3.15314361 9.99389361 -1.01733518 1.58404760 1.24711008
159
Lattice="24.965748 0.000000 0.000000 0.000000 6.181179 0.000000 -2.784974 0.000000 11.444115" Properties=species:S:1:pos:R:3:force:R:3 Energy=-622.691997 Virial="-56.563567 1.198696 -0.460800 1.198696 -44.603609 -3.697322 -0.460800 -3.697322 -39.524114" Ga_vac_type=Ga_oct Ga_vac_tier=low Ga_coord=6 defect_vacancy pbc="T T T"
Ga 0.02407529 0.02400912 4.64044768 0.24519327 -0.14754697 1.16570203
Ga 12.42615907 6.18818034 4.51191460 0.19572123 0.23335018 0.13231098
Ga 0.08465212 3.13483699 4.48905990 -0.35889339 0.73156862 0.54217671
Ga 12.57763626 3.03857243 4.52631784 -0.38879844 -0.59032404 -0.14795410
Ga -1.41015771 6.15504230 10.28886588 -0.53067411 -0.69512434 -0.74801699
Ga 11.11923619 6.13200702 10.22998657 0.42707166 -0.10768441 0.26000000
Ga -1.35532565 3.11153203 10.33208351 -0.43319929 0.98052104 0.76297297
Ga 11.09260495 3.05218106 10.27268818 0.33592115 -0.16619321 1.12039229
Ga 11.08978167 0.05350186 1.17813782 0.81736836 0.15722418 0.83574476
Ga 23.61972529 -0.06811618 1.25182009 -0.43214458 0.82392561 0.16941408
Ga 11.09369603 3.10631993 1.20004469 0.07860049 -0.12980387 0.47210739
Ga 23.59678995 3.09137106 1.09886823 0.14305611 -0.98241967 0.77161437
Ga 9.67793324 6.18648044 6.93364921 -0.99672689 -1.51551597 -0.25217517
Ga 22.11083889 0.04316396 6.83000596 0.68302641 0.56373559 -0.39046732
Ga 9.68261823 3.10263183 6.92754618 0.50287635 -0.66772228 0.64348156
Ga 22.13886285 3.18627840 6.92569636 -0.48289203 -0.56095238 0.27261455
Ga 6.31039297 1.62346352 4.47397331 0.13646388 -1.29219185 0.43295605
Ga 18.67542086 1.58282770 4.59992337 -0.38713881 0.88116321 0.15355468
Ga 6.33598462 4.63681173 4.57170814 0.48534321 1.59831795 -0.73481677
Ga 18.62712584 4.67544783 4.57420255 -0.47033414 0.93311334 -0.28807238
Ga 4.83924835 1.53268084 10.25301108 -1.36315754 0.90888274 -1.14534645
Ga 17.38774328 1.59134487 10.28407749 -0.41542643 -1.90629482 -0.12676424
Ga 4.82025440 4.63723201 10.28937813 0.86549005 -0.66830869 -1.42564725
Ga 17.31350497 4.55398077 10.34472582 0.43628730 0.78799632 -0.44716004
Ga 4.82340245 1.53261135 1.19738947 0.07987652 -0.20604268 0.36613698
Ga 17.28514300 1.55958099 1.25195217 0.51744796 -0.54167271 1.12815080
Ga 4.83851483 4.60066805 1.15860891 0.74948046 0.03063900 0.14138305
Ga 17.27362475 4.60017122 1.15331646 0.87302535 0.47022369 -0.25419143
Ga 3.37627012 1.54413662 6.88957019 1.07677260 0.36812954 -1.10246077
Ga 15.93298522 1.60535957 6.94700800 0.12548486 -1.22235644 0.23882218
Ga 3.37433403 4.66543572 6.89195494 -1.98356973 -0.44284873 0.65980399
Ga 15.93318905 4.61040173 6.86261189 0.19411743 -0.79982062 0.14848371
Ga 1.45500815 1.58877847 1.81806436 0.33073095 0.38268477 -0.19671116
Ga 14.06611435 1.50632309 1.79737276 -1.19624970 -0.02135075 0.19993193
Ga 1.57907404 4.65946099 1.84303530 0.38648322 0.89062647 0.51937344
Ga 14.07259148 4.64953077 1.81718085 0.04917956 0.19942463 0.01309628
Ga 0.11582374 1.50408242 7.54096843 -0.12764698 0.30126253 1.18102675
Ga 12.57988255 1.53345711 7.49813422 -1.28215657 1.09312610 -0.59086991
Ga 0.06764040 4.66930264 7.48473745 -0.67073992 1.47116052 0.18520870
Ga 12.53358679 4.64652276 7.51398619 -0.08437455 0.61709483 -0.69255483
Ga 9.62211757 1.54426519 3.95585459 0.19413360 0.59686008 0.00287006
Ga 21.99686283 1.51956055 3.88604927 -0.25891510 -0.11196770 -1.16857674
Ga 9.61190283 4.57977444 3.96468739 0.37337949 0.36601215 1.09533830
Ga 22.10622310 4.60549178 3.89004681 0.67843465 -0.90483817 -0.35673931
Ga 8.20683692 1.60072136 9.62424154 -1.51555560 -0.25102034 0.75483787
Ga 20.64608096 1.56806527 9.72517816 0.54516001 -1.29136817 0.09280835
Ga 8.21113784 4.69344972 9.67447261 0.06223434 -1.11082618 -0.43708094
Ga 20.63819282 4.62026528 9.68375285 0.93486142 -0.97236052 -0.05578059
Ga 7.78414815 0.03822496 1.79196979 0.20999297 0.41108370 0.48389260
Ga 20.28231932 -0.02734313 1.78251074 -1.28137385 -0.06774350 -1.07200332
Ga 7.82344687 3.07073236 1.81274217 0.29054061 0.75142906 -1.68967202
Ga 20.21734274 3.04556182 1.78428307 0.59600901 0.40905039 0.57418118
Ga 6.37553384 0.00215432 7.50143678 0.02164808 0.09575731 -0.04109105
Ga 18.87312424 -0.06552626 7.50725467 0.16116803 -0.46719898 0.93170821
Ga 6.42933418 3.11627666 7.45880709 -1.01328813 0.17776822 -0.41394279
Ga 18.84610513 3.05599924 7.44570202 0.43813357 -0.20763390 0.85511772
Ga 15.69945446 6.15401281 3.95918611 1.10678546 0.29859256 0.50903824
Ga 3.35964998 3.13125967 3.93998236 0.26606005 0.27966995 -0.76683501
Ga 15.71908093 3.10602405 3.89579144 -0.69955515 0.35513691 -0.67713972
Ga 1.98547103 -0.05975708 9.61216926 0.72496966 0.69253817 -0.42081086
Ga 14.38931689 6.10599831 9.62054358 -0.82105025 -0.27063824 -0.74742148
Ga 1.95747533 2.99086070 9.64393533 0.03374232 -0.28675231 0.76952449
Ga 14.43000984 3.00968814 9.56831242 -0.33037475 -0.76419033 0.50578864
O 1.87365189 6.22679367 0.70747093 0.40977710 0.66892443 -1.60781154
O 14.40135601 6.12658838 0.66770321 -1.30632716 0.61603919 0.96163072
O 1.98269780 3.09127918 0.67912134 0.24657304 0.55940763 -0.60320597
O 14.31518988 3.11862184 0.66841301 1.04290748 0.25254417 0.84432356
O 0.44227871 0.03029529 6.35484202 -0.29905678 -0.81250445 0.98058749
O 12.96183756 6.10520132 6.36237065 0.23249560 0.82089345 0.45153340
O 0.51950150 3.05453904 6.36172572 0.52483742 -0.27902181 0.11985430
O 13.01213412 2.99973772 6.27220863 1.72156269 0.55895058 1.27924899
O 9.20856031 -0.03778050 5.15790813 -1.07938471 -1.29262432 0.53571549
O 21.64569474 0.03092461 5.03209101 -1.49498197 -1.96612467 -0.81763617
O 9.30021547 3.06800480 5.16479510 0.42500213 -0.22531049 0.50115091
O 21.69936833 3.12267767 5.04021262 1.45188066 -0.05441656 0.93813307
O 7.84524907 6.20126058 10.74922282 -1.51699999 0.27657955 -0.86393334
O 20.25503590 6.18730581 10.87972126 -1.13200428 0.04968561 0.54219371
O 7.76517915 3.08387238 10.77873618 0.21098147 -1.21013130 -0.06811988
O 20.28786294 3.05069558 10.83256456 0.74237874 0.65923077 0.94477951
O 8.15177398 1.51171658 0.61668885 -0.37157434 0.52634292 -1.51302278
O 20.58056537 1.49806365 0.60469728 -1.20409427 0.58224311 0.87458992
O 8.17706584 4.59358696 0.62444616 -0.56882480 0.34710682 0.17599195
O 20.51646868 4.65053382 0.68100194 0.36295871 -0.45963640 -0.90264508
O 6.77359794 1.58797917 6.33577603 0.45334054 -0.86243660 0.01297335
O 19.22655553 1.47449189 6.35998312 0.12878794 0.19811640 0.23572398
O 6.82321171 4.67347689 6.36470056 -0.73024498 0.73336431 0.23008932
O 19.26285930 4.65879719 6.35477786 1.61870406 -0.11229879 -0.14935575
O 2.97410391 1.58034536 5.14363347 -0.62329069 1.23044816 -0.13878715
O 15.45204382 1.53076703 5.10402028 -0.89323372 -0.01811840 0.69790858
O 3.02660710 4.56803601 5.15520638 -0.86335701 -0.88425252 -0.84984153
O 15.45761679 4.53785518 5.11979696 0.43419134 1.23230061 -2.73227152
O 1.55967019 1.57010160 10.87130124 0.23154049 1.00320198 -0.46284497
O 13.99510406 1.48657876 10.87407526 -0.78673102 -1.74585279 0.31664172
O 1.55805753 4.59702726 10.88953404 0.01942559 -0.18177355 -0.26018975
O 14.07256463 4.62259814 10.80108958 1.93677999 0.31797590 0.66325075
O 1.24467100 6.18393136 3.25323185 0.04024547 -0.31256699 0.19127939
O 13.84964821 0.11236421 3.27684306 0.31206007 -0.40995228 -0.87707214
O 1.39163113 3.13564939 3.16196334 0.02290089 1.08958236 -0.66673051
O 13.85966507 3.01664416 3.29948965 0.01999213 0.30601957 -0.65470985
O -0.02290436 0.00236104 9.04780394 -0.28861188 1.29637709 -0.49421052
O 12.52031453 -0.01471563 8.95595043 0.36957079 -0.39812653 0.41641633
O 0.01643877 3.04788557 8.86976570 -0.89655588 -0.50378513 -0.30491954
O 12.46224489 3.12411409 8.94516843 -0.34386023 0.42061305 0.26399996
O 9.69096319 6.14913923 2.46516474 0.50477468 0.81277846 0.37650647
O 22.21287331 6.22792743 2.39361936 0.66800128 -0.41698091 0.01460603
O 9.73039243 3.07059244 2.49428634 -1.47266701 0.90157054 -1.14572589
O 22.23824722 3.14019644 2.46055013 -0.05619822 0.47412829 -0.27169457
O 8.37076412 -0.00640828 8.20299434 -0.67934527 1.27115480 -0.78152177
O 20.75538007 6.19387297 8.08708106 -1.49673179 -1.49606082 -0.01907791
O 8.27718860 3.07571508 8.22195315 -0.10986449 -1.15143434 0.09528813
O 20.79362840 3.07792594 8.21185636 -0.11668059 0.39010329 -0.98426464
O 7.61761884 1.58178371 3.22574538 -0.12346772 -1.04776942 0.13573774
O 20.05902963 1.53705462 3.21280785 0.80853539 0.42422893 -0.16112602
O 7.64578562 4.58125831 3.19122509 1.17880184 -0.91074725 0.93040109
O 20.05024528 4.61880791 3.19153921 1.07194827 0.73588992 0.14337511
O 6.16047054 1.53471616 9.02914771 -0.10512078 0.39615771 -0.61917106
O 18.74386436 1.51705503 8.92320707 1.19616708 -0.09944552 -0.39347359
O 6.25713403 4.67727291 8.87517653 -0.54606656 -0.02384730 -0.73373973
O 18.70484266 4.55227657 8.89518678 -1.44671638 0.16776712 -0.14844910
O 3.48477931 1.55639291 2.43158399 0.78674774 1.31019026 -0.01664411
O 15.99459690 1.44143216 2.57192055 2.22549629 0.58643800 0.17648457
O 3.48428990 4.59660740 2.56175489 0.12290052 -0.40590115 -0.69334755
O 16.04582002 4.60898932 2.51016054 0.69316131 -0.03726518 0.64386321
O 2.00241076 1.49603828 8.17509633 -0.08545517 1.44251726 0.79152042
O 14.52906978 1.56099060 8.22898737 0.17776639 -0.11557790 0.46671411
O 2.07180879 4.64707954 8.18276152 -0.37601204 0.48983909 -0.31606078
O 14.59478299 4.60439288 8.23051956 0.16466389 -1.46767111 0.99998056
O 12.10059474 1.65946589 1.45310125 0.12880119 0.00090554 -0.08431928
O 24.53334792 1.49826415 1.54967864 0.15927792 -0.78626081 -0.10446317
O 12.09628324 4.71178303 1.41443052 -0.42120298 -0.76252358 -0.95106448
O 24.57599285 4.58569507 1.38373076 0.84801483 -0.24830657 0.48178023
O 10.70318420 1.51692412 7.11701767 -0.31315087 -0.05051590 0.49562635
O 23.12827354 1.56135085 7.17935874 -0.14157085 -1.80677930 -1.08682967
O 10.68173286 4.63511241 7.25313956 -0.68403303 0.08029517 0.47314586
O 23.05742738 4.52960550 7.18303175 -0.83782821 0.37584145 -0.37265807
O -0.99375835 1.61987362 4.27025568 0.89733952 -0.05160966 -0.35476592
O 11.50099951 1.49224817 4.33062875 -0.02630104 -0.91696962 -0.61045656
O -0.95067761 4.61692418 4.23699179 0.10956046 0.60968196 -0.74317983
O 11.56781428 4.62091424 4.27103565 -1.02773457 0.50252755 -0.39877232
O -2.39884978 1.49299827 9.95863764 -0.75077075 -0.99193686 0.55534041
O 10.11336541 1.49668528 10.06178430 -0.20496211 0.99355408 -0.97642893
O -2.35934653 4.59145571 10.01607196 0.43189431 -2.25150091 1.16607452
O 10.03767434 4.62329174 10.01704164 -1.05947129 -0.07019276 0.18980297
O 5.78227234 6.19499757 1.48045158 -0.72140053 -0.61626272 0.22622409
O 18.30372761 0.04332061 1.49486921 -0.09107583 -0.55783757 0.86630709
O 5.84527984 3.11453749 1.46319679 0.05422341 -0.53761407 1.24525999
O 18.26957424 3.10376328 1.44771848 -0.41592927 1.31073712 0.75453396
O 4.52248369 6.14114552 7.25227378 0.16796353 0.41768111 -0.32604932
O 16.87591704 0.07485302 7.20827778 0.03208718 -0.50766558 1.34217283
O 4.43438444 3.06317138 7.17485356 1.33304650 0.18317033 -0.62269013
O 16.93247007 3.01872912 7.16122537 0.78508382 -0.15799707 -0.44150183
O 5.22610500 6.17258689 4.26928948 -0.22038602 0.59061858 0.95680417
O 17.77573376 -0.03169442 4.28722733 1.70438076 -0.38591177 -1.72203857
O 5.26035479 3.19429079 4.21238318 1.26550871 1.57252430 -0.33071295
O 17.81181290 3.14125780 4.22544155 0.57273210 -1.21582795 0.66300987
O 3.93924301 6.18178333 10.04266456 -1.27848516 1.66734527 -1.36158845
O 16.31863000 0.04461772 9.95432272 0.49354830 -0.21047166 0.64989237
O 3.89478001 3.02386204 9.96041674 -0.29268234 0.65753190 -0.17300168
O 16.32775620 2.97867812 9.99995491 -0.88891279 -0.57066345 1.19239408
159
Lattice="24.816330 0.000000 0.000000 0.000000 6.144185 0.000000 -2.768306 0.000000 11.375623" Properties=species:S:1:pos:R:3:force:R:3 Energy=-620.626559 Virial="-53.695432 1.884762 -4.400274 1.884762 -43.255423 -3.919867 -4.400274 -3.919867 -41.124094" Ga_vac_type=Ga_tetra Ga_vac_tier=low Ga_coord=4 defect_vacancy pbc="T T T"
Ga 0.05702132 -0.01076977 4.47888240 0.11907348 -0.61453974 -0.25220277
Ga 12.43138460 6.15751423 4.49865681 -1.23392230 -0.36787339 0.31401085
Ga 12.42117006 3.03352887 4.52839348 -0.56078198 1.19012101 0.74221666
Ga -1.39814571 6.15799248 10.30713317 0.28049030 -0.04841441 -0.25501607
Ga 11.05216571 6.14992645 10.15758927 0.92448271 -0.52739983 0.07928016
Ga -1.39686352 3.04242231 10.23736290 -0.61368253 -0.11317855 -0.19804439
Ga 11.00603639 3.10605792 10.13506135 -0.35439265 -0.49507418 0.27368519
Ga 11.02465465 0.02198711 1.05655765 -1.14224914 -0.31168408 -0.06025856
Ga 23.34882413 0.01772270 1.16889983 -0.26948738 0.27088842 1.24219723
Ga 11.00519383 3.08365965 1.06952276 1.13001270 1.28944407 1.34620142
Ga 23.44833681 3.10585681 1.20665062 1.39919497 -0.95900351 -0.40136335
Ga 9.66435178 6.10779300 6.84787812 0.67142799 0.57967811 -0.96919173
Ga 22.08379656 -0.00042563 6.92205236 -1.36543808 -0.32869379 -0.63334236
Ga 9.63838431 3.05681393 6.86655027 -0.16052817 0.55708078 -0.83591553
Ga 22.03204116 3.11636489 6.94473738 -1.46477309 -0.96107391 -0.35316720
Ga 6.23601494 1.53280498 4.51290086 0.11087579 -0.18634117 -0.57428133
Ga 18.62680652 1.56727050 4.52691188 -0.45938201 -0.48834495 0.57877536
Ga 6.23812548 4.57619577 4.49592167 -0.06415144 -1.10196091 1.63355017
Ga 18.56353229 4.55004771 4.51273884 1.11802042 0.15476506 -0.49985205
Ga 4.83094136 1.56455291 10.05338232 -0.30017355 -0.02301963 1.54518835
Ga 17.22855277 1.56092309 10.19929691 -0.35567796 -2.07655841 1.67093730
Ga 4.86781144 4.60816473 10.21738087 1.26265337 -0.10768952 -0.78285687
Ga 17.27666888 4.65706869 10.13138818 0.91022558 0.70632567 -0.02061918
Ga 4.79677710 1.61491126 1.25545334 -0.71745346 0.91763681 1.03523612
Ga 17.20581386 1.51531507 1.12414212 0.37052167 -1.06364607 0.15457379
Ga 4.72421070 4.58598598 1.16652266 -1.53673223 -0.74486099 -0.24092791
Ga 17.20166190 4.61123804 1.21036402 0.29628011 0.80525945 0.40327523
Ga 3.44248149 1.59014683 6.80721533 -1.20109297 -1.39092112 0.29237369
Ga 15.84915573 1.61664856 6.89900820 -0.68492558 0.11426164 0.29848265
Ga 3.41530302 4.55767841 6.87895440 -2.07706001 1.24123763 -0.06123362
Ga 15.85591445 4.62903086 6.89178824 -0.20745546 0.53131552 -0.07977550
Ga 1.60171507 1.56632004 1.66841880 -0.47798121 -0.02009214 0.51879984
Ga 13.98227575 1.50850793 1.71907322 -1.09216938 -0.19429313 0.36482099
Ga 1.50308712 4.68015799 1.77041733 -0.23986895 1.45380392 -1.12563541
Ga 13.94349036 4.59132583 1.73227103 -0.89737355 0.40301620 0.73447353
Ga 0.07704599 1.49981967 7.54890623 -0.90963619 -0.18055760 -0.67874359
Ga 12.61550788 1.47151725 7.46547399 -0.63712817 -0.54138806 -0.70833521
Ga 0.15630946 4.59207499 7.41796148 1.32404989 0.35762187 -0.07505364
Ga 12.59027148 4.57429023 7.47129654 -0.95817088 -0.46994141 0.70012859
Ga 9.54880060 1.56176669 3.88592850 -1.09470394 1.08462601 -0.35000930
Ga 21.89792579 1.53487261 3.94005650 0.98106501 0.52729820 -0.27768137
Ga 9.42252233 4.61414522 3.90746696 -1.37561111 -0.96139588 -1.23394071
Ga 21.78692424 4.59349679 3.86014551 -0.52138813 -0.69295127 -0.26984456
Ga 8.13018473 1.48502512 9.64800658 0.84369248 -0.03309960 -1.12984187
Ga 20.54299849 1.55967035 9.53445294 0.53936338 -0.45285799 1.96876903
Ga 8.08822073 4.59008096 9.63950008 0.55527905 0.08137334 -0.72045579
Ga 20.46662221 4.66426870 9.59089150 -0.76014205 0.31832031 0.40878565
Ga 7.81577126 -0.01091677 1.84186931 1.01742694 -1.19929098 -1.17184030
Ga 20.10140213 -0.02728180 1.84493970 1.13632804 1.18280754 -1.05231564
Ga 7.76196006 3.08278232 1.82763867 -0.32961284 0.45556943 -0.30560194
Ga 20.13566931 3.08114325 1.75158599 0.50889891 -0.31688623 -0.57049290
Ga 6.32377943 0.11472320 7.42753899 1.48218682 -0.66764390 0.88271134
Ga 18.74026628 0.07977848 7.49659088 -2.69473199 -0.29713868 0.42234463
Ga 6.34008558 3.08855692 7.50529134 0.09091955 -0.77927782 -0.10484561
Ga 18.76447209 3.05385261 7.49830830 -0.19817524 0.23308447 -0.08058106
Ga 3.19507183 -0.11412360 3.94356967 0.80631350 0.37135321 -0.97109664
Ga 15.67993733 6.13392671 3.89091015 -0.37330795 0.48775804 0.36084049
Ga 3.34182339 3.07263330 3.89522038 0.56844474 0.51334111 1.17533442
Ga 15.72993654 3.05003524 3.92838396 -0.28605494 -0.41668855 0.59708660
Ga 1.91164573 0.07399369 9.54155931 0.60943199 1.13853471 -0.14085293
Ga 14.42708266 6.10876371 9.70243203 0.21915412 -0.49248953 0.54544699
Ga 1.89844279 3.08326948 9.57327647 -1.40687587 -0.08986402 -1.00082899
Ga 14.30821384 3.08447621 9.61542958 0.44724509 0.11752809 0.60439037
O 1.81575682 6.18362276 0.58602059 -0.08902984 -1.47457054 -1.25720995
O 14.24845120 6.08921956 0.53447357 -0.80471687 -0.27263648 0.52998696
O 1.80447466 3.18450757 0.59898801 -0.65413012 -1.04276106 0.61946193
O 14.16746093 3.06819275 0.63883801 0.42859027 0.52014828 0.92648713
O 0.48768033 0.05547233 6.31937312 0.66849238 -0.27070846 0.19102233
O 12.88570548 6.12014920 6.36186029 -0.58271238 1.15198594 -0.65146794
O 0.63927152 3.09318626 6.44003542 -1.34998694 0.11848091 -1.39409514
O 12.88184419 3.13122120 6.32280092 -0.06982065 -0.82407375 -2.26128247
O 9.22522264 0.01834275 5.05245959 1.69568243 -0.12806456 -0.00667145
O 21.59050623 -0.07889038 5.05446447 -1.27396302 -0.55793151 -0.45301066
O 9.16118227 3.12088344 4.95865138 0.28477660 -0.14394110 -0.57306989
O 21.61880582 3.08183971 5.08983506 -0.81630239 1.40504737 1.20425777
O 7.77136797 6.06760802 10.57470755 0.46401815 -0.25070783 -1.38276196
O 20.28998771 6.16436797 10.79981317 -0.10649657 0.14894686 -0.09062132
O 7.76252556 3.08763756 10.83556183 1.00022715 -0.93041098 -0.52637861
O 20.15573705 3.11428422 10.76958895 0.10721436 0.12691635 -0.20191874
O 8.07195969 1.51295493 0.62685355 0.45795367 1.41420607 0.07641425
O 20.48821790 1.51583886 0.56907451 0.95440676 1.24480721 0.48130106
O 8.12599809 4.58093234 0.57080344 -0.05702351 0.28323632 -1.05432044
O 20.34889927 4.63534908 0.68410876 -0.97180374 0.67984010 1.09016155
O 6.67390509 1.49595981 6.41246764 -0.23226187 -1.52904440 1.26350081
O 19.10960688 1.57132409 6.38445335 -0.50829747 -0.26495441 -0.09978080
O 6.71797572 4.55376285 6.39226449 0.41187284 0.34927289 -0.60977624
O 19.16647430 4.62141426 6.31066278 -0.60418570 -1.58600871 0.21609327
O 3.00778042 1.55206441 5.00648675 -3.04693873 -1.04862350 -0.07687895
O 15.28662371 1.58404654 5.02716503 0.01795863 1.09633690 -0.42444680
O 2.93133174 4.64077847 5.02898315 1.98356984 -0.12058002 0.24114174
O 15.33382317 4.59519367 5.07258480 0.33504355 -2.05206426 0.50962623
O 1.58802420 1.46427071 10.76058365 -0.41471619 0.40332214 -1.10343394
O 14.01048570 1.60215468 10.74376731 0.02166744 -0.44288403 0.11976127
O 1.48600118 4.51820980 10.71727340 -1.01305577 -0.53216181 0.23146708
O 13.94522898 4.65268198 10.77786661 0.19156312 0.03446442 -0.50502146
O 1.34928913 6.14504350 3.31082026 1.51554262 0.42246764 0.59490409
O 13.76650491 0.05861468 3.23289448 1.36958313 0.73607463 -0.93850097
O 1.31882555 3.06566079 3.16078413 0.87449729 0.91744954 1.64472184
O 13.76296275 3.02343249 3.16768359 -0.62595461 -0.02657878 1.36125970
O -0.05153631 -0.00769681 8.81229396 0.88357885 0.07158478 0.97834656
O 12.33194992 -0.01148040 8.88282669 1.19764344 0.93777531 1.17439344
O -0.03695656 3.04033815 8.91183520 0.24932816 -1.02552187 -1.22782495
O 12.42081118 2.98303725 8.89087210 -0.19273100 1.22953976 1.38748248
O 9.69919080 6.15471007 2.46912599 0.15530912 0.15266551 0.75715068
O 22.08399890 6.10800285 2.48273372 0.37875519 -0.15459282 -0.83726819
O 9.64037155 3.05585139 2.51756921 -1.44580341 -0.80729398 -0.81059704
O 21.93524797 3.05133073 2.45930039 0.51109316 -0.26169573 0.08002266
O 8.23371808 0.04593574 8.21312459 0.92855927 0.35494380 0.32553666
O 20.63723288 6.02585807 8.07210867 -0.52855045 1.65015475 0.80522749
O 8.32827830 3.12099007 8.14755134 0.03091259 0.48890543 0.25606772
O 20.57926349 3.06556601 8.19132003 1.26310506 -0.24532904 -0.39483025
O 7.65925952 1.51293310 3.22769199 -0.05718677 -0.00946555 -0.82730608
O 19.95463896 1.53302260 3.19007077 1.08326246 0.63333538 0.28391987
O 7.49107966 4.58530918 3.14640357 -0.27536873 0.36551094 -0.90824904
O 20.03494566 4.71131252 3.19334348 0.73126000 0.75966943 -0.03162853
O 6.16168504 1.51950296 8.85701701 -0.34591590 0.10385176 0.63875250
O 18.58126417 1.50931585 8.88761870 1.41860713 -0.00142594 -0.87698301
O 6.23967776 4.62767810 8.84085229 0.94532216 0.69388114 0.18145495
O 18.63697726 4.57132043 8.98354103 -0.37278756 -1.03774991 -0.30025214
O 3.37757199 1.63691228 2.44743409 0.61906997 -0.27236942 0.70995936
O 15.89567319 1.48300158 2.48878401 -1.74577432 -0.93563205 -0.60942697
O 3.47791525 4.67182045 2.59845454 -0.28232427 0.86910818 -0.86750723
O 15.76504809 4.64501765 2.48804128 0.65260127 -0.06634103 -0.18852835
O 2.00651541 1.60711812 8.18321674 -0.24577822 0.45251658 0.43820983
O 14.42107059 1.57960604 8.21809091 -0.29293437 -1.67262765 1.02220884
O 2.09735716 4.61814330 8.13658090 -0.83964910 0.35125916 0.44747792
O 14.49912142 4.58076830 8.20620031 -0.67670524 -0.50422981 1.28798719
O 11.97456584 1.55603783 1.53204198 0.75023184 0.95819207 -0.22726057
O 24.40252203 1.54973022 1.41323531 -0.55546751 -0.37159087 0.32580244
O 11.85505057 4.56701496 1.48191959 0.97551137 1.17173600 -0.21402155
O 24.41964206 4.61487596 1.44751343 -1.22213311 1.34125636 0.92153412
O 10.64557599 1.50018380 7.09878590 -0.62778309 -1.04233931 -0.52353561
O 22.94336916 1.54896999 7.10309765 -0.52559889 -0.32589413 -0.00600726
O 10.64643703 4.59731137 7.15522801 0.63669637 0.41803908 0.39456296
O 23.12788560 4.52319276 7.13269736 -0.60885100 1.32627295 -1.61324713
O -1.01309905 1.50456638 4.28686821 1.81910940 0.28785498 0.03551070
O 11.41131629 1.50855264 4.25413401 0.63143446 1.06260791 -0.67608443
O -0.95026678 4.53697680 4.25107315 -2.03898495 0.28000103 0.70567920
O 11.35140382 4.51423388 4.09909237 -0.76944462 -0.55708013 -1.66499831
O -2.27168396 1.54848331 9.81101730 -0.58615497 -0.57456218 0.67261505
O 10.05975071 1.51122931 9.93631127 1.71018428 -0.05573113 -0.95198269
O -2.41797530 4.58711785 9.91662828 0.04482610 0.63669781 -0.95318409
O 10.12240022 4.58297040 9.83791862 -1.17310770 -1.49270814 -0.09761927
O 5.89973241 6.16452518 1.50479872 0.49329330 -0.21556911 -0.52229056
O 18.27812462 0.03754105 1.41788197 1.47629766 0.19386971 -2.07779472
O 5.83517784 3.10948799 1.46717152 0.71705182 -0.00609809 0.16675416
O 18.15246904 3.08423742 1.38876484 0.18946475 0.16576209 0.97144748
O 4.44007989 6.14085749 7.18810369 -1.14070836 -0.39239212 -0.49647810
O 16.76322086 -0.05758877 7.08103076 0.70605531 0.73044387 1.24140583
O 4.35899948 3.08125957 7.09307503 0.87688979 -0.74947879 1.80725779
O 16.84785035 3.08176557 7.15366679 1.47721263 -0.52778811 1.10827124
O 5.18289296 6.06168996 4.27136076 0.28015254 0.53702801 -0.05325187
O 17.58081119 -0.04552613 4.21532307 0.52273131 -0.05405313 0.31048818
O 5.23727360 3.08752403 4.25384496 0.55047571 0.61049791 -0.50694796
O 17.59798923 2.99853707 4.29043510 1.35934024 -0.01062515 -0.83812011
O 3.83747839 6.09163077 9.98806972 0.81174514 -1.45708952 -0.86265294
O 16.19288281 0.07578527 9.99407356 -0.62216587 -0.43326422 -1.17627730
O 3.86535186 3.10902168 9.90375651 -0.51316485 0.32883289 0.90961413
O 16.21879816 3.01921550 9.90279575 0.34593235 1.17453124 0.59822279
159
Lattice="25.142985 0.000000 0.000000 0.000000 6.225060 0.000000 -2.804745 0.000000 11.525359" Properties=species:S:1:pos:R:3:force:R:3 Energy=-621.877361 Virial="-55.808763 0.162362 -2.591860 0.162362 -44.247241 -3.106962 -2.591860 -3.106962 -43.716589" Ga_vac_type=Ga_tetra Ga_vac_tier=low Ga_coord=4 defect_vacancy pbc="T T T"
Ga -0.04704936 -0.08324140 4.59754487 0.66695571 0.18070885 1.17026746
Ga 12.61455868 6.22380725 4.44171106 -0.01933181 -0.74818988 1.53835550
Ga -0.03756166 3.04081171 4.46829972 -1.12626269 0.71174785 -0.38560612
Ga 12.59563457 3.05835814 4.58179185 0.75239221 -0.73476057 0.84876943
Ga -1.46888393 6.15194383 10.39880648 0.17806963 0.94446809 -0.71532423
Ga 11.17615057 6.21559797 10.35987075 -1.32134173 0.67389517 1.05245141
Ga -1.42550932 3.14876580 10.37526879 0.63710419 -0.67901901 -0.03304362
Ga 11.15698328 3.04896278 10.36766029 0.87523389 0.48753569 0.14001844
Ga 11.20203805 -0.13304643 1.26076770 -0.62385883 -0.25586134 -0.14219252
Ga 23.73957785 0.02469788 1.08688210 -0.07630028 0.65038285 -0.19684817
Ga 23.76052901 3.08064480 1.17651902 -1.46672945 0.05627386 1.01345222
Ga 9.92097643 6.26501948 6.92095170 1.29890285 0.68137650 -1.19567875
Ga 22.29445280 -0.06995466 6.99458884 0.39053841 -0.57882203 0.08924930
Ga 9.88303689 3.09824391 6.91266791 -0.61099822 0.02897882 1.41408193
Ga 22.35155195 3.13712932 7.05089557 -1.19224311 -0.46441772 -0.16344367
Ga 6.26781927 1.56137336 4.51524094 -0.13431082 0.49263444 -0.37233290
Ga 18.84020496 1.51928105 4.53576260 0.80677346 0.35542151 1.29668193
Ga 6.23761063 4.70382558 4.59634747 0.11979492 -1.37836498 0.59741244
Ga 18.80395506 4.79503113 4.60413085 1.17894760 0.90028342 0.17163865
Ga 4.85316334 1.65682830 10.34690252 1.15714853 0.60835232 -0.11585290
Ga 17.56401844 1.58137593 10.36570931 0.80202573 0.74505877 0.07095986
Ga 4.90086705 4.69757688 10.34811577 -0.20185549 0.94768703 0.13167417
Ga 17.47760011 4.60925587 10.42321683 0.02768087 -0.08368588 -1.55277279
Ga 4.94957510 1.51390783 1.17636894 0.06593412 0.28582643 -1.16548741
Ga 17.41786341 1.58297721 1.15634320 0.38033031 -0.65145664 -0.28389124
Ga 4.90024109 4.65024059 1.25506150 0.74173782 -0.40883965 0.11074347
Ga 17.41146469 4.57795071 1.13662537 0.16450491 -0.21231119 0.78943034
Ga 3.48073193 1.51499878 6.93144603 -0.67339508 0.29497298 0.75616113
Ga 15.92649401 1.51699026 6.94224953 -0.71894326 1.02926401 -0.44020265
Ga 3.39452180 4.65004931 6.97795385 -0.68942688 -1.68440432 -1.34979098
Ga 15.92648668 4.69749966 6.84226328 -0.28443294 1.08435879 -0.98776658
Ga 1.57537975 1.62412371 1.72642411 -0.27519775 -0.78339652 -1.13354071
Ga 13.96095195 1.60092315 1.78024883 1.19292373 0.20056786 -0.20669430
Ga 1.56642496 4.59504747 1.84598020 -0.88615210 -0.66080434 0.27472226
Ga 14.16695788 4.66762793 1.76301924 0.02193903 -0.01853383 1.20646643
Ga 0.24801243 1.47901057 7.42773772 -0.29352040 0.13289108 -1.06667195
Ga 12.68135924 1.51182960 7.58012735 1.55482194 0.40253894 -0.90000577
Ga 0.12043469 4.73725219 7.50753443 -0.88638538 -1.05547252 -0.26154067
Ga 12.61832194 4.61868036 7.56111633 1.70431261 1.73906837 -0.71598467
Ga 9.60349077 1.59256332 3.96775288 -0.41123712 -0.21903806 1.25884679
Ga 22.22828703 1.51240880 4.04390382 0.09854305 0.15575434 -0.19307918
Ga 9.59535734 4.68543748 3.94734089 -0.29476470 0.47801234 -1.66218194
Ga 22.27766901 4.70193250 3.98026753 0.38532245 1.27719104 0.21574655
Ga 8.19288878 1.59254599 9.75602798 -1.19650514 -1.07318912 -0.38541301
Ga 20.69227156 1.48029013 9.68829057 -0.70423182 0.42962330 0.68460756
Ga 8.16456943 4.69786874 9.67673790 0.10734776 1.90786137 -0.41068828
Ga 20.81174148 4.59128965 9.72492813 -0.70446137 -1.09608966 -0.04671601
Ga 7.91533599 0.04835230 1.73779272 -0.41622879 -0.92268527 -0.37903039
Ga 20.48615393 0.06429323 1.84211729 0.31147466 0.63903390 0.13487922
Ga 7.81919961 3.14554801 1.91537895 -0.33078802 -0.75190178 -0.50153108
Ga 20.40718348 2.97818459 1.74578843 0.21503801 -0.29006261 1.75964689
Ga 6.40645565 0.00288679 7.58903349 0.12423126 0.46963964 1.23368884
Ga 18.99500717 -0.06788102 7.59180164 0.53811133 -0.41918151 -0.23550759
Ga 6.39501118 3.11616450 7.57893160 0.04712037 -0.99664804 -0.53843305
Ga 18.99393776 3.07807531 7.65238642 0.41748784 1.11492058 0.32898752
Ga 3.29259817 -0.00767970 3.93383024 -0.50670400 0.35191189 -0.07080702
Ga 15.84177954 6.19522013 3.89890571 1.31532578 -1.43032916 1.28122084
Ga 3.24940510 3.14949418 3.94412381 0.50775878 1.09911690 0.15553083
Ga 15.89452925 3.18130830 3.90451416 0.39706298 0.08428329 -0.43963696
Ga 1.96367296 0.04352212 9.66838349 0.17750190 0.35750244 -0.61600860
Ga 14.48115790 6.20320848 9.74487159 -0.57232669 -1.23588505 0.47343294
Ga 1.99347651 3.12894594 9.74194908 0.32904649 0.10381116 0.18234066
Ga 14.49848811 3.13626890 9.71797245 0.54206388 0.06820891 0.18958709
O 1.84253891 6.25086274 0.56992773 0.39849416 0.80470804 0.30698289
O 14.57869180 6.31767535 0.53794065 0.22568815 0.06095438 -0.84518298
O 1.82346504 3.14289413 0.61140411 0.69551817 -0.37563496 -0.08390051
O 14.37377701 3.10732325 0.61266523 1.35921802 -1.00154682 0.56815169
O 0.41950143 0.14116507 6.45028922 -0.84827028 -0.20202209 -0.51041331
O 13.05929914 6.21118700 6.31096888 1.45749072 -0.79126522 0.15705047
O 0.45991328 3.14275834 6.40278456 1.68729610 1.33680917 -0.55713586
O 13.16964195 3.06211175 6.35785213 -1.22153411 1.04438778 0.69677878
O 9.28615170 0.11280642 5.02382084 -0.36397719 1.30459073 -0.66336246
O 21.94155318 -0.06418225 5.12224710 -0.05054903 -0.46920955 1.41318888
O 9.34573196 3.04145096 5.13878698 0.64786468 0.60161655 0.08105829
O 21.79465900 3.00537662 5.15557119 0.62340916 -0.82528510 1.33192622
O 7.90851617 6.22196492 10.79956538 0.58142171 1.54710747 0.98822154
O 20.49911520 6.18573107 10.83433706 0.07765439 1.23629403 -1.40158910
O 7.86407884 3.10599349 10.79979463 0.56812584 -0.14058838 1.87637592
O 20.46060336 3.21229881 10.85126909 0.82243018 0.36177450 0.47063813
O 8.20305772 1.57911905 0.61306215 -0.96916290 -1.13624824 -0.77488632
O 20.67794261 1.54800047 0.60262647 0.32759334 0.18086432 -0.68931907
O 8.18368906 4.74078312 0.61288237 -0.65745514 0.55912184 0.40394369
O 20.77501920 4.59472915 0.71758482 0.06132425 0.94048409 0.40532678
O 6.74505775 1.52611108 6.32108161 0.32022154 0.16281103 -0.33758525
O 19.33193795 1.54377477 6.35851068 0.24212895 -1.17722913 -0.40040134
O 6.68281938 4.65677824 6.44841001 0.25094945 0.12942698 0.38101618
O 19.34255863 4.68724990 6.32244232 0.29429126 -0.55487265 -1.07476969
O 2.98996647 1.52340135 5.17603510 -0.99598092 -0.30088490 -0.26131124
O 15.55869883 1.58083030 5.05435812 0.31063051 -0.52244863 0.70134116
O 3.02382310 4.69933909 5.15726738 0.23775769 -0.78685789 0.10890319
O 15.57182372 4.65272919 5.06924871 1.35931836 -0.82760281 -0.80930200
O 1.57058083 1.64416684 10.86294551 0.32659333 -0.10034868 0.45598029
O 14.09270909 1.52588154 10.91169375 -0.42024607 0.34085152 0.07164576
O 1.64278008 4.63434305 11.00695203 -0.43381193 -1.58524778 -0.01732135
O 14.19712075 4.65558631 10.81068705 -0.61368215 0.31043109 0.19625942
O 1.30571080 6.27268965 3.27449470 0.25443886 0.08768118 -0.13985778
O 13.92907961 0.06320750 3.18918783 -0.07789266 1.00200364 -0.37919335
O 1.45734353 3.13866673 3.37260594 0.05690950 0.07442720 0.02608813
O 14.13260311 3.17339035 3.20859437 -0.49957390 -0.66493267 0.12943382
O 0.00039289 0.02242285 9.11711848 -0.69498219 0.71824991 0.01402702
O 12.57138662 -0.02728194 8.94076131 0.16642339 0.19493717 -0.89348653
O -0.05822817 3.05316003 9.04057710 -0.45463537 -0.71570590 1.81352335
O 12.61918634 3.11748452 9.05510229 0.55497418 -1.05348559 1.71209529
O 9.75956473 6.18300077 2.49342571 1.01555904 -0.24902290 -1.65292722
O 22.32973934 6.21952650 2.55107436 0.13508616 -0.55754323 -0.31771425
O 9.78224356 3.08705278 2.51861621 2.03390364 0.33864058 -0.99412086
O 22.44185309 3.06369116 2.47684246 -0.45522486 0.94250742 0.04708484
O 8.34396002 -0.00133066 8.25275397 -1.37712826 -0.55819233 -0.53006146
O 20.96031523 6.24461393 8.28743628 -0.23687573 0.05414143 0.24064598
O 8.43944168 3.10503998 8.31959860 1.65794769 -0.74693531 -1.15263825
O 20.91203576 3.11587254 8.26522291 -0.37261661 -0.86885796 -0.20091788
O 7.68716525 1.58108964 3.33870264 -0.77849186 -1.65198155 -0.60504461
O 20.30001592 1.63475089 3.22155039 0.29156093 -0.10463708 0.59253312
O 7.62847736 4.68454339 3.25474765 -0.85544524 1.01879520 0.22833687
O 20.26833000 4.66885415 3.21582907 -0.51204828 -0.33468072 -0.83582986
O 6.23567735 1.54552859 8.95107984 -0.22733308 -0.40412228 -0.32507842
O 18.86617408 1.52693263 9.01867765 -0.73628235 -2.07076757 0.65791016
O 6.27463450 4.64292631 8.95779311 -0.50754730 1.62109087 -0.16983614
O 18.79391593 4.69682558 9.00351004 -0.44356676 -0.43981639 0.42936096
O 3.51304698 1.46359694 2.51319584 -1.41262787 0.26678133 -0.52984757
O 16.02632934 1.54293093 2.59463417 0.57336869 -1.66604644 -0.77844425
O 3.51524827 4.60884013 2.49405050 1.16916428 0.15632567 0.38804043
O 16.10681458 4.70074791 2.51223460 -0.57166710 -1.67661727 0.52043907
O 2.13031866 1.64096889 8.29789963 -0.38733663 -0.17986917 -0.95360208
O 14.66773386 1.62119864 8.24301852 -0.76772623 -0.76339285 0.80611802
O 2.06550020 4.74513923 8.16603782 -1.16323798 0.02167852 -0.81546742
O 14.60117369 4.57244858 8.25014667 -1.69468813 -0.47911225 0.09699815
O 12.15814919 1.47171496 1.46180784 0.05253355 -1.29619686 -0.72420566
O 24.78600168 1.54635728 1.45830234 0.05033315 0.53848632 0.96991334
O 12.21112589 4.68404378 1.54971460 0.10579580 0.27249420 1.17887579
O 24.82200878 4.64901994 1.48060478 -0.51308582 0.40476214 -0.29961849
O 10.77089581 1.53251529 7.17149631 -0.01356247 -0.26623090 -0.41167529
O 23.40458008 1.53282511 7.17858935 -0.46858028 0.17179561 0.50289987
O 10.78146814 4.75462643 7.28474619 0.15452425 1.18894846 -0.23997647
O 23.32556905 4.62399012 7.28451034 0.56241292 0.59229672 -0.56376489
O -0.97704023 1.62778714 4.22270792 0.60628295 0.80959242 0.54766254
O 11.48116652 1.58829842 4.30653898 0.12905826 0.33022381 -1.12697028
O -0.93825173 4.55203246 4.30287111 -1.51088026 -1.09302407 -0.06325572
O 11.49318194 4.61154533 4.33742621 -0.62616476 -0.05930808 0.29007373
O -2.40369384 1.58360559 9.97279493 -1.13110689 1.35433154 0.48865636
O 10.24210255 1.55210925 10.00175875 -1.85513594 -0.06233318 0.48138993
O -2.35760371 4.74107002 10.06955422 -0.21934965 0.47510893 1.02253392
O 10.23302480 4.72960210 9.92590125 0.80338776 -0.20365016 -0.32033300
O 5.94828876 6.21698577 1.50598287 0.28143114 0.31908749 -1.02928014
O 18.42276513 -0.00578138 1.48073225 0.32955033 -0.18859919 1.42301031
O 5.83669716 3.13554710 1.44674849 -1.14283357 1.44313728 -0.25297627
O 18.38091782 3.03484313 1.46415456 0.03287621 -0.36252158 0.33433051
O 4.39882111 6.15746304 7.31177134 0.03345913 0.52787468 -1.12204091
O 17.04693454 0.00404910 7.29441496 0.39929062 -0.66979040 0.93701142
O 4.47427747 3.11360954 7.23098076 1.76314009 0.08654375 -0.42639636
O 17.05103463 3.06401129 7.21410555 -1.39245024 -0.05999644 0.40295915
O 5.24769100 6.18706208 4.32455297 -0.55148327 -0.31583598 -0.99248924
O 17.83663628 -0.04394391 4.25383470 -0.29606691 -0.19599344 0.60941396
O 5.27714823 3.13159425 4.28252278 1.12955293 -0.27703001 0.03009014
O 17.86820351 3.02875412 4.30203675 0.70218703 0.55786274 0.42621087
O 3.81926830 6.23054790 10.10877188 -0.19328619 0.09593324 -0.83474693
O 16.38866885 -0.06654699 10.07809435 0.67781789 0.58263708 -0.35451771
O 3.81349223 3.12082947 10.06768058 -1.24538390 0.63028744 -0.84137352
O 16.43270478 3.17306601 9.97564056 -0.25099726 -0.10518893 -0.36563351
159
Lattice="24.724724 0.000000 0.000000 0.000000 6.121504 0.000000 -2.758088 0.000000 11.333632" Properties=species:S:1:pos:R:3:force:R:3 Energy=-622.019266 Virial="-56.252952 -2.011742 -1.365313 -2.011742 -42.766400 -3.411836 -1.365313 -3.411836 -44.106444" Ga_vac_type=Ga_oct Ga_vac_tier=low Ga_coord=6 defect_vacancy pbc="T T T"
Ga 0.01500313 0.01169568 4.48130869 0.06388308 0.24446524 0.29356429
Ga 12.50938362 6.19013281 4.45597911 -0.63772239 -0.03720756 0.32183796
Ga -0.01332126 3.04671532 4.54432188 -0.00112202 1.10173081 -0.11824395
Ga 12.54679155 3.04893982 4.48224414 0.59157910 -1.08290396 -0.23095017
Ga -1.39742688 6.18363351 10.15993850 -0.27337642 1.62477473 -0.18978027
Ga 10.96382545 6.20200806 10.19284945 -0.13798454 1.19999236 0.51262547
Ga -1.36142175 3.00921019 10.16775878 0.35282622 -0.90217898 0.83620810
Ga 10.91022275 3.01473967 10.11834778 -1.23126843 -0.77633991 -0.87988753
Ga 10.96214415 0.00034428 1.17180157 -0.23504257 0.00096440 0.01622784
Ga 23.38681127 0.05929028 1.13489792 1.35304783 -0.39028667 -0.48392517
Ga 10.99510150 3.14176924 1.20719817 0.61436183 0.52668138 0.67391635
Ga 23.33718561 3.02621334 1.20160074 -0.59776397 -0.33679703 -1.22868374
Ga 9.51459072 6.03901605 6.83068964 -1.89388476 -0.90556850 -0.53183268
Ga 22.00815759 0.12397141 6.91016844 0.48265205 -0.30276036 -1.64217123
Ga 9.63217853 3.07599014 6.73983467 -0.62076236 -0.38950133 -0.63914424
Ga 22.01246518 3.02962772 6.81195821 -0.01044555 -0.92631855 0.38419295
Ga 6.22697889 1.56685369 4.48238971 -2.20783587 -0.22166913 -1.15893621
Ga 18.53822658 1.44893561 4.41532629 -0.45844442 -1.03447573 0.24933739
Ga 6.14302955 4.58198697 4.45629294 0.20932662 -1.37195267 -0.38493964
Ga 18.62295772 4.51454906 4.48228498 -0.83509382 0.13726634 0.19822754
Ga 4.78220246 1.54241543 10.21793043 -0.38544974 -0.27276853 -0.04168260
Ga 17.20719205 1.54726608 10.20464333 1.33452960 1.55711437 -0.37378290
Ga 4.82371314 4.63623409 10.12482660 -0.00102402 0.17585365 0.63684395
Ga 17.21068714 4.54356989 10.21610421 1.36440891 -0.73779140 0.92746474
Ga 4.78208778 1.51083154 1.17225779 0.14252431 1.19786116 -0.33015518
Ga 17.14192380 1.46933850 1.12423622 -0.76316594 -0.12351229 -0.31747871
Ga 4.68997129 4.60452809 1.14342881 -1.04302048 -0.85965037 0.26307423
Ga 17.15909707 4.64204442 1.13565933 0.42016267 -1.00205763 -0.02262622
Ga 3.40830565 1.48352815 6.91550770 -1.31412696 0.21151218 0.51837262
Ga 15.84930789 1.46818837 6.78273682 -0.83601708 1.11228788 -0.36640844
Ga 3.43419858 4.62043213 6.91850996 -0.46839050 0.66084537 -0.10205356
Ga 15.72902222 4.54861554 6.77731398 -0.92171960 1.45307929 0.60661070
Ga 1.56415531 1.62216413 1.73818730 0.85242527 -0.00437598 0.07620061
Ga 13.93466239 1.58720602 1.79909950 -0.59722494 -0.40401541 -0.18192367
Ga 1.46092988 4.49941407 1.82258565 -0.37249089 0.43028589 0.19160584
Ga 13.87546208 4.58993291 1.81701980 0.49162557 0.32528859 -0.42533785
Ga 0.08163501 1.51070124 7.44399259 0.89878540 0.93275403 -0.95032014
Ga 12.48492580 1.53397221 7.42550885 -0.23088586 -0.79649072 1.25471360
Ga 0.02622809 4.60922254 7.47738804 0.88529568 1.07986387 -0.21729255
Ga 12.47825908 4.63436570 7.47903495 0.01888615 -0.55103913 1.08918647
Ga 9.51346874 1.52107440 3.82211061 1.76219767 0.06856837 0.91552354
Ga 21.80719045 1.62762946 3.97821384 -0.04180167 -0.00119722 0.51454198
Ga 21.77771301 4.61472616 3.96059920 -0.29382195 0.78403749 2.02756999
Ga 8.07886757 1.56921619 9.59426556 -0.60390633 -0.70436525 0.49835941
Ga 20.34566259 1.64299760 9.52420427 0.62988091 2.39783581 -0.38977680
Ga 8.04336470 4.62894721 9.56327568 0.92335587 1.31546754 -0.15127845
Ga 20.44009351 4.64389007 9.54798429 -0.48606778 -1.77277770 -0.03176416
Ga 7.61029822 -0.03649945 1.79490752 1.25570739 0.59001196 -0.78149924
Ga 20.10382287 0.00677341 1.81603404 -0.95213659 -0.45337164 -0.85833437
Ga 7.67825033 3.05633837 1.73457148 -0.34209656 -0.24610252 -1.22636732
Ga 20.03331497 3.10146301 1.80888014 -0.48174114 0.72502504 -1.16546234
Ga 6.27588709 -0.01304818 7.44450730 -1.43868577 1.25023070 -1.03807484
Ga 18.69376726 0.03000503 7.33500224 0.62430834 0.65812053 0.27453398
Ga 6.23443475 3.11660787 7.47683870 1.10524545 -0.57909003 -0.64432687
Ga 18.73977085 3.08989832 7.42220403 0.62399521 -0.44041920 0.76644669
Ga 3.25294280 -0.02686859 3.90145923 0.17917881 -0.52760567 -0.72696540
Ga 15.55060165 6.09534831 3.90253311 -1.32941856 0.29842328 -1.61784675
Ga 3.27634961 3.03515083 3.85014257 -0.53071317 -0.07715352 0.26279888
Ga 15.58179154 3.00575772 3.87559082 0.35619492 -0.62563074 -0.05532724
Ga 1.86730042 -0.02972057 9.49520491 -0.15533309 1.39262426 -0.04591384
Ga 14.18447907 6.15286125 9.56499303 -0.18852345 0.52962199 -0.53310179
Ga 1.90396389 3.05341273 9.56768893 0.42471112 -1.11553150 -0.70448918
Ga 14.30056499 3.03258811 9.49978532 -0.25739084 -0.69536597 -0.06206975
O 1.82733948 6.08521968 0.53617158 0.53502243 0.38949041 0.00225719
O 14.25199809 6.11160310 0.52829516 0.80469164 0.85268584 1.64417458
O 1.82913369 3.05246237 0.59110654 -0.54631253 -0.33274305 0.72453354
O 14.22471110 3.06270101 0.61549134 -1.61213103 -0.02416318 -0.43377437
O 0.50825791 -0.03976397 6.22570053 1.04184504 -0.63705823 0.79478038
O 12.83281121 6.13999000 6.25088632 0.26627227 1.84455058 0.19601461
O 0.54484119 3.09237466 6.26327701 -0.01977382 -0.78533145 -0.64822080
O 12.89822903 3.04560166 6.25600524 0.27533273 1.42693730 1.34603898
O 9.16677667 0.02890157 5.05262084 0.86485077 -0.08637651 0.39797454
O 21.49629946 -0.02320599 5.07790300 0.46481590 0.53028663 -0.53886981
O 9.11655852 3.03957173 5.10243180 -1.04416908 0.16485197 1.15335475
O 21.54696968 3.07092365 5.05206742 0.39083496 0.41239773 1.24535474
O 7.77207038 6.12027904 10.74758594 0.09270735 -0.41893873 -0.31889540
O 20.10242987 6.10671388 10.71129877 0.13821530 -0.61982329 0.91149576
O 7.79226822 3.16913335 10.66276816 -0.77514414 -1.30569468 -1.13083792
O 20.14541284 3.07693248 10.78669658 -0.31340835 1.92225097 -0.02860010
O 8.03336366 1.58597425 0.59943674 0.34462794 -0.16282637 0.60429586
O 20.39444806 1.59571892 0.58453479 0.00648186 0.94604499 0.07780175
O 8.05310042 4.56119472 0.62240432 0.93218343 -0.20170786 -1.91115103
O 20.39385476 4.56482578 0.71488299 -0.42134649 0.55985245 -0.74640831
O 6.66702631 1.54375481 6.26276239 -0.40251841 0.90121705 0.66441206
O 19.11948732 1.50097348 6.29124452 0.64436869 -0.04145499 -1.34353140
O 6.63883441 4.65552049 6.24456021 -0.78028915 0.46102620 1.16300010
O 19.03568460 4.51201099 6.23572264 -0.72388163 -1.03871057 1.07719588
O 2.95828755 1.47697064 5.07035482 0.38371812 0.09339652 0.44126425
O 15.28624672 1.49423439 4.95192929 -0.21386708 -1.04712250 0.43698343
O 3.06007407 4.56546781 5.06100235 -0.68781916 -0.61060200 0.55746894
O 15.32075825 4.65141943 5.05655464 -1.46404456 1.06864570 0.24963052
O 1.51465980 1.47091300 10.79319885 -0.25856154 -0.12522506 -0.41755096
O 13.90201523 1.52855538 10.69240048 -0.47248461 -1.22342135 -0.56869002
O 1.57486092 4.55449922 10.77898308 1.73467269 -1.90050876 0.04486060
O 13.95160132 4.60793617 10.70774673 -0.22246517 -0.60168599 0.20750610
O 1.28889280 6.23512602 3.28098546 0.02365270 1.43058939 -0.73437970
O 13.76216896 -0.03415589 3.25548659 0.49131313 0.36566312 -0.08252057
O 1.33900136 3.02914261 3.19559504 -0.25709931 1.67295960 1.51562396
O 13.71930328 3.07308491 3.24747097 0.51030349 1.17061074 -0.10750911
O -0.07526542 -0.01810948 8.96779989 -0.45417434 0.67019351 -0.57488067
O 12.33101607 0.02777944 8.82367728 0.79885794 0.72466564 0.35432022
O -0.07177320 3.15933075 8.91191756 0.75546477 1.63766421 0.92384705
O 12.41790298 2.96638814 8.98214301 -0.41466748 -1.04537309 1.07288980
O 9.67020131 6.13572467 2.42457112 0.77442380 0.66746419 -0.44689065
O 21.94453689 6.04409977 2.44337034 -0.40218918 -0.35767481 -0.04115031
O 9.56159462 2.94748366 2.34849548 0.88904382 -1.79374501 0.19277056
O 22.02594195 3.01761004 2.40358371 -0.18714895 -1.13084156 0.61324505
O 8.20828121 -0.02617106 8.07250996 0.33385169 0.31400840 -0.48002813
O 20.62132431 6.18768711 8.07955809 -0.02809859 -1.17051273 1.58633210
O 8.30008315 3.05486850 8.03468995 -0.35280625 -0.57304193 -0.49894955
O 20.58835500 3.07449397 8.11583976 -0.01465943 -0.19624639 0.11751521
O 7.54692627 1.51236339 3.25058887 0.87206226 -0.86216509 -0.91910033
O 19.92676527 1.57286147 3.20283205 -0.69550571 -1.25099608 0.12700599
O 7.49378725 4.63750686 3.30743854 1.17261090 -1.91811095 -0.00717258
O 19.84585101 4.68589794 3.30418047 0.48363719 -0.99149335 -0.83870516
O 6.18866631 1.66854928 8.87281330 0.48850601 0.23566493 0.31579184
O 18.52767007 1.53800340 8.86746140 -0.23631766 -0.08462740 0.67467231
O 6.19821761 4.58068930 8.88443527 1.54882016 -0.47139462 -0.12093150
O 18.54202859 4.64687914 8.85580721 -0.77474141 0.05581545 -0.60349142
O 3.41609462 1.58366223 2.47357680 0.22937196 -0.11283296 1.13635916
O 15.75377284 1.57132223 2.54957724 -0.39235844 0.19650330 -0.12603517
O 3.40216675 4.58965655 2.52366401 -0.64509068 0.81156010 -0.54016554
O 15.81093360 4.63007872 2.49400370 -0.38212388 0.59007134 -0.47471632
O 2.07490402 1.53176896 8.20020496 -0.22056245 -0.89788071 0.48465724
O 14.40492024 1.56570817 8.14703395 0.19825823 0.68622631 0.18054292
O 2.07227759 4.56997491 8.12293045 -0.62001620 0.14106912 0.24480282
O 14.37737890 4.58316173 8.10475529 0.55147295 -1.60576245 -1.04615102
O 11.97576023 1.59897971 1.41899431 -0.90598832 -1.18687950 -0.70569251
O 24.18328980 1.48225173 1.41785072 -0.74613520 0.49394586 -0.04687786
O 11.98459565 4.60498508 1.44853858 -0.40136942 -1.84509532 0.80556881
O 24.28160998 4.62024473 1.51889202 -0.14273638 -0.48545544 2.10276563
O 10.55549052 1.52571236 7.04213166 -0.07360252 1.22313194 -0.47251989
O 22.94623535 1.53208192 7.15567029 -1.13841023 0.00355821 -0.65714050
O 10.61867321 4.66574990 7.15332177 0.34124148 -1.25271106 -0.38681390
O 22.97436499 4.58819851 7.17818028 0.33733748 -0.73057336 -1.10057197
O -1.00494093 1.54425523 4.11986327 0.80230542 -0.35482809 0.02662211
O 11.37818360 1.50626832 4.31577780 1.34461603 -0.57588830 -1.22052329
O -0.93595577 4.47619105 4.11729766 0.52188391 0.84198723 1.18146925
O 11.41443863 4.66537778 4.22893342 -0.48307378 0.10841773 -0.92499762
O -2.37841713 1.43936004 9.87944408 0.03623786 0.60945730 0.23922482
O 9.98845701 1.58514040 9.81489324 -1.25245112 0.22666118 -0.26483991
O -2.39131554 4.59517354 9.94835645 0.65541070 -0.13956790 2.03689753
O 9.97822688 4.59925427 9.93739378 0.85038944 0.66819001 0.94614767
O 5.77950637 6.16872380 1.44593932 -0.02015111 0.04254585 0.34022637
O 18.13385976 0.00758852 1.46227601 0.00389950 1.42861308 -0.75494146
O 5.68483829 3.05185537 1.44420698 0.38581292 0.51720479 -0.06627827
O 18.12868228 3.09732204 1.41149426 1.41807119 -0.46205969 -0.24820862
O 4.39062829 6.05865768 7.15467071 0.36383449 -0.68523750 -0.28759633
O 16.74633442 -0.01220687 7.14768152 0.03901241 -0.05553597 -1.20555389
O 4.40277619 2.97837720 7.07650636 0.24777207 1.26818192 0.14405852
O 16.80972689 3.06267260 7.21619399 -1.15882853 0.52838004 0.13607948
O 5.26276963 6.13186746 4.19247688 0.08364256 0.04816394 0.01867813
O 17.62342411 -0.06522415 4.23058798 -0.76731183 -1.40581936 -0.46224904
O 5.12249577 3.09385839 4.17889944 -1.38926596 0.12117635 0.55820984
O 17.56422484 3.20168335 4.30620403 1.12044861 -0.95392503 -0.85046306
O 3.86981904 6.05041668 9.92403167 1.21283340 1.73902790 -0.23028058
O 16.27448952 -0.09457991 9.94204034 0.14993914 1.58784935 1.31636820
O 3.71806686 3.04447480 9.94128425 0.54724776 -1.17360701 0.10674368
O 16.14263095 3.00820311 9.87453727 0.22567667 -0.78189483 -1.28480850
159
Lattice="25.012795 0.000000 0.000000 0.000000 6.192827 0.000000 -2.790222 0.000000 11.465682" Properties=species:S:1:pos:R:3:force:R:3 Energy=-622.961575 Virial="-51.966523 3.613973 -2.056097 3.613973 -43.951249 -5.303071 -2.056097 -5.303071 -44.240124" Ga_vac_type=Ga_oct Ga_vac_tier=low Ga_coord=6 defect_vacancy pbc="T T T"
Ga -0.02590114 -0.10359260 4.48659364 -0.50350474 -0.73494583 0.35632104
Ga 12.50966537 6.08586567 4.60566189 -0.03712567 -0.60049580 -1.75071897
Ga 0.00719880 3.04680063 4.52383041 -0.82703988 0.05771115 -0.20240398
Ga 12.58425853 3.11404082 4.58019555 -0.06050713 0.23966574 1.19884234
Ga -1.37470275 6.26610522 10.32185452 -0.62137181 0.09520983 0.55890318
Ga 11.15422148 6.24854148 10.30307764 0.28509136 -0.01336956 -0.98967819
Ga -1.37129356 2.99636447 10.30903563 0.16632208 0.34475125 0.55873526
Ga 11.16329431 3.01221472 10.31419980 -0.45268448 0.59568647 -1.40306452
Ga 11.09254182 0.01020828 1.10791923 -0.06170704 0.56321923 0.07273335
Ga 23.64195574 0.02555587 1.23292533 -0.48584876 0.39477749 1.87675573
Ga 11.14337193 3.04547971 1.12732656 0.94835643 0.41592009 0.17184026
Ga 23.66782393 3.16050589 1.19703787 -1.12333043 -0.85996544 -1.69268602
Ga 9.60431867 6.21337937 6.93459075 0.39137284 0.27774480 0.12996779
Ga 22.19317834 -0.06376599 7.01292407 1.06695580 0.25021561 -0.73624245
Ga 9.69141609 3.17083596 6.92369695 0.62473925 0.04673299 -0.50159670
Ga 22.29306599 3.04297605 6.88809178 0.63147085 -0.59386388 0.34187401
Ga 6.28117882 1.55912141 4.51729351 -0.06506139 0.29377625 1.19526297
Ga 18.70887083 1.57460574 4.56287981 -1.05767401 0.38742856 -0.26943655
Ga 6.24016564 4.63484852 4.57736789 0.09553204 -0.18841493 -1.44534201
Ga 18.79320671 4.66247716 4.54862220 -0.55763378 0.23639352 0.65783485
Ga 4.88211108 1.59584950 10.22057768 -0.39784410 -0.75869712 -0.34820166
Ga 17.26356485 1.60331212 10.36461684 0.59647540 -1.08862620 -0.06557829
Ga 4.91342069 4.69329295 10.29366908 -0.63156329 -0.73574445 -0.17668702
Ga 17.41102197 4.56369893 10.27927084 0.86516889 0.44610819 0.34783265
Ga 4.84245542 1.57789791 1.08867386 -0.52516617 0.45323977 -0.48522138
Ga 17.20011789 1.60910249 1.09700982 -1.35253318 0.73868568 0.86216211
Ga 4.84912510 4.72266861 1.11766462 -0.52009342 -0.08774016 -0.46002068
Ga 17.28321434 4.60407488 1.18290918 -1.08573176 -0.92635509 -0.10782481
Ga 3.52125875 1.61860582 6.86851335 0.46297606 -0.20762105 -0.23683950
Ga 15.93480344 1.56225478 6.86513660 -0.60547884 0.05081874 1.15531407
Ga 3.50168058 4.55133984 6.97223093 0.32633401 -0.77578011 -0.25024092
Ga 15.89100404 4.68411166 6.78100765 -0.94931885 0.24808337 -0.23841908
Ga 1.57510560 1.58446340 1.77398404 -0.90311534 0.60603650 0.59447962
Ga 14.18334310 1.54981016 1.82006229 -0.23679846 -1.10045653 -0.49230923
Ga 1.68217364 4.63635346 1.74805100 -1.67698776 0.88636825 -0.70000577
Ga 13.98017812 4.66948636 1.79531129 -0.04966936 -0.64348106 1.17929434
Ga 0.10539881 1.41922493 7.53488396 0.39205354 1.40649339 0.11003664
Ga 12.64490106 1.48423668 7.55153416 0.76731714 -0.71448664 -0.08197487
Ga 0.18422570 4.69480234 7.59848097 -0.88582730 -1.66606701 -0.91282233
Ga 12.66037405 4.61435731 7.50097275 0.71888921 -0.49013995 0.23392517
Ga 9.63047828 1.62681377 3.95651397 -0.89659071 -0.58801060 0.51438138
Ga 22.13550294 1.56570720 3.90811659 0.30501419 -0.53476359 -0.67710182
Ga 9.59090432 4.61747792 3.81489971 -0.77607862 0.26335308 -0.12493629
Ga 22.14260926 4.55187617 3.94261550 -0.59741904 0.76892949 0.47907154
Ga 8.16598604 1.49927844 9.66841605 0.08705691 -0.21518708 -0.14352983
Ga 20.62763934 1.51970029 9.68643714 -0.52085984 -0.27866591 0.80403116
Ga 8.13075445 4.66807539 9.63693699 -0.66520717 -1.37421811 -1.62208077
Ga 20.72908656 4.74471293 9.70590831 -0.28282213 0.26312626 0.28567374
Ga 7.79486667 -0.01727898 1.86966266 0.69477414 -0.18448778 -1.07625493
Ga 7.83435898 3.11493534 1.79152869 1.05076295 -2.00031534 0.12856937
Ga 20.31811220 3.12814860 1.85352516 0.95714252 1.03277064 -0.14228643
Ga 6.42538724 -0.00489550 7.60727988 0.21691053 1.06710403 0.14779426
Ga 18.91457170 -0.01580673 7.65598285 -0.10771528 0.89855792 0.17881199
Ga 6.40197227 3.02227435 7.56895569 -0.24506665 -0.42801607 -0.35180003
Ga 18.95150106 3.13824194 7.52152240 0.28984590 0.90403332 -0.29582224
Ga 3.41094710 -0.01198339 3.95993346 -0.25517716 -0.61191508 -0.18452991
Ga 15.83701523 6.31249249 3.93911490 -0.16783581 1.70700739 2.09088837
Ga 3.27042838 3.06895958 4.05389566 -0.42022858 0.28335743 -0.62938760
Ga 15.81165488 3.02763118 3.87460981 0.17844079 0.83975744 -0.11007776
Ga 1.89460726 0.04787800 9.67928098 -0.55844901 0.87124393 -0.93480110
Ga 14.45940380 6.22622063 9.72796321 -0.05070062 -1.21734371 -0.61485490
Ga 1.83727900 3.06358560 9.73394717 0.99399082 -1.01498086 -0.78662034
Ga 14.46893495 3.13287713 9.62596101 0.84508015 0.30790643 1.25557911
O 1.95508700 6.17856618 0.61539374 -0.02385093 0.39688371 0.31977836
O 14.40339415 6.16359467 0.54269433 -1.72181748 -0.80048969 0.16303433
O 1.97456983 3.09538453 0.53345872 -0.35879618 0.34336763 0.00275034
O 14.47327458 3.00466295 0.67409649 1.15931071 -0.85484133 -0.80166250
O 0.53058406 0.02368091 6.38928839 0.12125253 0.88411892 -0.18018681
O 12.92146838 6.14708892 6.44961979 0.02577745 -0.91040880 -1.16633117
O 0.41939624 3.14129751 6.40846133 0.19177751 0.04430587 -0.03464684
O 13.00877530 3.18735776 6.37556129 -1.49657865 0.37349607 0.00309021
O 9.17711406 -0.03155256 5.09652323 1.08154509 -0.27051802 -0.06885418
O 21.80418423 -0.00405048 4.96508688 -0.45046858 -0.21480133 0.65192130
O 9.16023622 3.13853303 5.10634046 -0.80620037 -0.64588702 -0.72548191
O 21.72323180 3.14296610 5.12909632 0.02892062 0.23185156 -1.30110557
O 7.88123745 6.07742788 10.97974503 -0.22642394 -0.25981221 -0.12717045
O 20.41735953 6.13939548 10.94869688 0.16706764 0.89924437 -1.56564546
O 7.72885852 3.12433901 10.80701271 0.11808060 -0.06973621 0.22898707
O 20.28953126 3.17223560 10.83406277 -0.35259390 -0.33811647 -0.90438598
O 8.13339843 1.54014787 0.62433704 -0.45571762 0.24274426 1.78131777
O 20.66315901 1.54695323 0.65584492 -1.00578423 -0.29918484 -0.50304818
O 8.13865435 4.57465326 0.61540207 0.02478592 -0.24135966 0.74636428
O 20.65377577 4.57602992 0.58956849 -0.31647479 -0.88398907 0.29767847
O 6.89180300 1.49577892 6.47179889 1.14850988 1.59510334 1.03978053
O 19.19250253 1.48398852 6.31489114 0.60044901 0.93552635 0.18390456
O 6.76905385 4.67313527 6.33325618 1.16280885 0.35407139 0.44128731
O 19.26284242 4.58612467 6.39184396 -0.20146227 -0.19552006 0.69103449
O 2.97871210 1.65959696 5.16797899 -1.96634336 -0.54953935 0.78597438
O 15.44376669 1.54928339 5.13032986 -0.84125526 0.17057404 0.21240607
O 2.89800068 4.63761383 5.04024285 -0.51048988 -0.65160600 -1.70910003
O 15.51758939 4.67302318 5.08673576 2.73793954 -1.51707181 0.61976057
O 1.54612532 1.50202634 10.88097483 -0.26066766 1.04847803 -0.29591323
O 14.16975918 1.53923064 10.81112887 0.26568207 -0.97785057 -1.28857710
O 1.59242141 4.70166365 10.79799645 -0.26842268 1.01758724 -0.62557168
O 14.05134726 4.66161644 10.95259181 -0.78273192 -0.33904965 0.50409214
O 1.30938350 6.24671547 3.29824339 0.36692772 1.32035279 0.34770712
O 13.77007442 0.09959896 3.22579075 0.49078264 -0.80880306 -0.49047404
O 1.38753324 3.11785740 3.18175340 -0.46340003 0.42145421 0.97106360
O 13.85322452 3.03041527 3.32197178 1.12491405 0.76050235 0.56697273
O 0.05114028 0.05744787 8.96588908 1.44149772 0.81093758 0.49618939
O 12.44071809 0.02269003 8.97697097 -0.80428781 -0.27703671 -0.38291128
O -0.05276352 3.12226480 8.84725767 1.30083865 0.54112984 -1.16560496
O 12.58482660 2.94983668 8.96650580 0.97388957 -0.72422918 0.29527959
O 9.73295246 6.20782964 2.47168800 0.54409596 -1.13367744 -0.43435062
O 22.19576465 6.24067727 2.49661539 0.09979698 -0.44591202 1.35483821
O 9.75773109 3.10198127 2.38094533 0.15298555 0.87850625 0.68353819
O 22.25413676 3.03183866 2.46254479 0.25381860 -1.36139446 -0.27440998
O 8.37778494 0.09691695 8.24635240 -0.57829103 0.73949586 0.66434450
O 20.86595852 6.16810263 8.28767262 1.22141067 1.00288433 1.01352343
O 8.37209772 3.21447579 8.24202141 -0.00859584 -1.05052502 0.21500058
O 20.81391672 3.06716417 8.16439715 0.13452303 0.08117682 0.64727337
O 7.62113210 1.50580577 3.28354732 -0.82678467 1.75403761 -0.21875480
O 20.12093820 1.62793341 3.20874478 -1.26180298 -0.20869856 -0.60785900
O 7.68262258 4.60044373 3.23870284 0.08281647 1.22587555 -0.87657759
O 20.27107677 4.69706116 3.23894776 -0.35521341 -0.67078773 1.01611195
O 6.36230107 1.53643572 9.02180617 -0.77725270 -0.42680333 1.75628206
O 18.75065378 1.54694511 8.93607665 0.38969482 0.10799736 -0.02365031
O 6.21393051 4.72760546 8.84559001 0.02993492 -0.39424259 0.10162627
O 18.75895887 4.70912351 8.92039730 -0.80482323 -0.79303780 0.94693862
O 3.55183427 1.59888310 2.48409077 0.67430014 0.84259406 -1.72655920
O 16.08707684 1.53824615 2.52224959 1.30047851 -0.45883649 -1.11763315
O 3.43937416 4.57380539 2.41755582 0.99803718 -0.66834585 0.83106049
O 15.95675826 4.71161251 2.48078944 -0.22307431 0.31798037 -1.14653864
O 2.10177287 1.57418793 8.26838249 -0.08076119 0.06057963 -0.99213411
O 14.53345539 1.55161299 8.21309198 1.10209410 -0.05061817 -0.32993482
O 2.03925873 4.63095215 8.27721286 1.51499396 1.22299568 0.54570774
O 14.68340639 4.61907534 8.23791501 0.10293583 1.08993817 -1.31217466
O 12.12470488 1.58958622 1.40672850 -0.35896073 -0.73218132 -0.98213891
O 24.64587270 1.63109350 1.57544671 -0.54128210 -0.69601381 0.89533616
O 12.10124365 4.75324386 1.41477797 0.44988569 -0.07765877 -0.46620304
O 24.54226179 4.70681580 1.44595685 -1.13817249 1.06053910 1.01409204
O 10.67591107 1.57674036 7.16118406 0.87755246 0.33512397 0.53902407
O 23.18541647 1.59196920 7.22828780 -0.28882569 0.66801564 -2.23326665
O 10.58204573 4.64100723 7.18037347 1.66688066 0.17513109 1.11328020
O 23.11647855 4.67064098 7.18970022 0.48043177 -0.86065173 0.67608712
O -1.16451004 1.55988883 4.27066296 -0.79375131 -0.03985643 0.69608576
O 11.57922715 1.55009708 4.20866256 1.10507255 -0.27066559 0.67926426
O -0.95713555 4.80493316 4.28073358 1.15529222 -0.53932753 0.87835332
O 11.50085409 4.66419197 4.23915714 1.25802021 -0.33906271 -0.63218234
O -2.40361588 1.61050565 9.97064959 -0.19826519 1.25961376 0.77898201
O 10.16574206 1.56858805 10.04235592 0.42341873 -0.61055262 -0.54003223
O -2.37639371 4.60508781 10.12852028 0.33887657 -0.66813641 -0.10852165
O 10.17096217 4.65338610 9.87564179 0.18048896 -0.74517123 -0.15350438
O 5.84288791 6.19103214 1.50574744 -0.27706185 0.39438439 0.91495931
O 18.37650561 0.04253781 1.47550878 0.40261350 0.51754220 -0.57192966
O 5.91580999 3.04279425 1.50240117 -0.66088963 0.07378033 0.88438665
O 18.30667777 3.07602057 1.45185753 -0.81536843 0.94316217 0.75289352
O 4.40824416 6.11742457 7.31564942 0.94235798 0.66972045 0.46659019
O 16.97210828 -0.01568926 7.11981651 -0.59237317 0.52187464 0.50505075
O 4.38750481 2.99082193 7.22212900 -0.69556082 0.15871302 -0.82966009
O 16.98135917 3.20552999 7.18535766 -0.07309690 -0.18537378 1.68468794
O 5.21176268 6.18383434 4.28021564 2.50437175 0.58631178 -0.63958485
O 17.79914640 -0.01164166 4.29892359 -0.97538224 0.21483744 0.24754392
O 5.27789435 3.14871659 4.30306509 0.75192717 -0.53487278 0.45926585
O 17.68864529 3.10456472 4.21384050 -0.62841353 -0.95967702 -0.98869976
O 3.92808473 6.12174539 9.96990195 -0.76251181 -0.03427562 1.44842690
O 16.45557029 -0.02993908 9.96823004 -0.32912159 -1.02126055 -0.40953301
O 3.89291398 3.16946507 9.99624333 -1.01671081 0.46786955 -1.08085877
O 16.24729284 3.17165763 9.93418139 -0.03605571 0.43699831 0.02691621
159
Lattice="25.023188 0.000000 0.000000 0.000000 6.195400 0.000000 -2.791382 0.000000 11.470445" Properties=species:S:1:pos:R:3:force:R:3 Energy=-621.682554 Virial="-58.553753 -0.460892 -3.206223 -0.460892 -48.236352 -3.546773 -3.206223 -3.546773 -43.825729" Ga_vac_type=Ga_tetra Ga_vac_tier=low Ga_coord=4 defect_vacancy pbc="T T T"
Ga -0.14068829 -0.07849838 4.66433022 -0.72355340 0.41045195 -0.68134026
Ga 12.58589443 6.12138598 4.62020138 -0.17453210 -0.26760530 0.97797046
Ga -0.02470001 3.17754209 4.59875402 1.12946340 -0.75661217 -1.01229353
Ga 12.50570656 3.12801644 4.41346359 -0.41304151 -0.84344913 0.64012690
Ga -1.46260953 6.26626818 10.32154195 0.32156078 0.61898000 0.95018644
Ga 11.14447786 6.32854141 10.27444274 -1.38089784 -0.55007401 0.71568035
Ga -1.29386072 2.88869039 10.26422424 -0.96600109 0.46821146 1.13402877
Ga 11.14667784 3.10709403 10.39383542 1.64851975 0.09481339 -0.47762727
Ga 11.08723734 0.01896052 1.13526916 -0.04352244 -0.10633579 0.39195646
Ga 23.63436174 -0.01658305 1.19500853 0.60680113 0.14315193 -0.04686106
Ga 11.10065384 3.08616826 1.15670833 1.22305730 1.24374234 -1.28040462
Ga 23.59529319 3.01661817 1.23391728 0.79194334 -0.78393516 1.10100073
Ga 9.60057179 6.11121695 6.86730319 0.44829001 0.55240233 1.20912395
Ga 22.13489641 -0.03105068 6.91704379 -0.59880839 0.12740596 -0.42692190
Ga 22.29427943 3.03992660 6.86272986 0.44374826 0.58396418 1.38576623
Ga 6.38527770 1.59632788 4.51394067 0.14233911 0.24941972 -0.63641408
Ga 18.88024938 1.52708050 4.64611086 -0.07912196 1.55885490 -0.48479841
Ga 6.25622161 4.62791977 4.65652109 0.82711901 -1.35750781 -0.79215945
Ga 18.85958369 4.68101642 4.50212842 -1.10030148 0.46768397 -0.25688677
Ga 4.86471740 1.43758831 10.42015302 -0.02911202 -0.03444729 0.26526253
Ga 17.34134745 1.54096790 10.25281654 1.12425598 -0.13010353 0.47736497
Ga 4.75252109 4.75627940 10.28823037 1.12419125 -0.07951166 -0.84464114
Ga 17.30278371 4.55069029 10.30391662 -0.23586932 0.53178534 1.10673706
Ga 4.83310535 1.63564706 1.21086805 0.21098624 -0.02421692 0.49411118
Ga 17.44227420 1.66648992 1.24013524 -0.07492755 0.76665292 0.84452509
Ga 4.92337486 4.66103053 1.18518631 -0.22198662 0.68763424 -0.43571898
Ga 17.31537795 4.73399132 1.15982676 0.97818444 -0.67832244 1.55364213
Ga 3.55750436 1.44460747 6.96891188 1.07164333 0.60829804 0.23691387
Ga 15.96806632 1.68852992 6.75140036 -0.37669989 -1.14250758 0.79193875
Ga 3.50220218 4.67842667 6.93986037 -0.04124077 -0.61704601 -0.68815270
Ga 16.04377302 4.65673636 6.88956873 -0.69494061 -0.81769865 -0.06374620
Ga 1.48845352 1.57561480 1.72151494 0.74103549 1.01646352 0.76249989
Ga 14.19237906 1.52120153 1.76022398 -0.69641693 -0.33573557 0.37825801
Ga 1.63504159 4.59777092 1.80329246 0.21848842 -1.89137684 0.81787982
Ga 14.14295658 4.70758597 1.90239116 1.15011459 0.56599479 0.56599166
Ga 0.16248145 1.72482231 7.47538169 1.14285513 0.50816952 0.02486391
Ga 12.77113603 1.49011043 7.48488962 0.71772369 0.77620433 -0.80889151
Ga 0.22985656 4.54781356 7.48448972 -0.74764311 0.65208401 -0.77558464
Ga 12.68698658 4.55183755 7.48729256 0.55759598 1.30566548 1.05938284
Ga 9.60038429 1.64320499 3.96699935 -0.26652627 -1.70199172 0.15178784
Ga 22.14865204 1.65917687 4.01717725 -0.25696245 1.01554585 0.20890235
Ga 9.55156458 4.68284169 3.80519695 -0.59147135 -0.39286485 0.03701117
Ga 22.02780157 4.65674579 3.90533792 0.09374269 -0.28295122 -1.53575366
Ga 8.24913512 1.49895056 9.54552599 -1.19272375 0.10977862 -0.61865056
Ga 20.67819944 1.52864622 9.59278439 0.71590062 -1.59980876 0.41193046
Ga 8.09831744 4.66116810 9.76727069 0.30568951 -1.56968986 -0.48542304
Ga 20.55684115 4.76745110 9.79998282 0.79807812 0.47803989 -0.36995409
Ga 7.82596499 0.05389335 1.84034578 0.00416447 -0.52257260 -0.53298190
Ga 20.24668929 0.15832784 1.81047331 -0.39433594 1.88180189 -0.16714341
Ga 7.79571972 3.18053605 1.71786498 1.27962373 -0.06158632 0.50442297
Ga 20.38982981 2.96530760 1.87394362 1.47247916 -1.15287621 -0.53619272
Ga 6.48390355 0.04823224 7.48278540 -0.06715599 0.70601763 -1.08198243
Ga 18.93113987 0.04126072 7.44397033 -0.80784355 0.68113224 1.71654220
Ga 6.29108644 3.19876236 7.54264157 -0.16632058 -1.30406414 0.07922743
Ga 18.91557458 3.06843922 7.55923842 -0.39207534 -0.11371325 -0.70807718
Ga 3.36319603 0.06709360 3.94611224 -0.13888921 -0.25119709 0.24347301
Ga 15.75855865 6.22556768 3.93334817 -0.44512844 -0.14313204 -0.33775463
Ga 3.27684013 2.95915897 3.94358325 1.12073837 1.18538819 -0.02741196
Ga 15.88267677 3.05388992 3.98404194 0.74848606 -0.25580493 -0.42079652
Ga 1.90249489 -0.08481356 9.65230917 -1.27152020 0.74690352 0.46189376
Ga 14.45084238 6.21984362 9.57908030 -0.87095974 -1.07347685 -0.45382368
Ga 1.78473787 3.02498498 9.72615494 -1.71603254 0.29579304 0.42666407
Ga 14.48715442 3.00248434 9.64541799 1.39529981 -1.02113622 0.41816707
O 1.98782299 6.22057356 0.64746141 -0.43649725 -0.53081509 -0.71849593
O 14.28387065 6.18423734 0.58840902 0.31213164 -0.72507696 -1.12017523
O 1.94343806 3.16311020 0.64497843 -0.33445107 -0.15366672 -1.24820285
O 14.40089691 2.99749025 0.68422159 0.00600924 0.91397976 -0.94281400
O 0.39415379 -0.00922642 6.41664411 -0.24722793 0.45910039 0.43108185
O 12.98992580 6.18950750 6.28597266 0.72210411 -0.89808247 0.69074782
O 0.51848201 3.14160971 6.47445659 -0.28829413 -1.18661726 -0.01673005
O 13.01393589 3.17601455 6.20573518 -1.66364727 -0.22947274 1.14802865
O 9.20514740 0.10307152 5.12102123 -0.13224815 0.95837977 0.39706776
O 21.83174339 -0.03834409 5.07502507 -1.37853590 -0.34655113 -0.53361856
O 9.27103310 3.07859617 4.96625914 -0.82322773 -0.38218185 0.76370943
O 21.68412884 3.15288248 5.10548142 -0.79448453 -0.38485974 -0.98907663
O 7.91442878 6.09928505 10.92337300 -1.52251518 1.21812008 0.12839956
O 20.35195855 6.13613157 10.82889833 0.28300309 0.35371425 0.43390894
O 7.82193054 2.98293743 10.78410570 0.55908843 -0.13086938 0.94875855
O 20.37489088 3.11198784 10.90093244 -0.15840891 -0.42885945 0.78550582
O 8.07202843 1.48096800 0.53968181 0.76064875 -0.28323163 0.49762168
O 20.68982844 1.45382156 0.54682894 -0.52216331 -0.01917329 -0.91464999
O 8.09290909 4.70103998 0.62473949 0.06240693 -0.87234269 0.07143119
O 20.61303441 4.62830325 0.66559516 0.24540849 0.31579318 -0.24037323
O 6.67035412 1.55513395 6.43200983 -0.44531068 -0.13899597 0.11745950
O 19.30624646 1.54736139 6.41808555 -0.01365785 -0.73341995 0.41515077
O 6.54163039 4.69116122 6.42758399 -0.10701583 -0.79217681 0.65225147
O 19.35781899 4.58587795 6.36559084 1.13678484 1.36602406 -0.29212836
O 3.00048156 1.46077098 5.26443321 1.69275118 0.34065678 1.75369904
O 15.51953010 1.48603719 5.11109543 -0.63537823 0.78278997 -1.12829818
O 2.97672412 4.51645893 5.01781276 0.12295099 1.47740753 -1.35724955
O 15.45027144 4.69061459 5.14299330 1.59684825 0.36119236 0.51045539
O 1.52312766 1.44748958 10.98165773 -1.59822501 -1.35960968 -1.32066341
O 14.19772013 1.49465899 10.72551412 0.36259434 -0.57684135 -0.66082954
O 1.64716131 4.68267015 10.89832740 0.44481569 -0.42408487 -0.60112094
O 14.05965160 4.61879970 10.79545123 -1.40684936 0.79042253 -1.51236014
O 1.29342260 6.14598214 3.21428058 -0.32236055 -0.17116742 -0.42474569
O 13.76511768 0.18238363 3.24627173 -1.23652625 0.18689712 0.26562649
O 1.31447809 3.07436881 3.29520765 0.62517137 0.97042285 -0.37287306
O 13.91387526 3.23351778 3.27686297 -0.50266326 2.28797158 -0.21390002
O 0.05537395 -0.02759225 8.94666325 -0.55945966 -2.07743008 0.69919007
O 12.43038610 -0.08571201 8.95553214 0.36769955 0.78325894 -0.55664057
O 0.05194218 3.17678971 8.89980645 0.93146813 -1.18901467 0.46727806
O 12.56906182 3.09875684 8.97488443 -0.62834747 -1.11789563 -1.16016696
O 9.77746060 6.20492024 2.47577725 0.14790569 -0.71234972 0.93452709
O 22.26442510 6.22944138 2.53743464 -0.99091258 -0.27916893 0.27309523
O 9.88771705 3.16942874 2.44607114 -0.00196384 0.52569809 -0.57058984
O 22.37752444 3.08352107 2.42547701 -0.90284047 -0.01580924 -1.77586952
O 8.36068797 0.02102443 8.21580242 -0.41158164 0.67272838 -0.06311390
O 20.73808305 6.23569638 8.11240902 -0.36974729 0.68810845 0.38715455
O 8.35474908 3.03038282 8.21095778 0.80411797 -0.24149946 -0.05088380
O 20.78452900 3.23003802 8.23207583 0.85917969 -0.76138198 0.42689554
O 7.65090694 1.62845614 3.23529270 -2.97163079 0.23878388 0.80775762
O 20.24909144 1.54853765 3.23713201 -0.17023942 -0.39428647 0.42876229
O 7.57434219 4.57264923 3.23835495 -1.08555566 1.10922288 0.28019564
O 20.15495050 4.64314537 3.34403618 -0.57097461 0.12404788 -1.43546350
O 6.34602206 1.51499285 9.06423745 0.41077308 1.36146732 0.30499045
O 18.79747582 1.51170487 9.03170013 1.59462052 1.23262801 -0.54585065
O 6.26968759 4.70410810 8.93192516 -0.01482210 -0.09739458 1.35036817
O 18.78373976 4.53629430 8.91338171 1.29942603 1.86778050 -0.32790062
O 3.55497603 1.54479263 2.39980000 0.21239123 1.35224301 -0.34190427
O 16.00293330 1.48619883 2.48502101 1.17659449 -0.94204465 0.33671004
O 3.45832888 4.65504322 2.44120665 -0.07435472 0.51100197 0.09120928
O 16.00423894 4.57928940 2.48395652 -0.46865714 -1.10291139 -1.14467358
O 1.97350570 1.48399295 8.21220658 0.06369518 -0.24605000 -1.30643431
O 14.55956512 1.62706921 8.28469630 -0.74267284 -0.13519900 -0.85051847
O 1.97065970 4.62170912 8.11469005 0.35375146 -0.63434687 -0.81969355
O 14.58474152 4.63258965 8.15378059 0.40817955 -0.70233339 0.57703512
O 12.08687772 1.63772616 1.40147544 -0.69417904 0.46716367 -0.47072316
O 24.67952927 1.54248972 1.44550953 0.91629310 -0.64616097 -1.14669080
O 12.02263401 4.68153051 1.53110773 0.09341918 0.02779306 -0.26080556
O 24.70849258 4.62691409 1.53842192 0.59085611 -0.49957198 0.88806494
O 10.71976664 1.55857934 7.24749425 1.01265890 0.83831016 -0.23421250
O 23.12664405 1.48901675 7.22798326 -0.32278134 0.89145068 0.66523841
O 10.83964181 4.67848764 7.31339406 0.06912844 -0.65427003 0.44654914
O 23.37822366 4.75880375 7.16928936 1.22841823 -1.38922376 0.14204950
O -1.03895145 1.54412512 4.19530264 0.94335553 0.58737311 -0.15376565
O 11.42967144 1.54227075 4.34768703 -0.01217487 -0.33752558 0.15440495
O -0.97816936 4.66230891 4.12821105 0.68866456 -0.11379932 -0.69782182
O 11.56882350 4.65378499 4.19180627 1.16272462 -0.96999932 1.54018071
O -2.33932342 1.61458030 10.04986296 -0.50850510 1.26031648 0.33845941
O 10.17860087 1.60088650 9.91722604 0.02403832 0.20068053 0.24892090
O -2.44614634 4.52886282 10.08201379 0.65666940 0.93376180 -0.13480612
O 10.15211335 4.77203524 9.99477264 0.18750206 -0.73207469 1.10180425
O 5.88900174 6.16689631 1.52201877 0.17196078 -1.82247439 0.34903063
O 18.50107014 0.13300362 1.31226190 -0.42507704 -0.10312399 1.84925216
O 5.78339894 3.21570959 1.44860053 0.30930079 -0.47211326 0.92482210
O 18.44367108 3.09754502 1.55940681 0.17586051 -0.44680947 -1.10040248
O 4.46772876 6.19628550 7.21112029 -0.04394542 -0.24990599 -0.87382105
O 17.07658512 0.03069513 7.24368026 -1.15326721 0.52131351 -1.25211579
O 4.39345236 2.99998469 7.17421142 0.28806762 -0.00277944 -0.06826265
O 16.97415391 3.12257585 7.27180904 -0.39260389 -0.51820859 0.35654815
O 5.27148638 6.23206944 4.25356737 -0.68995533 -0.69853942 -0.38987334
O 17.81657479 0.14461115 4.34983714 0.38069138 -0.97203726 -0.08575936
O 5.25546707 3.06379313 4.45285644 -1.64673898 0.77669116 -0.06632270
O 17.73020420 3.16210191 4.23409025 -0.40873690 1.79640207 0.09575454
O 3.87219428 6.20315562 10.17295221 -0.38567955 -0.58919180 -1.05078372
O 16.52437152 -0.12364760 10.03737519 -0.96340250 -0.02612829 -0.04141987
O 3.75844209 2.85443283 9.94596986 -0.28279207 1.22641400 0.44607141
O 16.45704470 3.08196058 10.06317322 -1.37639839 0.70855503 1.10552523
159
Lattice="24.929137 0.000000 0.000000 0.000000 6.172114 0.000000 -2.780890 0.000000 11.427333" Properties=species:S:1:pos:R:3:force:R:3 Energy=-623.432327 Virial="-54.079961 0.548082 -0.141942 0.548082 -47.983789 -4.246557 -0.141942 -4.246557 -39.063068" Ga_vac_type=Ga_tetra Ga_vac_tier=low Ga_coord=4 defect_vacancy pbc="T T T"
Ga 0.00620495 -0.10440128 4.39303889 0.74347395 0.23793278 1.26801928
Ga 12.45453654 6.32375122 4.45930508 1.47427727 0.01742835 -0.53228361
Ga -0.04061948 3.21311776 4.52961654 0.86306977 -0.38472918 0.18881723
Ga -1.49242838 6.13856279 10.22972599 -0.16970885 0.40636914 0.59688847
Ga 11.13120266 6.19889983 10.17304212 -1.27558831 -1.63994471 0.65818905
Ga -1.39408985 3.01994324 10.17231544 0.70908543 0.08084748 0.18663328
Ga 10.94096796 3.19178998 10.23142057 0.07439023 0.32558345 -0.57870553
Ga 10.98846957 0.15991014 1.20598229 0.06850360 0.96370120 -1.10747407
Ga 23.45629690 0.04812473 1.20304345 0.62249213 0.41366166 0.63188748
Ga 11.08981978 3.11305718 1.10850506 -0.01630538 -1.23076734 -0.14425443
Ga 23.45605518 3.07595316 1.22529303 0.90919758 -0.11346369 -0.51563091
Ga 9.71359580 6.14090098 6.90967201 -0.19726302 0.38726581 -0.07983008
Ga 22.17888023 0.02413059 6.78282622 1.54642423 -0.57338589 -0.64627265
Ga 9.61892250 3.07094388 6.94759187 0.00436808 -0.42228943 -0.55245544
Ga 22.13836787 3.17847318 6.84580806 -0.44456425 1.67707016 -0.14152490
Ga 6.21506390 1.55373432 4.60894026 -0.51840657 -0.70332875 -0.75830057
Ga 18.63539939 1.43174226 4.50723143 0.09753305 -0.47277642 -0.29042631
Ga 6.37607945 4.70993776 4.54410323 0.86454255 1.87286632 -0.93648409
Ga 18.74547918 4.65478323 4.53923020 -0.53889226 -1.59739962 -0.61428249
Ga 4.87717824 1.49394092 10.24857170 -0.41551890 0.06489278 -0.48125132
Ga 17.32279884 1.50579875 10.30974882 0.80806188 0.29625882 1.57987039
Ga 4.78417923 4.67488533 10.24807633 -0.52322977 2.02000182 -1.03213557
Ga 17.26002759 4.68702011 10.20617823 -0.36717144 0.15979200 0.03481062
Ga 4.87265115 1.36899360 1.13925032 0.81243396 -0.21792290 -0.33448113
Ga 17.17731192 1.54308011 1.03445084 -0.19839993 -0.44072002 0.60811817
Ga 4.71800782 4.62725944 1.30752933 0.58402633 -0.08302618 -0.20291996
Ga 17.38753711 4.65056631 1.26738255 0.74319809 -0.86899811 -0.10332709
Ga 3.51847816 1.58192462 6.97445037 -0.12635516 0.33827454 1.63800515
Ga 15.96657509 1.54930114 6.90163545 -0.44896602 -0.83853975 0.40733124
Ga 3.45058211 4.66442484 6.91044459 -0.42031250 0.45003189 0.41961369
Ga 15.83217448 4.62564114 6.89852375 -1.11775976 0.24403948 -1.33395480
Ga 1.56267014 1.39356234 1.78789601 -0.35180336 -0.09403350 -0.74949418
Ga 13.98590040 1.48776915 1.99011320 -0.92931145 0.54423281 0.05947296
Ga 1.59594125 4.52440438 1.76827705 0.25118632 0.27260871 -0.56507648
Ga 13.83964789 4.55060725 1.88626913 1.65334399 0.68022590 -1.55105927
Ga -0.00479256 1.50508795 7.58730898 -1.32580419 1.57029698 0.45929289
Ga 12.70812727 1.53403352 7.54082901 0.45716791 -0.24049665 0.01408920
Ga 0.21979097 4.62296814 7.57115073 -2.68272556 0.67268972 0.10560893
Ga 12.73242883 4.57793021 7.33227996 -0.92375032 0.29435721 0.16449787
Ga 9.52561660 1.64901194 3.84299627 -1.79677506 0.71254072 1.36081396
Ga 22.00015991 1.47939659 3.91825984 -0.12848202 0.06323132 -0.50087293
Ga 9.50344479 4.59875325 3.97347567 1.15764291 -0.22869414 0.79444960
Ga 22.06390972 4.58110245 3.86467908 -1.92433668 1.41742833 -0.96773569
Ga 8.18379565 1.66392897 9.75638392 -1.19476768 -1.02179070 1.32571059
Ga 20.58408573 1.60632152 9.66756818 -0.01774042 0.54348888 0.29062633
Ga 8.25473836 4.60659666 9.68443213 0.55617594 -0.59259214 1.86015500
Ga 20.64776543 4.67583151 9.64699923 -1.02786731 -1.03332353 -1.48393105
Ga 7.71882387 -0.06406419 1.76248458 -0.28681283 -0.19471958 1.35869674
Ga 20.26027385 0.10000713 1.76902080 -0.35223986 -0.36202853 -0.12456786
Ga 7.78285535 3.11697918 1.92762021 0.75972069 -0.61458214 0.25297066
Ga 20.22052546 3.09096574 1.64137449 -0.22471619 -0.36478321 -0.51607173
Ga 6.46756561 -0.00231795 7.49310470 1.71406619 0.54697671 -0.51368321
Ga 18.76501222 -0.02559256 7.57738602 -1.12996378 0.00305231 0.22613245
Ga 6.40120246 3.18133721 7.54507250 0.86454996 -0.34099650 -0.63072227
Ga 18.83641672 3.07487642 7.39946944 0.03546338 1.26257518 -1.00891197
Ga 3.36109839 0.11819130 3.89916208 1.21486693 -0.05814345 -1.97475100
Ga 15.63306678 6.18800497 3.92848404 -0.26464085 -0.38039843 0.21041205
Ga 3.18782412 2.99134230 3.97649260 1.78554776 1.05894599 0.29140853
Ga 15.79338299 3.04690594 3.97145707 -0.99244579 0.37323308 1.32601206
Ga 1.96943897 0.10534784 9.63244866 -0.27332228 -0.49688634 -0.31538145
Ga 14.43126390 6.15638772 9.70966879 -0.58468849 0.07984613 -0.73362169
Ga 1.89533451 3.01908442 9.65192563 0.13123546 -0.28992867 0.79562706
Ga 14.49257456 3.11563933 9.59845841 0.87578871 0.43882818 0.36501467
O 1.81583643 6.18140679 0.61275116 -1.18883144 0.09071179 -0.38004569
O 14.21018638 6.08008899 0.70424834 0.05077943 -0.36850327 0.68158563
O 1.87070626 3.09765474 0.49971839 -0.53548981 -2.00155243 0.70056093
O 14.43184132 3.10225769 0.59669378 -0.51472137 -0.62544020 -0.76585800
O 0.47337260 0.10428234 6.34190718 1.49111387 -0.53730617 0.32221917
O 12.99091723 6.13117474 6.48013972 -0.28985123 -1.43982621 1.62353740
O 0.49557485 3.23870334 6.42845131 0.14730066 1.18787507 -0.78460770
O 12.91631853 2.97525057 6.37275074 2.55485653 0.61620434 0.27991175
O 9.10097260 -0.04199393 4.98329058 -1.25659885 0.19458744 0.01265356
O 21.72568886 0.12716354 4.94950598 1.20841863 -0.90813990 -1.06679662
O 9.13386307 3.23123535 5.24095981 -0.36295897 -0.37724020 -0.23042999
O 21.71295258 3.16815699 5.00254321 0.23621013 0.04711251 -0.79230810
O 7.80379826 6.19263258 10.80920946 -0.53430478 0.55600999 0.04999978
O 20.31789570 6.31007315 10.90909849 0.21587860 -0.70194462 0.34044878
O 7.67848829 2.98064144 10.77106439 -0.09124692 -0.35286965 -0.07965716
O 20.20552227 3.06989246 10.92385427 -0.22308378 -0.89691991 -0.75114704
O 7.99085974 1.55519772 0.54464388 -0.74694971 0.18920654 0.81425644
O 20.70637512 1.50226520 0.60828163 0.46411545 1.37605592 1.78387422
O 8.15024734 4.68072626 0.57173663 1.13186918 0.70534241 -0.44512404
O 20.65855102 4.52964592 0.61246406 0.16530145 0.81422067 0.80597167
O 6.74229587 1.52385686 6.34861450 -0.68121941 -0.16854056 -1.00893787
O 19.15488879 1.59231622 6.32137365 0.55936993 1.08582075 1.35738171
O 6.65587376 4.64755710 6.33358519 0.09955403 -0.33176415 -0.37711733
O 19.19852268 4.64340086 6.32070861 -0.07472276 0.01435664 0.86193150
O 2.83646722 1.48241316 5.16028911 -0.24092592 -1.13367647 -0.79763614
O 15.43099783 1.57912857 5.07873187 -0.22330230 0.20044862 -0.43116111
O 3.02433250 4.59949963 5.04527339 0.03526671 -1.46895205 0.17683965
O 15.51707293 4.55011991 5.15491598 -0.35907871 0.24682845 -0.00417075
O 1.56433319 1.45810882 10.82088492 0.83835696 -0.10225811 2.10661210
O 14.13325521 1.54053219 10.72422491 -0.71327770 -0.82601049 0.07564607
O 1.67077733 4.54342223 10.72379127 1.95992106 -1.39462898 0.73742131
O 14.03692766 4.74492393 10.78983348 -1.95516694 -0.77820098 -0.72958443
O 1.31195790 6.09879194 3.26930955 -2.03198222 -0.37090256 0.86689075
O 13.91194315 -0.02705682 3.24151961 -0.91519210 -0.12918735 0.77791426
O 1.34028749 3.15676911 3.17247080 -0.43491210 -0.48663190 0.84482872
O 13.87180456 2.97135516 3.16137790 -0.35860612 0.88241171 -0.29742347
O 0.05271764 0.04356769 8.92898012 -0.73969590 -0.75913339 -0.05950462
O 12.39564632 -0.14614381 9.09985819 0.10804296 0.57495859 0.68410768
O -0.08456822 3.06727045 8.84819814 0.24041503 -0.41864932 -1.31549937
O 12.47779143 2.93376359 9.00010527 2.05976878 1.07577896 0.82651582
O 9.71761796 6.02769142 2.51475857 -0.34795943 -0.51208506 -0.05477340
O 22.08330728 6.06916305 2.53610201 -0.99436158 0.23913339 0.29084263
O 9.75532713 3.11410078 2.43874609 -0.27073039 0.45729664 0.14785822
O 22.18375584 3.04601124 2.52116343 -0.86549395 0.24105357 0.55263415
O 8.30610341 -0.08902268 8.22598190 -0.28753395 0.50776683 1.14626338
O 20.62285487 6.22198294 8.27223362 -0.73541569 1.24110455 -1.00592410
O 8.33359148 3.08309613 8.15597899 0.20346099 -0.36205080 0.74205544
O 20.61208186 3.20774249 8.23792481 0.49147321 0.31513760 0.61744689
O 7.53568387 1.49594867 3.22739836 -0.05733057 0.95054056 -1.08994137
O 20.06485664 1.59164393 3.25894313 0.87202016 0.31347188 0.28920395
O 7.59671794 4.65163625 3.13787773 -0.22064093 0.19768107 -1.64073112
O 20.07273363 4.65380225 3.18761191 0.92166555 -0.55642601 0.66589136
O 6.15211818 1.52367641 8.84593357 -0.56257965 0.57536383 0.59415946
O 18.53512794 1.59826096 8.82847221 0.20178297 0.68304813 0.03890375
O 6.43394782 4.68728923 8.91521751 0.99209057 -0.12393071 -1.07529875
O 18.73901406 4.64169803 9.01895831 1.02048079 0.03467238 -0.36753282
O 3.48084121 1.63702189 2.50124364 0.13709955 1.41000985 -0.38696519
O 15.95029876 1.53607155 2.51393301 1.09526545 -1.68935017 -0.35894438
O 3.32960144 4.53754185 2.48694229 -0.08437699 -0.79916908 -0.79094723
O 15.93132552 4.70700264 2.36902892 0.04952157 -0.44476835 -0.40474485
O 2.11603491 1.65920417 8.31624144 -0.61947388 1.90979619 -0.45651196
O 14.50539325 1.48363048 8.11968929 -0.22686115 0.75949151 -0.15726257
O 2.18851210 4.69649853 8.27587862 0.37854609 1.40964138 0.93389746
O 14.67399716 4.54358869 8.13576326 -0.13917273 -1.11167412 -0.84606071
O 12.10082517 1.43377743 1.37453965 -0.60784473 1.09849172 -1.31253745
O 24.51586906 1.47952312 1.64167229 0.07811855 -1.57324321 -1.02870052
O 12.11478930 4.69221919 1.48236093 0.23265146 0.36665587 1.10165996
O 24.43244839 4.72115296 1.55563683 0.46954911 1.15556738 0.17383710
O 10.70371351 1.45218312 7.21919737 0.83817095 -0.62772777 -0.44723744
O 23.10329009 1.51514137 7.10656786 1.06817569 1.11356903 0.51484883
O 10.76163272 4.51375813 7.30385088 0.31446876 0.76505345 -1.45911533
O 23.16395761 4.54467009 7.19349423 0.59254821 -0.06663187 -1.16727683
O -1.02061417 1.57429501 4.22819947 0.08564454 -0.36107786 -0.93036605
O 11.52755396 1.54358097 4.34733202 1.26607780 0.00812691 1.30126885
O -1.13496789 4.70436654 4.17236130 -0.27004840 -0.68076488 0.27154765
O 11.45861260 4.66248813 4.26070283 -0.45629216 -0.20328044 -0.01380476
O -2.27616045 1.60952785 9.92874869 -0.74412557 -0.06948702 -0.95773560
O 10.10758757 1.55781267 9.93807804 -1.30217274 -0.20459655 0.07299207
O -2.44433225 4.58777816 10.08716028 1.00676267 -1.23336090 -0.05862524
O 10.06691176 4.47897752 9.97088852 -0.36473176 -0.29082363 0.26022362
O 5.72398818 6.18321094 1.40190257 -1.28888366 0.51105431 1.22367090
O 18.34438628 -0.15116876 1.38525663 -0.50748267 -0.26952784 1.05422723
O 5.87229471 3.03234400 1.50992763 -0.99344950 1.76308186 -0.80182331
O 18.34548268 3.10747278 1.45171497 -0.66270672 0.60128470 0.02414459
O 4.48996974 6.14479145 7.07318619 0.89449960 0.04167868 0.38935060
O 16.93135962 -0.02437326 7.16455826 0.89302920 -1.33635838 0.38466389
O 4.50489507 3.15895569 7.20427135 -0.01910605 -0.36278027 0.33412918
O 16.91365218 3.11477204 7.22317853 -0.66737242 -0.29205215 0.05952544
O 5.27422041 6.26370527 4.22035258 0.28461578 -1.74529759 -0.39771640
O 17.66093332 -0.04091895 4.31003286 0.03286914 1.82525141 0.88000481
O 5.20173323 3.15051044 4.23666980 1.14937430 -0.63855372 -0.90690961
O 17.52703067 3.03630065 4.14161385 -1.20360178 -1.20640134 -0.70819103
O 3.94421367 6.25043575 10.10795939 -0.01385407 -0.24515407 -0.40896436
O 16.20515100 -0.06690175 10.11691603 -0.20944411 -0.16243031 -0.33921019
O 3.82951663 3.17503647 9.99230693 0.93160031 -0.35423465 0.78467227
O 16.17747701 2.97457418 9.91653794 -0.06413410 -0.84132386 0.85252952
159
Lattice="24.947037 0.000000 0.000000 0.000000 6.176546 0.000000 -2.782887 0.000000 11.435538" Properties=species:S:1:pos:R:3:force:R:3 Energy=-622.829678 Virial="-54.777372 0.229706 -1.588992 0.229706 -44.953657 -4.686293 -1.588992 -4.686293 -41.449924" Ga_vac_type=Ga_oct Ga_vac_tier=low Ga_coord=6 defect_vacancy pbc="T T T"
Ga -0.02359477 -0.05983130 4.50106112 -0.93929529 1.19907415 -0.68920303
Ga 12.49431326 6.32920156 4.40702393 1.12512148 0.12848259 -0.21027372
Ga -0.06774747 3.08039863 4.48011176 -0.00598565 -0.13901509 -0.31131845
Ga 12.50349910 3.13523025 4.48855652 0.66602242 -0.72222397 -0.52689552
Ga -1.36837594 6.16553864 10.19674147 -0.17770785 0.18105677 1.09645146
Ga 11.08092670 6.16671380 10.22109918 0.48293103 0.20539963 -0.94009681
Ga -1.31072761 3.03508740 10.19426720 -0.16038731 -1.30019762 0.24632793
Ga 11.02248240 3.09048017 10.23612033 0.07262306 -0.17505065 0.12157443
Ga 10.92858722 0.05480796 1.08255120 -0.73514701 1.08130805 -0.06270009
Ga 23.56897928 0.02144584 1.21743401 1.05984143 -0.37828722 -1.13817242
Ga 11.04281371 3.13705870 1.10173247 0.40445802 -0.40532642 -0.01125826
Ga 23.45067843 3.12508381 1.06859490 1.72890589 1.19120445 0.83951563
Ga 9.73590940 6.14709530 6.98149337 0.41122547 0.13420838 -0.07181018
Ga 22.16786256 0.00586706 6.88144625 -1.64377422 -0.30245837 -0.87741941
Ga 9.67048808 2.96368676 6.85028670 0.69012743 0.87620733 1.09569576
Ga 22.22487089 3.12544214 6.87766513 0.00138651 1.30416580 -0.17815800
Ga 6.25823390 1.61071030 4.56004953 -1.05881745 0.04486406 0.33651743
Ga 18.72727643 1.51142310 4.71514922 0.16472457 0.12233327 0.45310677
Ga 6.26462823 4.64349771 4.53542132 -1.19483639 -0.54854772 0.79650642
Ga 18.77874234 4.60049768 4.50019626 0.01982848 0.57139985 0.17827102
Ga 4.77144793 1.58718436 10.22703232 -0.59636123 0.07208998 -0.89619911
Ga 17.34316683 1.57055126 10.23897576 -1.76031693 -0.05495016 1.12617548
Ga 4.92339749 4.64672516 10.28995136 0.48807490 0.10965769 0.25580894
Ga 17.27996312 4.66378155 10.23564627 0.10878297 -0.35442996 -0.19249205
Ga 4.91530305 1.44651834 1.25434353 1.76576683 -0.04767995 -0.89112982
Ga 17.20453108 1.60011351 1.32769883 -1.02181983 -0.59319515 -0.89429780
Ga 4.79087975 4.64595813 1.15057168 -1.09525106 0.73639531 -0.53362214
Ga 17.32525196 4.52316303 1.19472470 -0.42049627 -0.55876782 -1.57777094
Ga 3.46768716 1.57547076 6.93234317 -0.44831711 -0.75650676 -1.16957977
Ga 15.89503171 1.50372768 7.04652840 -0.17844456 1.38396763 1.52552916
Ga 3.40994701 4.56561426 6.95896747 0.48927275 -0.17036575 0.82173927
Ga 15.95726365 4.63343661 6.93056540 0.80186768 1.04761971 0.51486050
Ga 1.32163367 1.57169735 1.77995667 0.44249399 -0.98545561 0.65721705
Ga 13.96496013 1.50360782 1.79848233 -0.57003577 -0.20227738 0.16974747
Ga 1.60742530 4.62002480 1.80944941 -0.58586075 0.52216918 0.35019772
Ga 14.04231876 4.53526415 1.82388391 0.08123855 -0.60670607 -1.14726080
Ga 0.16894255 1.48926174 7.59566095 0.86098874 0.34303123 0.71254226
Ga 12.64511275 1.44387984 7.45455135 -0.02987671 0.26745316 -1.07127500
Ga 0.12306458 4.76417377 7.51817582 -0.24963506 -0.64786562 0.30329091
Ga 12.65193034 4.46501844 7.48223573 0.46271090 0.50982810 0.08851024
Ga 9.62505461 1.59775981 3.90701499 -0.22805619 0.01747976 -0.39877061
Ga 21.97121829 1.46118498 3.93827392 -0.54153972 1.60768602 1.47094999
Ga 9.59186039 4.58659524 3.81281532 -0.79703252 1.19585154 -0.86647887
Ga 22.01776173 4.62637307 3.85143467 0.63970801 -1.20309765 -0.08488330
Ga 8.10882709 1.55804606 9.58679710 -1.85042878 -0.06290920 -0.76082240
Ga 20.67064755 1.48901084 9.51892003 -0.36689731 -0.53487655 -0.04867195
Ga 8.20070079 4.61347871 9.53223165 -1.12755529 0.27086432 -0.25726972
Ga 20.59126284 4.54530361 9.77908268 0.05259397 1.15260432 0.50326929
Ga 7.75778661 0.00012239 1.84434968 0.44499571 -0.60183945 -0.01828574
Ga 20.31859036 -0.01451950 1.76495242 -0.30061892 0.39532002 -0.03982892
Ga 7.84762647 3.05193223 1.79819920 -1.42654736 -0.96557360 0.43493079
Ga 20.33128773 3.10106660 1.73205713 -0.41886768 -0.37789100 0.65235825
Ga 6.48171565 0.03623019 7.56821293 -0.36952600 -0.27447124 0.28748947
Ga 18.85469286 0.01878857 7.50948889 0.72668139 -0.24127764 -0.75079340
Ga 6.33186005 3.10208037 7.52902387 0.00150125 -0.63566672 0.99316853
Ga 18.76094087 3.09998206 7.43071140 -1.00878865 0.88683574 -1.13825464
Ga 3.36673129 0.04501095 3.88535775 0.88351413 -0.41091194 1.59042303
Ga 15.77618557 6.13314214 3.87325953 0.50121245 0.64052745 0.08115390
Ga 3.34633188 3.04911883 4.03410071 -0.46672744 -0.08034413 0.18582424
Ga 1.92750897 0.04460535 9.55040958 0.40865919 -0.74356812 -0.12023046
Ga 14.41180900 6.22343287 9.78143709 -0.09216019 1.17235342 -0.22554727
Ga 1.97894212 3.10493818 9.65753103 -1.49038304 -0.68349263 -0.97460259
Ga 14.37404574 3.14307829 9.70243993 -0.10726467 0.07240524 -1.37063871
O 1.93678651 6.11295273 0.54532738 0.21023632 0.79685126 -1.65500991
O 14.32018423 6.15153049 0.58696790 -0.40607268 -0.62868929 1.03349083
O 1.88468433 3.03381251 0.68274377 0.27838448 -0.29459105 -0.42941720
O 14.33150477 3.18854070 0.64818842 0.77482561 -0.14919901 -0.82766535
O 0.51580327 -0.10577438 6.45211112 -0.31593372 0.88008669 0.55308997
O 12.92435566 6.15030059 6.25588829 0.01602167 0.09974949 -0.45592338
O 0.57054668 3.10177935 6.28424156 0.63662820 -0.52024885 -0.32048192
O 12.95977582 3.19125910 6.32662386 0.64385623 -0.82423208 0.17502867
O 9.21112212 -0.06077329 5.07600546 -0.33456547 0.76856126 -0.70948702
O 21.58981066 0.00699044 5.16869011 0.44566502 -0.41400018 0.10214831
O 9.17147619 3.21159623 5.18673337 -0.13208997 -1.17345853 -1.55986075
O 21.64136008 3.07650763 5.12077807 1.12067491 -0.21694335 -0.95557701
O 7.88379630 6.24156625 10.79395143 0.53811735 0.46071272 0.94058920
O 20.22947390 6.11891164 10.74946577 -0.44499798 -0.52235992 -0.97607371
O 7.82636737 3.06417575 10.74228519 0.18496311 0.68529725 -1.77550813
O 20.21053627 3.06786110 10.68254908 -1.28249599 0.00872978 0.26239059
O 8.14456658 1.57246352 0.62314237 -1.03946417 -0.24504937 0.31605341
O 20.54938815 1.54914560 0.65517566 -0.12491876 0.11582323 1.45605968
O 8.22282387 4.78920535 0.61560295 0.59777302 -0.86861751 0.21378899
O 20.64287891 4.62109140 0.52050920 -0.98554227 0.77269220 0.67936461
O 6.72271542 1.54993803 6.32696190 0.32106002 0.07619066 0.77526840
O 19.15413747 1.46455570 6.31255403 0.57157379 0.85437734 0.83404188
O 6.81167492 4.61405601 6.37888216 0.65537289 -0.23717205 -0.07315174
O 19.13471653 4.66319745 6.28544561 -0.18850936 0.94447390 0.79913719
O 2.90172527 1.54270174 5.05552076 0.64502211 -0.04783597 0.05284848
O 15.46543392 1.44940909 5.10323012 0.42198330 0.00513065 0.12733404
O 2.91552684 4.58701552 5.09999924 -1.67814886 -0.24715273 -0.61280543
O 15.51380671 4.73136205 5.14532786 -0.29267391 -0.56224802 0.57213134
O 1.49990641 1.62602182 10.89579358 0.50685672 -1.27395304 0.91765826
O 13.95679039 1.55302164 10.89000375 1.39007256 -0.47587825 -0.65303619
O 1.53721555 4.46898909 10.77711521 0.72397197 0.23739620 -1.30654813
O 14.08943507 4.66279850 10.78595558 0.28703427 0.04110241 1.17080606
O 1.27684472 6.09090842 3.25373808 1.28391810 -0.66274940 0.07894543
O 13.76146413 -0.07174639 3.28227512 -0.35771963 0.13049268 -0.82536634
O 1.40280436 3.14582148 3.18689904 -0.28630791 0.85192645 0.98657258
O 13.87460480 3.04599912 3.06094526 0.41841104 0.02992012 0.10102255
O -0.01678006 -0.01963764 8.97078910 0.46933061 -0.91516490 -0.74114752
O 12.50038605 0.01145296 8.98432812 -1.03714692 0.91308186 -0.15611048
O 0.08708537 3.09271093 8.89896734 0.15337746 -0.79192704 -0.24737686
O 12.48489375 3.13418754 9.03835746 -0.13252848 0.19612882 1.01925466
O 9.61344494 6.17327583 2.51867332 0.95246721 0.12832564 0.31088660
O 22.15446329 6.11333716 2.50482244 -0.33025507 -1.29354793 0.50466383
O 9.74788584 3.04516862 2.37482031 -0.76440760 1.37051430 -1.02083367
O 22.20833052 3.06950354 2.47878899 0.75499086 -1.06400279 0.94165303
O 8.38531790 -0.00504787 8.17648845 -0.09944694 -0.37007143 0.28474413
O 20.69873140 6.12151922 8.14132840 -1.15029348 -0.34843686 0.13853730
O 8.24167537 3.17032402 8.31724518 -0.14452391 -1.43310528 -0.88113806
O 20.76390477 3.08711199 8.19580827 -0.49334521 -0.11397282 0.17317034
O 7.55851430 1.53097743 3.13300638 1.38794579 0.71072129 -2.08145735
O 20.08334568 1.64570925 3.21718065 0.08196773 0.80699354 0.13260996
O 7.48068482 4.66856648 3.21538031 1.63268149 -1.12333625 1.61474957
O 20.02189125 4.63612588 3.33182495 -0.10051721 0.78929809 -0.60357626
O 6.28654125 1.53879724 8.93415672 1.12913142 -0.79023247 -0.05116473
O 18.65729348 1.51187900 8.99284166 0.20005730 -2.14859773 -0.36602772
O 6.28861068 4.57395889 8.91086172 -0.23506492 1.28818066 -0.76744692
O 18.74779267 4.54282085 8.99636871 -0.90451071 0.41084994 -0.41501608
O 3.51748728 1.54128568 2.54046807 0.65078251 -0.42011684 -0.19788458
O 15.88307119 1.37695309 2.49978172 -0.84215739 -0.59458838 0.13171123
O 3.54259607 4.54010803 2.53388982 0.69787474 1.12764181 0.38524026
O 15.90458784 4.68778371 2.37569590 -0.06505355 0.27546283 -0.86180145
O 2.04936697 1.47448616 8.20363087 -0.45619818 0.72201383 -0.67400978
O 14.51797908 1.52098343 8.27443296 1.12783933 -0.43057678 -1.06944556
O 1.96584440 4.59063946 8.06611227 -0.06219262 0.51021770 0.10347777
O 14.52594760 4.51715689 8.33115095 0.13350562 0.51079191 -0.08911504
O 12.11853855 1.63539614 1.42785150 -0.03805811 -0.76689712 -0.37734761
O 24.49609963 1.65788941 1.48897784 0.16021229 0.02922181 0.25697884
O 12.11814549 4.70644770 1.62842086 -0.45375380 0.14541550 -0.72996582
O 24.48737602 4.65753841 1.44063080 -0.01906198 -0.14869192 -1.19364304
O 10.67224368 1.44711527 7.20902662 -0.22783383 -0.96985338 0.36227643
O 23.24358887 1.45612808 7.12595133 -0.28305075 0.98185012 -0.89259291
O 10.74387873 4.66102197 7.32778184 -0.35601832 0.06603668 0.18131955
O 23.09094125 4.64102746 7.25760109 0.54906868 1.42615647 -0.57876350
O -1.00143716 1.58253124 4.26243584 -0.67945910 0.38302520 0.71149399
O 11.49989592 1.59295557 4.29832102 0.95453612 0.45353361 0.94457250
O -1.04583754 4.57809684 4.11826984 0.50294887 0.65569358 -1.33899988
O 11.50464560 4.58156128 4.24570736 0.95481410 0.19083510 0.88013277
O -2.27448876 1.45201683 9.91457059 1.02874492 -0.75619074 0.00036071
O 10.06715755 1.61347456 10.01418452 -0.43175407 -0.65854763 1.13549301
O -2.36933230 4.52715423 9.92563280 -0.73193592 0.33080528 0.53696594
O 10.06422619 4.66033845 9.91685397 0.21141463 0.96705999 1.21951903
O 5.91185888 6.12210731 1.43800649 0.43755462 -1.19394683 0.78884959
O 18.23092350 -0.08595586 1.43059375 -0.27629264 1.32916550 -0.48763995
O 6.01610196 2.97560944 1.47691566 0.73163580 0.05274123 1.54628523
O 18.31073501 3.09898704 1.37423907 -1.26053524 0.02335207 0.59077302
O 4.41946127 6.08471173 7.26437851 0.11416504 0.52971178 1.39276411
O 16.93857467 0.00074166 7.15298569 -0.16032067 -0.31018628 -0.33175185
O 4.46482844 3.10163690 7.08050951 -0.04266577 -1.17685436 0.22166698
O 16.95694235 3.11632037 7.28586484 0.25220870 -0.63813808 0.14812536
O 5.31944664 6.21495937 4.19542527 -0.64277651 -2.15910425 1.69860482
O 17.77389564 -0.01236715 4.13422252 0.04804547 0.34684843 0.83837851
O 5.24975581 2.97654841 4.31638974 -0.66066864 0.71326889 -0.28481621
O 17.65878509 3.05600021 4.17733282 0.13420304 -0.55573558 1.28355607
O 3.78584073 6.12791271 9.87726591 -1.32492422 -0.48135680 -1.31877679
O 16.37382789 0.01448272 10.05313600 0.48156147 1.28876294 1.52044031
O 3.85082148 3.13473560 9.96602139 0.83708805 0.63845454 -1.44150650
O 16.37019888 3.04993999 9.95956230 0.31111686 -0.73273315 0.74510093
159
Lattice="25.111938 0.000000 0.000000 0.000000 6.217373 0.000000 -2.801282 0.000000 11.511128" Properties=species:S:1:pos:R:3:force:R:3 Energy=-624.354616 Virial="-56.793077 0.676287 -3.337293 0.676287 -44.310782 -1.843940 -3.337293 -1.843940 -47.844900" Ga_vac_type=Ga_oct Ga_vac_tier=low Ga_coord=6 defect_vacancy pbc="T T T"
Ga -0.15419046 0.11430140 4.70725073 -0.57767222 -0.68267267 1.32367879
Ga 12.62677933 6.19049512 4.65245416 -0.01630188 1.23358015 0.01950770
Ga 0.02977979 3.12680126 4.69390825 -0.58372795 0.16063594 1.15394561
Ga 12.61911287 3.09356208 4.64179808 0.45396926 0.62699788 1.07531365
Ga -1.45028543 6.27026931 10.40925403 -0.09622714 1.02258878 0.23922828
Ga 11.13134407 6.11013276 10.42553981 1.12376761 -0.40845808 -0.58815300
Ga -1.30011918 3.08617751 10.44870346 -0.19978911 -0.32533002 -0.65668660
Ga 11.10320401 3.06108730 10.41462521 0.20896810 -0.34505741 0.20548255
Ga 11.06884657 -0.11463897 1.23195991 1.15491497 -0.58854162 -0.58476371
Ga 23.67285987 0.00447904 1.22859309 -0.96056958 0.86210186 0.51916686
Ga 11.30105187 3.13614752 1.14759110 -1.27341163 -0.07907821 -0.62970744
Ga 23.71379633 3.18774512 1.18963170 0.73421055 0.27924842 1.73044056
Ga 9.70762068 6.23281887 6.98341009 -0.55630508 -0.61811661 0.26598985
Ga 22.27780628 0.02674546 6.92692660 0.59422579 0.38483930 -0.52837977
Ga 9.71844439 3.13581593 7.00177457 0.06985092 -0.12153609 -0.32599909
Ga 22.26893604 3.12320338 6.99944653 -0.26476773 0.25931729 -0.13588005
Ga 6.26031461 1.49082700 4.70074805 -0.74701929 -0.40256904 0.24709607
Ga 18.69641992 1.37257332 4.55269164 -0.31514255 -0.02111101 0.98202066
Ga 6.22837474 4.66004378 4.55127625 -0.71630494 0.05902920 -1.71322982
Ga 18.86286609 4.68840829 4.55255117 0.64457976 -1.19219049 0.73404713
Ga 4.86342242 1.52333318 10.35924003 -0.74147037 -0.58931104 1.38973453
Ga 17.32569104 1.48929982 10.29079874 0.75838653 0.52855186 0.48133090
Ga 4.98616142 4.67650740 10.26294832 0.80965289 0.20910965 2.27703670
Ga 17.40956461 4.61660451 10.34731517 -0.23677587 0.31993071 -0.71235908
Ga 4.84192279 1.68155780 1.16925334 -0.04266586 -0.47246881 -1.82527381
Ga 17.35295184 1.53639399 1.28028301 0.48932506 0.31420120 -1.40666696
Ga 4.82500455 4.62372098 1.18505674 0.25294994 -0.59259168 -0.72958779
Ga 17.46736564 4.82420304 1.15410627 -0.81496897 -0.25107773 -0.43898988
Ga 3.37869235 1.66228337 6.99855507 -1.61153016 0.04087808 -1.76712104
Ga 16.03830688 1.53656988 6.90766043 0.33786000 0.28045134 -0.24883458
Ga 3.42408340 4.56329383 6.96410332 -0.66892923 0.67840827 0.00070719
Ga 16.00849859 4.69394017 6.93028123 0.89401761 -1.03465572 -0.91240802
Ga 1.53507522 1.53189830 1.82270339 -0.26479158 -0.18428906 -0.10876344
Ga 14.16611050 1.43177980 1.84764399 0.73395037 -0.47481854 -0.61290960
Ga 1.56621432 4.57017148 1.80139641 -0.31507344 -0.18600442 0.09060566
Ga 14.09360695 4.73529249 1.86488841 0.57429730 -0.21240831 -0.43585882
Ga 0.12433763 1.51770306 7.48511385 0.04903112 -0.86866815 0.37316059
Ga 12.68202923 1.56348556 7.65779811 0.70186877 0.66918231 -0.25845424
Ga 12.74244635 4.58559009 7.46084106 0.66713212 0.59834099 0.25873402
Ga 9.73500749 1.48060673 4.03870836 -0.73037393 1.89016810 -0.41320803
Ga 22.06912606 1.47292755 4.01030768 0.25671124 1.52618512 0.85101158
Ga 9.76608093 4.64385862 3.83092289 -0.21304636 0.25215869 -0.72907138
Ga 22.13337862 4.63621423 3.88221966 -0.00003769 -1.04470732 -0.51791689
Ga 8.14881089 1.69113980 9.68949933 0.23694154 -0.12476054 0.73203846
Ga 20.78092616 1.57062689 9.61602977 1.17352505 -0.54239320 0.20452054
Ga 8.08629196 4.82936223 9.68110290 0.30942821 -0.47870475 0.08632930
Ga 20.82969836 4.70280690 9.63241064 -0.05191455 0.46515928 -0.13063233
Ga 7.86531445 -0.02882333 1.68050125 -0.85729423 1.04787997 0.74889769
Ga 20.40580022 0.11266380 1.85361139 -0.25162060 0.28917283 -0.22342078
Ga 7.76341666 3.13410060 1.91539125 -0.35701828 -1.33517180 1.30758192
Ga 20.55968679 3.13834479 1.85921071 0.33614627 0.14236516 -1.16622708
Ga 6.50458646 -0.15098028 7.73624101 -0.24208269 0.62433287 0.75716871
Ga 19.03956540 0.09830058 7.69545260 -0.25031453 1.67997219 0.51151058
Ga 6.43228331 3.14405035 7.43083327 0.82489582 0.23373932 -0.23929102
Ga 18.91875934 3.01388585 7.50788864 0.07186133 1.79145939 0.50520725
Ga 3.32878016 0.02411428 3.94399002 -0.15426856 0.82473638 -0.08078646
Ga 15.90814247 6.17381941 4.00152418 0.25048515 1.50902156 -1.07504569
Ga 3.45342193 2.98097457 3.81915170 -1.63408605 0.78427185 0.35073788
Ga 15.99095666 3.02940293 3.94299189 -0.46728326 0.27581381 -0.22004790
Ga 2.02662545 -0.07677440 9.80908823 -0.03348093 -1.79603503 0.06636173
Ga 14.53012414 6.20268274 9.73576672 0.41753644 -0.46624366 0.79592465
Ga 1.96384730 3.21876652 9.73472899 -0.12992140 -0.51797130 -0.51270499
Ga 14.46989397 2.99314560 9.71607653 0.13736348 -0.50369310 -0.58377565
O 1.79087612 6.31081878 0.53874016 -0.62393353 -0.06471963 -0.06797710
O 14.37356496 6.09348673 0.64415471 -1.31698658 0.29056339 0.30950731
O 1.98235979 3.03482157 0.67784094 0.26322973 0.05529548 0.85100570
O 14.52271943 3.08296663 0.54893923 1.78469687 -0.67568175 0.60951546
O 0.35266879 0.05342258 6.35515049 0.14973205 0.85688709 0.50338015
O 12.88843401 6.25125356 6.36028259 0.12633351 -0.78743407 -0.16883114
O 0.44426468 3.00562299 6.32263253 -0.43073423 -0.04004356 -0.90160776
O 12.94548086 3.22283697 6.39929824 -1.34134248 -0.16685982 0.19049717
O 9.21261911 0.02836988 5.10525086 0.55177921 0.23250794 -1.30465928
O 21.75602446 -0.07002373 5.08867780 -0.35661192 0.72564195 1.56028209
O 9.20721466 3.04804918 4.96375963 -2.79973535 -0.12946849 0.24180271
O 21.87893086 3.16871560 5.19332343 -0.31828284 -1.04200702 0.57175325
O 7.69687238 6.32278536 10.82085766 0.94538369 -1.07536417 1.18435925
O 20.49089914 6.10623737 10.88947677 -0.07131436 -0.84746642 -2.96469077
O 7.82655135 2.98568710 10.84445581 1.20551791 -0.19002507 -0.73565278
O 20.42308373 3.02187489 10.78288779 0.03075458 -0.58555133 -0.31445821
O 8.29184826 1.44659759 0.52940606 -0.24056671 0.37255878 0.28033986
O 20.70170994 1.48640483 0.62163014 1.95251597 -0.34494989 0.90635670
O 8.20128493 4.55759491 0.55037905 -0.17672757 -0.15449093 -0.07471031
O 20.69874898 4.54755082 0.69126046 0.11687134 0.07030766 0.70186422
O 6.76356349 1.60635692 6.27213848 -0.52048354 -0.56188377 -1.29061578
O 19.26454363 1.65217550 6.43969531 -0.24326921 1.48150257 -1.59718527
O 6.79361020 4.63743207 6.24595250 0.26520260 0.31254122 0.70870330
O 19.28758577 4.59644208 6.41036311 -0.85153443 0.14819848 0.28414446
O 3.03684216 1.53482465 5.17040769 1.99885631 0.39167557 -1.35692196
O 15.54059658 1.60641855 5.26576327 1.01648455 -0.75589096 -0.00809179
O 3.08870237 4.70725688 5.05092513 -0.33929160 -0.19788029 -0.07836977
O 15.56614331 4.69673987 5.03274167 -0.73518145 0.48630069 -0.63044113
O 1.51394387 1.65093905 10.87984009 -0.31424982 -1.16044621 -0.10211433
O 14.16053430 1.45028545 10.83993596 -0.22411469 -0.07741280 0.47148220
O 1.70613111 4.62812393 10.79109216 1.59515944 1.11438479 -0.65456365
O 14.17197309 4.65933405 10.86732724 -0.26924951 -1.01138525 0.11954792
O 1.32555871 6.25027572 3.28294347 2.26624856 -0.90999652 -0.60117549
O 13.89332494 -0.07038645 3.13374156 -0.16290916 -0.01704436 0.28265557
O 1.35697927 3.11483025 3.28507935 0.18668657 0.16088621 -0.64497442
O 13.80466934 3.16073198 3.37514360 -0.81166167 -0.44058082 0.78326305
O 0.01057024 0.15637217 9.07530815 0.02679840 1.75650078 0.07301387
O 12.60529194 0.03206610 9.06882081 -0.89840170 -0.72431309 0.05227644
O 0.08899897 3.08372063 9.03454385 0.10726948 0.75320354 0.15375908
O 12.52932197 3.18404967 9.00478834 -2.07030958 1.54906189 -0.01393399
O 9.78307543 6.22594978 2.42254039 -0.93304838 -1.20405863 0.31302503
O 22.27993893 6.24099746 2.53392346 -1.69918093 0.98115766 1.33998250
O 9.63322466 3.04147381 2.60601765 1.03593794 -0.62041990 -0.32626460
O 22.33465016 3.21857674 2.52416475 1.02776281 1.50281514 -2.27129084
O 8.37412684 0.08815641 8.14763140 -1.63564866 0.38131828 -0.92573205
O 20.80901728 6.20238724 8.28559776 1.43197224 -1.18322271 1.03700730
O 8.21447357 3.19231635 8.24589865 1.63660060 -0.09087162 0.94051336
O 21.01150202 3.07270214 8.25124299 -0.47371231 -0.51882972 0.32092825
O 7.84108487 1.59551841 3.15446966 -0.63714425 0.49258902 0.37339357
O 20.20242909 1.45736986 3.23234324 -0.82969296 -1.12214904 0.81944463
O 7.77598290 4.64089922 3.19275200 -1.79186656 -0.08287775 0.60531490
O 20.24749789 4.67847784 3.33967545 1.05201833 0.40584637 0.96055127
O 6.19357055 1.49542086 8.95183521 0.08597284 -0.02264876 -0.81779013
O 18.79259747 1.67339535 8.97132360 0.42806452 0.23818187 -1.88515162
O 6.44234082 4.63621658 8.92191828 -0.63912972 0.50366549 -1.33442004
O 18.70993268 4.77664966 9.09835059 0.51306429 1.10276601 0.33745705
O 3.44767366 1.63491502 2.58158751 -0.14339065 -0.77416544 0.01861648
O 15.98328392 1.64842070 2.57266508 0.43562679 -1.21985283 1.11396704
O 3.48815773 4.50923236 2.42289817 -0.04272449 -0.23285937 0.20405727
O 16.01009453 4.67950015 2.45804202 -0.72564103 0.42034624 1.29021198
O 2.05374390 1.57296147 8.20884908 -0.43132857 -0.00511476 0.02161043
O 14.76475503 1.58229655 8.25434543 0.68952011 -0.23739772 -0.38326129
O 2.14239067 4.69977767 8.12368552 -0.25840940 0.16650058 -0.72372005
O 14.66434756 4.50990259 8.22601506 1.16783380 0.91106978 0.46098216
O 12.09319979 1.70243427 1.53718792 0.00827869 0.64857876 0.06227179
O 24.60225665 1.60932546 1.48792896 -1.21701806 -0.99753395 -1.00123841
O 12.12556768 4.54224694 1.41885535 -0.65052510 -0.54229784 -1.23384930
O 24.64014594 4.67610993 1.48912659 1.94675393 0.33073813 0.23813905
O 10.82030936 1.62155490 7.26042191 0.76881642 -0.10982938 0.52218193
O 23.16723179 1.46981158 7.17327074 0.14495020 -0.31752355 -0.48688288
O 10.77113075 4.57989319 7.21929066 1.67004427 0.63943161 0.39250998
O 23.17726129 4.76671692 7.30881565 -0.01360069 -0.31306518 0.29379163
O -0.97809214 1.54660239 4.33039189 0.76941703 -1.55157210 0.49836468
O 11.60334725 1.56406431 4.21274695 0.76931768 0.35437677 0.40486481
O -1.00910860 4.61298980 4.16819137 0.25292220 0.51843507 0.64650425
O 11.61819997 4.55322629 4.42140794 0.18041839 -0.77100891 0.30044671
O -2.35900610 1.49921082 9.98489876 1.14409430 0.28019548 -0.23539079
O 10.18540248 1.53786012 10.08235453 -0.99782362 0.16530413 0.17991798
O -2.37583147 4.60667057 10.01883877 1.41825721 0.74076473 1.16356700
O 10.13153303 4.72568592 10.09408920 -0.23781163 0.52055908 1.26903861
O 5.77602994 6.16928766 1.42614593 -0.72013192 -0.90642527 -0.56252192
O 18.49261147 -0.00400342 1.50504662 0.18078572 -0.43793934 -0.34652209
O 5.89400977 3.07915549 1.42481071 -0.41054397 -1.34443455 -0.47731188
O 18.26215774 2.96634516 1.34924934 1.11127251 0.47737549 0.39331313
O 4.52008281 6.30187091 7.07428667 -0.18439776 0.45885009 -0.51105311
O 17.03646759 0.02181112 7.26768705 -0.10836761 0.19788576 0.72241248
O 4.51779662 3.21155657 7.19722540 -1.53069104 -1.06213275 -0.12758826
O 16.98625770 3.24276888 7.13164570 -0.60823448 0.42593182 0.58703058
O 5.30933543 6.28168740 4.22902950 -0.02540450 -0.46121176 -0.04964267
O 17.80534865 -0.04342596 4.20547913 -0.50925622 0.52448555 -1.25189467
O 5.41067209 3.14751841 4.32897620 0.31060594 -0.48167861 -0.24220077
O 17.82813125 3.22845019 4.25281816 -0.10088590 -0.35642345 -1.52294952
O 3.88418704 6.23294303 10.05017445 -0.00317370 -0.22148565 -0.15969482
O 16.40492945 -0.02044071 10.15725893 -0.21443794 -0.06485492 0.38551478
O 3.95549948 3.17953370 9.97513963 -1.20844245 0.30620888 1.17755511
O 16.54969586 3.04093233 9.92033837 0.43706133 -0.64180851 0.38098651
159
Lattice="24.943671 0.000000 0.000000 0.000000 6.175713 0.000000 -2.782512 0.000000 11.433996" Properties=species:S:1:pos:R:3:force:R:3 Energy=-622.860501 Virial="-54.702005 -2.501270 0.363762 -2.501270 -49.305745 -3.233628 0.363762 -3.233628 -41.220224" Ga_vac_type=Ga_tetra Ga_vac_tier=low Ga_coord=4 defect_vacancy pbc="T T T"
Ga 0.02596805 0.08101288 4.47492272 -0.07380970 -1.03735161 0.67468451
Ga 12.48987711 6.15702991 4.58165781 -0.21549452 0.16296201 -0.42522329
Ga 0.01055302 3.09410996 4.61005454 1.10479678 0.77740463 -0.87936841
Ga 12.47830179 3.00455661 4.47505662 -0.70363584 0.49115222 -0.03760979
Ga -1.32908266 6.20171709 10.32385483 -0.60334674 -1.74039121 -1.10009725
Ga 11.12302113 6.16214561 10.28651086 -0.93562951 -0.00498466 1.35028097
Ga -1.39665820 3.13032374 10.19760489 0.71270628 1.90323022 0.12274367
Ga 11.04515300 3.09345038 10.24787964 -1.06299480 -0.79430403 -1.64582007
Ga 11.00360730 0.03740167 1.14736088 -0.13595225 1.09748750 -0.06144647
Ga 23.59152138 -0.02317635 1.20769840 0.32610831 0.72445915 -0.54568848
Ga 11.04835186 3.08261219 1.28859744 -0.78292725 0.47914911 -0.23397377
Ga 23.57935538 3.16852019 1.17457749 -0.46207244 -2.13308635 -0.12293101
Ga 9.68621421 6.24496822 6.91324821 0.72162280 0.84534932 0.17756945
Ga 22.18330631 0.07444872 6.86381433 0.49589240 -1.16385203 -1.00133910
Ga 9.60739702 3.03523807 6.89195554 -0.14156874 -1.44415772 -0.22077926
Ga 22.13855359 3.04958233 6.94600022 0.41839156 -0.05908580 0.28665685
Ga 6.27787554 1.47333252 4.67962493 -0.90400649 -1.05653402 1.19845068
Ga 18.65896701 1.53965438 4.54308722 -0.17711878 -0.92221367 0.78673390
Ga 6.21078323 4.62696672 4.48381048 0.36005858 -0.08611679 -0.63188148
Ga 18.69481893 4.56666985 4.51668653 -0.51574252 0.08651147 -0.53757592
Ga 4.77170703 1.55139783 10.24039241 -1.08829789 0.21170092 0.47567810
Ga 17.33959554 1.50032012 10.29432371 -0.83453630 -1.35344781 0.76805752
Ga 4.86608723 4.67578404 10.36049495 -0.85525319 0.64162636 -1.13997074
Ga 17.33671336 4.69842106 10.23058931 -0.27145612 -0.47499355 0.89738473
Ga 4.87561804 1.53920174 1.16927883 -0.38615030 -0.71745258 0.03215007
Ga 17.26141413 1.52890269 1.17528558 0.31262214 -0.67119216 0.32986470
Ga 4.77179194 4.57941373 1.20188518 -0.59920316 0.79675560 -0.93123544
Ga 17.35358879 4.68132032 1.12533218 0.93229661 1.05480816 -0.73877710
Ga 15.96008541 1.49754561 6.88560387 0.00385429 0.10533931 -0.20677298
Ga 3.38192246 4.66175920 6.91367433 -1.14435370 -0.16597878 0.73575522
Ga 15.92136937 4.61655774 6.81673449 -1.03294948 -0.29169638 0.36906167
Ga 1.59256458 1.54971771 1.79839701 -0.43710126 0.21531429 0.75430596
Ga 14.10377340 1.60499704 1.85920989 0.93692590 -0.57330982 0.72585709
Ga 1.60997334 4.69721985 1.84023694 0.10870927 -0.91075898 -1.27362846
Ga 13.96191183 4.68524369 1.83167572 0.18082359 0.52550312 -0.43936022
Ga 0.10309218 1.56093120 7.52791239 1.27814135 0.46346742 0.80561959
Ga 12.57807066 1.45096567 7.43699103 0.78174872 0.89847084 0.13710104
Ga 0.18555681 4.64080126 7.50763213 -0.99248884 0.14926038 -0.94743331
Ga 12.59391322 4.62073244 7.49571826 -0.43939852 0.58469139 -0.74112780
Ga 9.47944050 1.43917476 3.98250127 -0.75575733 0.67712204 -0.56872542
Ga 22.05703554 1.70740405 3.97102619 0.52891272 -0.45945746 0.77576596
Ga 9.48720376 4.65646197 3.95052310 0.62377403 0.13101717 -0.03827436
Ga 22.11234438 4.61300426 3.95650765 0.99334495 0.15463130 0.86882758
Ga 8.13761739 1.47797770 9.64621985 -0.20555463 1.22873204 1.17162414
Ga 20.65816221 1.59930441 9.70072147 0.17525539 -0.60162968 -0.01331702
Ga 8.16217110 4.55295100 9.72526052 -0.65764652 0.05487122 -0.74397666
Ga 20.59614767 4.66794116 9.64332241 -0.07820882 -0.44812028 0.87179979
Ga 7.70954706 0.08224340 1.74372623 0.24352830 0.89282739 -0.53988753
Ga 20.21977124 0.07860268 1.82179981 -0.11629962 -0.28222131 -0.01231337
Ga 7.74387773 3.12698026 1.81730460 0.68450217 -0.73501280 -0.22414385
Ga 20.18821248 3.12202214 1.76474981 -1.30789240 -0.31514204 0.76663932
Ga 6.32208250 0.00221158 7.40151629 0.00159917 -0.59543514 -0.32883323
Ga 18.88028811 -0.01324739 7.50455012 -0.66937842 -1.35844887 -0.70125649
Ga 6.38006622 3.13033173 7.42898739 0.20639858 -0.70071955 -0.09162531
Ga 18.79833173 3.05140220 7.51401677 -1.61021842 1.11675491 0.57660749
Ga 3.30548378 0.00158990 3.90110552 0.06299254 0.37717149 -0.28826041
Ga 15.80847299 6.18803599 3.91816212 0.91803361 0.90744095 -0.12406214
Ga 3.32770833 3.01874013 4.04927570 0.26794148 -0.57107663 -0.39552822
Ga 15.79158909 3.09796390 3.89288691 -0.12044722 0.33478359 -0.11341838
Ga 1.92462945 -0.08449998 9.64716089 0.63455945 -0.23986748 -0.26722035
Ga 14.52717398 6.18672919 9.65457059 -0.00028427 0.18660023 -0.45782984
Ga 1.95120971 3.11535824 9.68721906 0.60984206 -1.28485930 0.55107019
Ga 14.29857067 3.09657816 9.64662150 0.25401036 0.32895548 0.44631122
O 1.90491800 6.19833384 0.60280361 1.47802186 1.38675780 0.22720436
O 14.45441373 6.19975714 0.70109509 0.83172469 0.53675686 -0.01065073
O 1.83529917 3.11907441 0.68183800 0.39517439 1.17542196 -0.69211538
O 14.42018699 3.08680102 0.61247549 -1.39843880 -0.26391993 0.43354618
O 0.45812344 0.02464278 6.36161651 -1.24098107 -0.68915669 -1.01859123
O 13.00448021 6.22984430 6.26067762 -1.10239121 -0.35622270 0.13014879
O 0.38071371 3.11021654 6.36889779 -0.47311018 1.48998941 -0.19685507
O 12.95718394 3.12380885 6.29863432 -1.34524851 0.28333426 1.39088395
O 9.26056094 -0.04325852 5.18155488 -0.36086836 0.97128439 1.22771405
O 21.63307060 0.04506499 5.08613309 -0.90226725 0.81044974 -0.86850354
O 9.21238356 3.12137492 5.06740773 1.34630114 0.38748124 0.63747673
O 21.70846219 3.06143133 5.12888953 -0.12504573 -0.64062019 -0.03030096
O 7.86908558 6.16290151 10.79150060 1.11868317 1.27474380 1.03981544
O 20.25622070 6.13562601 10.81932817 0.23000758 0.69509686 -0.38235284
O 7.76543958 3.06715538 10.77621904 -0.65399063 1.04824612 -0.69536088
O 20.32180455 3.11427068 10.82532816 0.40970172 -0.85988915 -0.96653104
O 8.11549100 1.55138335 0.66500818 -0.59549201 -0.34457781 -1.03539790
O 20.59358355 1.49915576 0.61841082 0.18495336 0.71089064 -0.47397045
O 8.06837936 4.61295818 0.65429995 0.71624275 0.32769695 0.73102641
O 20.63288115 4.70197560 0.61129167 -0.19055747 -1.24711182 0.38415526
O 6.76645929 1.58548992 6.41056216 -0.07471826 -1.09307023 0.68323093
O 19.15273460 1.64031009 6.38278122 0.31916020 0.70762629 0.24055408
O 6.80416503 4.64781611 6.33144795 0.39267487 -0.02562529 1.39851844
O 19.22131405 4.63742657 6.29814851 -0.32699242 -0.03785264 0.22873842
O 2.96079702 1.52958910 5.05091243 0.13406686 -1.14379948 -0.57867046
O 15.53948543 1.59499939 5.15245785 -0.37275034 -1.01676033 0.36372305
O 3.00279426 4.59976036 5.12727201 -0.77408648 -0.79117823 -1.52950920
O 15.41118044 4.52206267 5.14770141 -1.83202772 0.72304765 -1.02342743
O 1.53822554 1.45211809 10.81522863 1.27044299 1.04828517 0.44557784
O 13.97585026 1.59864253 10.78041606 0.90936151 0.84013831 -0.41351797
O 1.58467580 4.60910268 10.81219056 0.19374232 -0.59336066 -0.12923582
O 14.05921771 4.69335518 10.86924951 -0.37636675 0.05176583 -0.03481761
O 1.42218408 6.12452561 3.21668522 0.25012201 -1.13216079 -0.61547985
O 13.83620325 0.06918350 3.17954470 1.57392937 -1.48208232 0.00310737
O 1.42785413 3.07268692 3.17498382 0.15397260 -0.79523334 -1.40135218
O 13.87389772 3.04732626 3.19385677 0.06206666 0.51898907 0.00257426
O -0.01464905 -0.01006953 9.00603852 -0.21754320 0.56534949 -0.42303170
O 12.50973091 -0.02921839 8.95629951 -2.14039024 -0.14002574 -0.61522731
O 0.03133012 3.16097781 8.91497930 -0.89024966 0.91346969 0.02854627
O 12.42876255 3.00112594 8.96524969 -0.03421935 0.08667597 -0.31670198
O 9.68890206 6.14504628 2.39539317 -0.62689672 0.41288078 0.00799562
O 22.13409936 6.21950197 2.50818853 1.49165192 0.30178081 -1.49779087
O 9.65795485 3.03388758 2.51409486 1.02163388 2.25289750 -0.06772300
O 22.13130722 3.08915063 2.47708697 -0.70360099 -0.09031460 1.21892646
O 8.32785697 -0.02607046 8.26927231 -0.16496659 -0.65134374 0.72179499
O 20.86601777 6.16480815 8.18778566 -0.05013657 0.21900105 -0.59813347
O 8.27291127 3.05902134 8.28886790 -0.20571578 -0.58226207 0.20500946
O 20.77256182 3.07093077 8.14067663 0.79066915 0.58451334 0.08148410
O 7.68317950 1.51070276 3.21854424 0.77026433 -0.28637831 -0.70363640
O 20.13419674 1.57528761 3.26431744 -0.00410024 -0.10683168 0.52821756
O 7.63558895 4.58820620 3.26668165 0.42354516 -0.77487032 -0.12270239
O 20.10261404 4.63859202 3.13768380 -0.98110361 -0.22867660 1.30939753
O 6.19980511 1.54518414 8.95200726 -0.45168066 0.19331964 0.18410459
O 18.69238090 1.59451584 8.93006593 -1.42385200 -0.34199784 0.49844060
O 6.22679556 4.67208624 8.99829526 0.67575860 0.63898019 0.87567511
O 18.66384537 4.62174509 8.87957757 -0.39356864 -0.90423250 -0.77491947
O 3.48052424 1.55672846 2.59064050 1.14335299 0.91697679 1.77425696
O 15.92275015 1.49270455 2.58637836 1.17073652 0.78766290 -0.44793641
O 3.55877941 4.64234879 2.48595875 1.04078563 -0.78549402 1.45747361
O 15.92913892 4.53514908 2.53825692 0.28013604 0.39213276 0.37478110
O 2.01710696 1.61474111 8.21297518 0.20310673 -0.37117633 0.31354477
O 14.45639477 1.59505942 8.12848273 -2.36966846 0.43242707 -1.62952379
O 2.06892429 4.67147891 8.24053439 0.50761709 -0.25681617 1.56712889
O 14.54539489 4.66212499 8.23697617 -0.94467425 -0.71820241 -0.76509179
O 12.09755802 1.48908489 1.52266663 1.16207437 -1.43249220 -1.09082775
O 24.53008253 1.54018374 1.48119989 -1.50799748 0.00091486 -0.15838748
O 12.06197409 4.67239293 1.46912122 0.45326278 -0.19400980 0.14076854
O 24.56497955 4.62834901 1.43748105 0.45584589 0.19773714 0.93222591
O 10.65943967 1.46130236 7.12957659 -0.23029246 0.25565243 -0.16142012
O 23.12849322 1.63227040 7.19014832 1.23539417 0.32881613 0.22393961
O 10.67196692 4.56657447 7.20663047 -0.45280578 0.26891439 0.97122194
O 23.18048805 4.55679106 7.23582900 0.08743125 0.05574726 0.09002616
O -1.00427396 1.55795920 4.24123888 1.43589032 -0.65516163 0.75502576
O 11.44107526 1.42719277 4.28560157 1.71473728 -1.00350677 1.07118464
O -0.99136007 4.64912403 4.22008802 0.39478222 0.11448901 -0.03685280
O 11.50770165 4.65921193 4.32641907 -1.03336785 0.49977871 -1.12702732
O -2.39758707 1.46371572 9.93948211 -0.03291984 -0.80878500 -1.36550540
O 10.17178046 1.55374366 10.02762126 -1.16548500 1.23391396 -0.61175831
O -2.30589243 4.62623310 9.88536882 0.42352478 1.15194208 0.67530588
O 10.14173064 4.66519967 9.95898286 0.65764923 -0.22266592 -0.33973275
O 5.70804024 6.19969646 1.44002449 0.55059478 0.95544760 0.64092172
O 18.31324373 0.01413814 1.40185528 0.27138120 -0.56406675 -0.91014746
O 5.81713560 3.06377467 1.41675682 1.13714401 0.42196778 -0.45604210
O 18.23355287 3.15528125 1.45258344 1.01435102 0.13703122 0.05171343
O 4.47464932 6.11446529 7.14104695 -0.22822194 -0.34210931 -0.53732199
O 16.86812122 -0.01164813 7.15530482 0.36227455 0.84458795 0.50783527
O 4.45452415 3.10374935 7.26012605 0.08794279 0.54899260 -1.07901724
O 16.90245892 3.09345526 7.21959968 0.01175599 -0.88488482 2.38235740
O 5.21690595 6.14695659 4.25426522 1.23209017 0.51524701 0.35545038
O 17.70026780 -0.00171633 4.29969891 0.27403744 0.16037988 0.43025451
O 5.20619111 3.09912454 4.24940359 1.11886045 -0.96572707 1.15452295
O 17.70430859 3.11349688 4.22884711 -0.59978909 -0.49947114 1.66065427
O 3.88656011 6.19773807 9.92741038 0.09604262 -0.12526817 -1.28158587
O 16.28662940 0.01444545 9.98818076 -1.12480419 -0.89572035 -2.04469386
O 3.95345581 3.16084602 10.01551323 0.23079795 -0.12256707 0.68297444
O 16.29440781 3.04699692 9.93352934 -0.33630700 0.67739688 -0.06766491
159
Lattice="24.707552 0.000000 0.000000 0.000000 6.117253 0.000000 -2.756172 0.000000 11.325761" Properties=species:S:1:pos:R:3:force:R:3 Energy=-622.883856 Virial="-55.100829 -1.798982 -0.094093 -1.798982 -46.175926 -5.407443 -0.094093 -5.407443 -44.112820" Ga_vac_type=Ga_tetra Ga_vac_tier=low Ga_coord=4 defect_vacancy pbc="T T T"
Ga 0.01749556 0.09892161 4.51748243 -0.13761811 -0.83455516 0.96938394
Ga 12.38464711 6.20401409 4.49419296 -0.32499512 -0.10585458 -0.00474758
Ga 0.03874424 2.99086364 4.39147382 -0.62162429 -1.60640684 0.46644343
Ga 12.38512667 3.16135755 4.52854013 -2.70546340 0.13637400 -0.64419526
Ga -1.34064032 6.12715491 10.12666014 0.57866827 0.76423284 0.37907291
Ga 10.94099020 6.18234023 10.29990312 0.69055344 1.03447680 -0.34633632
Ga -1.27500943 3.11234862 10.24764042 0.12478673 0.18595134 -0.28552905
Ga 11.05591572 3.00899592 10.25119427 -1.01043047 -0.30674059 -0.13701766
Ga 11.01930749 -0.04785236 1.06380228 -0.33424037 0.17600163 0.14937282
Ga 10.92421265 3.11295833 1.11951575 -0.30791045 0.93636069 -0.85598143
Ga 23.35291789 3.00408778 1.12385485 0.07908336 0.15530258 -0.35442464
Ga 9.59218535 6.13046320 6.92964417 -0.42213006 -0.52579951 0.34547136
Ga 22.03643893 -0.00871492 6.82194086 -1.40534476 -0.69801439 -0.08553264
Ga 9.65937551 3.10281355 6.87832464 -0.74417810 -1.47479138 0.19356845
Ga 21.97496703 3.26746026 6.94748571 0.14317126 0.64182985 -0.20112717
Ga 6.20822330 1.63315848 4.53940877 -0.02771968 0.76293416 -0.02005270
Ga 18.55027662 1.56733547 4.51421409 -1.90919253 -1.24348953 0.29084869
Ga 6.17018427 4.62526760 4.49875903 0.19391606 -0.95519391 0.54900981
Ga 18.48314854 4.50807945 4.62749892 0.72471670 -1.53892642 0.65086765
Ga 4.79120539 1.55462763 10.25898163 0.05722036 0.51208451 1.63065229
Ga 17.26584937 1.55682802 10.13674293 -0.88822408 -0.09391801 0.36412311
Ga 4.83353660 4.59685048 10.15249528 0.05272335 0.11938816 0.70505613
Ga 17.14998696 4.59139421 10.21362132 1.43173428 -1.09283382 -0.36515209
Ga 4.76438109 1.53789253 1.20470584 0.39067737 0.16455263 -0.43009250
Ga 17.10144141 1.52697458 1.24606231 0.39964090 0.33307635 -0.09481644
Ga 4.72780403 4.59534141 1.13469099 -0.01788877 0.92919711 -0.04444477
Ga 17.03574564 4.58092812 1.09455457 0.00903542 0.54620111 -0.00492503
Ga 3.44578021 1.47647120 6.77729038 -1.26845029 -0.03044219 0.60017671
Ga 15.76026083 1.51736466 6.88760884 0.00434642 0.28911280 -0.26983267
Ga 3.39199527 4.53196158 6.89458371 0.13358099 -0.34197349 -0.10774406
Ga 15.68520413 4.52601721 6.72562126 -0.48754369 0.66608376 1.10435176
Ga 1.60830441 1.51460330 1.84636863 -0.43979170 -0.04860597 -0.18408533
Ga 13.91050321 1.48701520 1.64270561 -0.62472458 -2.37929827 0.27932153
Ga 1.42812634 4.50158221 1.84170118 0.14973654 -0.64002562 0.58137380
Ga 13.80672078 4.50349145 1.73077481 1.32889182 1.43863035 0.10880440
Ga 0.03799303 1.47833467 7.40506960 0.26172496 0.53692362 -0.07552326
Ga 12.54211878 1.42187125 7.42694171 0.70714485 0.85539737 1.13565430
Ga 0.14061862 4.51668088 7.39493219 -0.16210186 1.77163019 -0.37141073
Ga 12.47241916 4.63046909 7.46030445 -1.19814502 0.15124697 -0.80959049
Ga 9.38939248 1.42535889 3.97553530 -0.87684443 -0.18134983 -1.30551041
Ga 21.73494589 1.53932524 3.86638754 0.77523724 0.48246239 0.11912474
Ga 9.30708376 4.62935940 3.88802610 0.20742242 -0.16392257 1.25075570
Ga 21.73517469 4.60620712 3.82475721 -0.63426952 -0.49926821 -1.36848283
Ga 8.11978200 1.55559239 9.56086978 1.02024350 1.67028725 -1.60002124
Ga 20.41460143 1.51133363 9.45792916 0.29361290 2.25148419 -0.19624203
Ga 8.09409311 4.62585633 9.61014508 -1.34761239 -0.20083804 -0.34567972
Ga 20.55028010 4.53953202 9.55370834 0.04809397 0.31534996 1.37840449
Ga 7.61870549 0.07893559 1.79863674 -0.88130274 -1.64333869 1.15428899
Ga 20.09674481 -0.12021620 1.69749956 0.18120955 -0.53403811 0.83659752
Ga 7.75513788 2.97542865 1.77305784 -0.32775014 -0.04374611 1.16419624
Ga 20.19318347 3.10545472 1.76967259 0.82716274 0.76473320 1.46066352
Ga 6.38904211 -0.04281861 7.41539897 0.88623677 0.60914763 1.31340972
Ga 18.77150049 -0.06552734 7.47362530 0.24195111 -0.25556454 0.39022174
Ga 6.33370507 3.08962419 7.42565636 -0.13768582 -0.25701656 -0.20180872
Ga 18.56428442 3.09101396 7.36453580 -0.65235243 0.91418724 -0.10501883
Ga 3.33324667 0.03203996 3.93743949 0.73884919 0.35829709 -0.20972383
Ga 15.74170412 6.20059036 3.89954967 -1.76068446 -0.22302737 1.73752424
Ga 3.20706060 2.90918294 3.89645728 -0.13081527 0.93683830 0.20810715
Ga 15.54132922 3.04651665 3.95740558 -0.68403936 0.65406115 0.11255186
Ga 1.80451800 -0.02551244 9.42419289 -0.13301122 -0.65001252 1.03331947
Ga 14.20949097 6.06960013 9.59798520 0.27956963 0.13706051 -1.59520515
Ga 1.90361048 2.97958798 9.35227786 -0.55648146 1.36325048 0.63721783
Ga 14.29210618 3.06810073 9.54172412 1.77273382 -0.57432282 0.26583425
O 1.93201930 6.17739666 0.55134784 -1.59588822 -0.09404052 0.40697563
O 14.20437968 6.11678359 0.62993937 0.26922708 -0.20747799 0.16290603
O 1.90440691 2.99967850 0.68982982 -0.76187126 -0.38755968 0.60837116
O 14.22726325 3.01142632 0.63034612 0.37729028 0.73329098 -1.17438430
O 0.49492550 -0.02389440 6.32096678 -0.06029278 -0.25247445 -0.07753452
O 12.76843454 6.10866633 6.22354849 -0.09815047 1.07193385 -0.21251770
O 0.46815256 3.16031510 6.19123076 -0.61988647 -1.39963758 0.30300801
O 12.79137328 3.00295002 6.32917115 -0.27243836 -0.31677955 0.71196105
O 9.24276303 0.02487039 5.14392969 -0.20877660 -0.13128737 0.65470770
O 21.48231845 -0.00418074 5.02813648 1.62530041 1.07196924 0.05854752
O 9.12706792 2.99165560 5.07035792 -0.55023193 0.43834545 0.56753989
O 21.49550346 3.02709832 5.12832551 0.83052074 0.84882481 -0.44396444
O 7.69778313 6.03564334 10.68489080 0.71886793 -0.77878186 0.25279989
O 20.12838601 6.04718318 10.70477685 0.36138102 0.95631909 0.12917341
O 7.73657262 3.12707988 10.68008679 0.26637864 0.89064034 -0.29184270
O 19.95539946 2.96875136 10.78295393 -1.34470897 -0.53280714 -0.88855029
O 8.04310887 1.54382243 0.55196526 -0.35801984 -0.12788676 -0.26994443
O 20.38909828 1.49806408 0.61690247 0.00279759 -1.07657839 0.27766329
O 8.01308967 4.64181541 0.56982950 -0.16655783 -0.12363707 0.46293070
O 20.32229425 4.61157095 0.64952265 1.08491088 -0.38695046 0.02531027
O 6.78665068 1.48236066 6.25871981 -0.36449120 0.01904168 -0.29438583
O 19.04379435 1.53637730 6.28547280 -0.24500067 -0.19519270 0.69307607
O 6.71941927 4.58405556 6.35128447 -0.17332213 0.63975314 -0.52010983
O 19.09275518 4.67506863 6.32910656 -0.52419022 -1.02956522 0.80576864
O 2.91334585 1.58611776 5.01285698 -0.08873389 -0.38761979 0.41158399
O 15.16896218 1.47297299 5.14039705 1.66934419 1.10219053 1.04217632
O 3.01060695 4.56390827 5.11996580 -0.91104479 -0.57787892 0.60670616
O 15.39284504 4.50785954 4.98839254 -0.28925248 0.74162105 -0.43831839
O 1.55387921 1.53486289 10.60800023 -1.05905176 0.13337236 -0.20001164
O 13.84260520 1.50086464 10.59230487 -0.62110875 -1.27951199 -0.70069702
O 1.53780149 4.53486444 10.81466414 -1.69935448 -0.77252844 0.26277737
O 13.87659097 4.59216131 10.72975436 -0.10814878 0.00489520 -1.73209425
O 1.51848698 6.08234155 3.17147363 -0.91654067 -1.11265538 -1.00132930
O 13.67650405 -0.08755948 3.24648639 1.28232316 -0.40491629 -0.28937662
O 1.28238067 3.04488402 3.16189668 -1.37613209 0.74462183 0.35305450
O 13.73075742 3.07121168 3.24248269 -0.92325441 0.65296892 0.05309283
O -0.01788688 -0.07586814 9.11575599 -1.28087293 -0.56288282 0.54744399
O 12.34354304 0.01432125 8.87894718 2.10484280 -1.05861943 0.48189651
O 0.00848341 3.17734699 8.84865483 0.35471409 -0.00839579 -0.31870047
O 12.39630166 2.94398660 8.84492365 0.59011471 0.52259164 1.14302647
O 9.51299301 6.13723058 2.45569302 0.26978602 -0.69107375 0.76174529
O 21.97709258 6.01796985 2.48342718 1.06669173 0.04888221 -0.03680591
O 9.70405812 3.13350861 2.50136585 0.72218865 0.09135886 -0.53882338
O 21.89998754 2.97834280 2.35357382 -1.81707697 1.52794474 -1.38112134
O 8.34790680 -0.14064891 8.10861784 1.48433755 -0.23389020 0.11670698
O 20.53868886 6.16934362 8.18082962 0.74821770 0.19738102 -0.05824950
O 8.25691560 3.08688976 8.12823111 1.04809836 -0.69721410 1.86534369
O 20.64297902 3.03266216 8.13682493 1.37213178 -1.27668279 -0.17274588
O 7.70032200 1.54125431 3.11609330 0.16429359 0.79798251 -1.53454396
O 19.90795363 1.54009745 3.21377962 -0.06520822 -0.90976409 -0.58866128
O 7.49716472 4.47135541 3.10562907 -0.66861829 1.24353962 -0.17237854
O 19.87798637 4.54435085 3.22661928 0.99277045 1.55796027 -0.36682727
O 6.26670911 1.57494318 8.85254904 0.60807842 -0.36006181 0.45285134
O 18.51720323 1.53399159 8.80591179 1.05690858 0.83225614 0.03210274
O 6.18811111 4.71393447 8.91561531 0.06764140 0.58430193 0.77391892
O 18.49744410 4.69420802 8.82074881 -0.05189337 -0.20617909 -0.43304150
O 3.37172788 1.53876424 2.45112438 1.38163749 -0.04778647 0.35987870
O 15.73878281 1.49895654 2.51188690 0.31153603 -0.77313228 -0.40480558
O 3.34645884 4.48004717 2.47624146 -0.65760859 -1.78851332 -0.13843998
O 15.76229851 4.58838194 2.37146873 -0.44326933 -0.20291445 -0.90409828
O 1.96579811 1.60446929 8.18499997 0.69170119 -0.03299833 0.12707665
O 14.39511200 1.42831571 8.11954661 1.26565399 1.19261924 0.42065598
O 2.05059577 4.56276766 8.16644266 -0.19586398 -0.38996535 -1.72026691
O 14.46171135 4.53243303 8.09151870 0.31480278 -1.03440920 -0.29901137
O 11.90466819 1.43157579 1.46084025 -1.87580569 -0.35294329 -0.96094527
O 24.29745164 1.63787155 1.48356133 0.65341792 0.78115526 -0.00754832
O 11.88841444 4.56559295 1.61056073 0.09601445 -0.08034529 -0.95648313
O 24.37916469 4.50522780 1.45232062 -1.06502613 1.29361836 1.85906140
O 10.57097143 1.50855913 7.03887765 1.28351149 -0.63316648 -0.19826520
O 22.95416799 1.52462784 7.24491086 0.37141029 -0.06920134 0.26260197
O 10.47836384 4.58034639 7.13724041 -0.73149523 -0.08529376 0.26985864
O 22.96386319 4.57547978 7.03415783 0.08861516 -0.72864577 -0.50291153
O -0.98984841 1.56366888 4.17845301 0.93361434 -1.43225097 -0.15182295
O 11.31541386 1.50004496 4.19688995 1.08340402 -1.51154219 -0.25977817
O -0.93790893 4.58791525 4.35222824 1.57790967 0.12553960 -0.02462364
O 11.46402773 4.53446754 4.22135060 -0.47766847 1.90396899 -1.05595728
O -2.27856830 1.72645044 9.90158681 -0.33475534 0.60762274 1.64908996
O 10.03940066 1.48620399 9.92932100 -1.06467778 -0.90583199 -0.81765471
O -2.40789033 4.67957438 9.88408987 -0.52498038 -0.66046066 -0.27098725
O 9.91406010 4.62111039 9.77779442 -0.30188209 -0.54583539 -1.72410228
O 5.69306229 6.11802854 1.46012048 0.89828063 -0.29504457 -1.53283004
O 18.11542155 0.07222655 1.61926851 -0.88287268 -0.32464731 -1.66356395
O 5.67600453 3.02520039 1.55396649 -0.04972830 0.35353436 -1.29880109
O 18.13645343 3.03843751 1.42727219 -1.33909006 -0.74614785 0.00128183
O 4.42791358 6.08164322 7.15670508 0.17662576 0.75752370 0.69851672
O 16.76102770 -0.06779313 7.11720123 0.71495308 -0.12848719 -0.12966606
O 4.47666356 3.07015874 7.22149201 0.00593757 0.62370346 0.75133081
O 16.90619020 3.02781280 7.19745403 -0.47768943 -0.32413003 0.18004394
O 5.25596442 6.05616127 4.16965426 0.22481252 -0.07467901 -0.53646572
O 17.63414819 -0.03121984 4.30019313 -0.05360801 -0.19524397 0.07429580
O 5.13868847 3.10012993 4.27348778 0.43829597 0.81530324 -0.67754441
O 17.55218767 3.00137624 4.19442403 0.08551160 0.17388251 -1.10334128
O 3.80561129 6.11739844 9.95548256 0.05531599 0.29848781 0.09534988
O 16.10839958 -0.04417960 9.97064504 1.71370867 0.41506616 -0.90631571
O 3.85853367 2.91165203 9.94092652 1.35336677 -0.20604987 -0.55884097
O 16.25037798 3.05438955 9.91123031 1.26383584 -0.06664826 0.22230680
159
Lattice="24.727503 0.000000 0.000000 0.000000 6.122192 0.000000 -2.758398 0.000000 11.334906" Properties=species:S:1:pos:R:3:force:R:3 Energy=-623.037498 Virial="-56.841966 3.121534 -1.881896 3.121534 -45.540450 -4.406516 -1.881896 -4.406516 -42.138533" Ga_vac_type=Ga_oct Ga_vac_tier=low Ga_coord=6 defect_vacancy pbc="T T T"
Ga -0.03824541 -0.09856213 4.42375164 -0.83792392 0.14723370 1.17682671
Ga 12.40418893 6.11572654 4.54856722 -0.51687080 1.00415312 0.46177945
Ga -0.01187713 3.07925296 4.52617216 -0.36955417 0.04806223 -1.28885042
Ga 12.38916433 3.09021910 4.56053032 -1.28233923 0.49691692 -0.40470460
Ga -1.28419697 6.05574152 10.18603413 0.79198314 -0.57446787 -0.37521163
Ga 11.05717724 6.00653467 10.12311404 -0.16938106 1.87386297 0.03966658
Ga -1.27824557 2.99756141 10.17154823 0.00151729 -0.42467496 -1.22884596
Ga 10.98572350 3.07610627 10.18908202 0.36415879 0.23206158 0.09662046
Ga 10.86282684 0.06739244 1.13934833 0.62207971 -0.27088804 0.32918957
Ga 23.33535199 -0.05899319 1.15018421 0.29222434 0.81361373 -0.33613446
Ga 10.93540247 3.10489879 1.29053455 0.43163072 -0.29590948 0.06506449
Ga 23.41514755 3.05163957 1.06541291 1.00834825 0.77276688 -0.89332105
Ga 9.72345694 6.07723687 6.99076270 -0.66368742 -0.02684213 -0.16162998
Ga 21.87111933 -0.07028040 6.90410122 0.12635540 -0.53555169 0.00024720
Ga 9.54868974 2.95155132 6.94209667 0.31019168 0.62726889 0.46318632
Ga 21.93504196 3.16155704 6.86526461 -0.47953162 0.82440553 -0.57384090
Ga 6.25318853 1.63271496 4.50507652 0.98583562 -0.11732926 0.50804707
Ga 18.60427355 1.53741238 4.42093824 0.57826677 0.13885308 -0.63529788
Ga 6.20971100 4.61512032 4.52289055 0.20557769 0.38386644 -0.20435831
Ga 18.57614650 4.50964417 4.45775917 0.47934777 -0.63790690 1.06960548
Ga 4.73213390 1.48770572 10.14346851 1.57719490 -0.21941880 -0.58410011
Ga 17.18780006 1.61199319 10.28311746 -0.31020937 1.36568389 0.52828188
Ga 4.78718147 4.41704587 10.21267111 -0.37973471 0.68038537 -0.70844783
Ga 17.18619054 4.57580390 10.20641486 0.33685967 1.01196232 0.41277785
Ga 4.59804415 1.59450581 1.09954607 -0.70238617 1.80072424 0.67053513
Ga 17.19467032 1.55828805 1.17415888 -0.82889281 0.28222268 -0.36523229
Ga 4.92291547 4.59158764 1.00865515 -0.72267894 1.14438113 0.38399631
Ga 17.12543861 4.59037324 1.10928682 -0.73837267 -0.67075694 1.66186083
Ga 3.32953413 1.54968614 6.85047823 -0.17054787 -0.24329187 0.19768922
Ga 15.81741814 1.50819896 6.88498799 -0.37238892 -0.34216599 1.26941528
Ga 3.40254168 4.50459154 6.80406747 0.37401204 1.20074982 -0.07301825
Ga 15.74065140 4.67941511 6.76501559 0.18569584 -0.69564879 0.54255834
Ga 1.52233467 1.54570195 1.81367861 0.77615073 -1.12298417 0.77899822
Ga 13.83043930 1.53252529 1.87623827 1.34528701 0.68074279 -0.80153648
Ga 1.54148960 4.55685778 1.83246786 0.61226901 0.24452282 -0.20557158
Ga 13.93779229 4.60336322 1.79487900 0.31633683 -0.61987436 -0.01012762
Ga 0.17502597 1.38502121 7.45902793 -0.11562495 -0.03362254 1.39674015
Ga 12.55364549 1.44820033 7.48436842 0.37629346 -0.01907717 0.02814060
Ga 0.20806352 4.46884838 7.52192919 -0.43917371 0.01639683 1.24600652
Ga 12.56386307 4.56212397 7.27781147 1.31994931 -0.43302732 -0.63766341
Ga 9.48014436 1.52006089 3.80586856 0.20141893 1.33710912 -1.08727338
Ga 21.79827753 1.45222410 3.83879506 1.07471347 -0.51426423 -0.41353951
Ga 9.46406520 4.55722802 4.05494442 -0.12788259 -0.43581825 -0.40707721
Ga 21.73039598 4.63868900 3.81678563 1.02728569 -0.35186022 -0.43030239
Ga 8.17660880 1.44565826 9.63587934 0.91784203 -0.88382214 0.46816521
Ga 20.49510545 1.51538286 9.58208139 0.08945833 -0.16483437 0.76737034
Ga 8.06698392 4.61778225 9.72698440 -0.15713879 0.72359626 -0.83200621
Ga 20.51557501 4.57744382 9.51595383 -0.24390503 0.11064374 0.92673146
Ga 7.65919798 -0.05989833 1.81872893 0.38287018 0.89107904 -0.14415782
Ga 19.97380639 0.03767168 1.79344389 0.18382800 -0.01548591 0.30299730
Ga 7.74338551 2.96199069 1.68100390 -1.29621140 0.10434502 -1.00367430
Ga 20.15360345 3.06375813 1.76697202 -0.14731016 -1.37343308 0.39476680
Ga 18.77398817 0.04291428 7.58667850 -0.18681304 -0.91235384 1.03754414
Ga 6.34365962 3.10453358 7.50997651 -0.11799044 -0.42730213 -0.43355527
Ga 18.80618964 3.07364560 7.43734789 -0.83265038 -0.61459579 1.37612112
Ga 3.24536285 0.06958967 3.94804244 0.07352285 1.39236092 0.78411262
Ga 15.67745123 6.04045657 3.85425085 -0.00017626 -0.00685467 -0.66698723
Ga 3.35413246 3.00503826 3.95898869 -0.82402091 0.60599456 0.32163935
Ga 15.65473304 3.07086185 3.86571075 -0.05429016 0.94058692 -0.14433179
Ga 1.83779277 0.01529427 9.44213460 0.61791259 0.52985994 -0.09894842
Ga 14.21984187 6.09994732 9.46672172 0.14439865 -0.36961803 0.69161805
Ga 1.82421095 3.17499813 9.58507596 -0.26322771 -0.61811631 -0.14792957
Ga 14.28206135 2.92757791 9.49114888 1.05847899 -0.44094428 0.65504478
O 1.76344593 6.10807742 0.51767605 0.75994372 1.06670268 0.23700004
O 14.25284567 6.04676804 0.46612592 0.31157072 -0.71971286 -0.77670664
O 1.93787957 3.02434471 0.46809854 -0.94950433 -0.37096373 1.34571513
O 14.31621559 3.01562779 0.63493856 -1.47274097 0.47563861 -0.42762320
O 0.39909373 0.12848160 6.37753893 0.24268020 0.04440676 0.19030745
O 12.90987507 6.08742011 6.27250691 0.56940371 -0.42642756 -0.10438521
O 0.48319980 2.94397749 6.28131612 0.08824928 0.18615981 1.36215240
O 12.84899607 3.11385381 6.33986495 -1.25412941 0.06902037 -1.47455488
O 9.17681160 0.01159582 5.09088406 0.19786993 0.63185726 -0.30218978
O 21.54639656 -0.04507748 5.05767913 -0.47888976 -0.49891741 0.02117444
O 9.11318560 3.06215520 4.98069015 1.73664142 -0.10703438 0.66333819
O 21.65921515 3.22834953 5.12763276 1.71419278 0.50783591 -0.73623241
O 7.73801497 6.04597937 10.61466787 -0.63379617 -1.70154815 -0.48115566
O 20.03192934 5.99452971 10.79962805 0.85761493 0.33411489 0.27137593
O 7.66511879 3.03450742 10.71791573 -0.14588928 -1.56683231 0.58129297
O 20.10987373 3.04893729 10.78536678 0.84719779 0.14477286 -1.66278507
O 8.01344265 1.53979025 0.64038960 -0.33325239 0.29197490 -0.18687155
O 20.45385373 1.65414287 0.50412976 0.37358576 -0.45016358 -0.36251408
O 8.07586665 4.60508269 0.62119907 0.69804950 -0.71683938 0.79203658
O 20.46398584 4.73043130 0.60745125 -0.49514038 -0.51929557 0.07851134
O 6.56862273 1.48086626 6.34697340 -0.20925823 0.28929100 -0.17621450
O 19.09383519 1.41531659 6.22974698 -1.89848320 0.27214956 1.06187731
O 6.66143512 4.42729294 6.20382167 0.31713922 0.17911457 -0.20572151
O 19.10312112 4.53143382 6.45006231 0.25217136 0.66174901 0.72033765
O 2.83513830 1.48708816 5.01434665 0.49090682 -0.36693042 0.37765821
O 15.37249638 1.45767089 5.00843655 -0.22935902 -0.99542144 0.14827039
O 3.05651135 4.53221405 5.00377116 -0.74400674 -0.16091816 0.24652070
O 15.36399514 4.63351125 4.99963752 0.20374320 -1.02331412 0.11170614
O 1.57278232 1.51255452 10.75343990 1.42475215 -0.91717902 -0.01774409
O 13.84284124 1.60089526 10.77491312 -0.53367515 0.82482036 -0.39545839
O 1.57642312 4.61668234 10.67999087 -0.21327525 0.23022361 0.47385741
O 13.87618053 4.55287669 10.69662111 1.55550021 -0.19594697 -0.32406713
O 1.31548191 6.16090614 3.06684585 0.82633527 0.59244747 0.03128770
O 13.86931161 -0.09956172 3.16970461 -0.67961986 -0.40483872 1.59507034
O 1.37016710 3.22181010 3.16500549 0.13619408 -0.40024639 -1.40173236
O 13.69737674 3.12371172 3.22276717 0.12789874 -0.44282385 -1.03521296
O 0.00515802 0.09362005 8.91467707 -0.37721742 -1.65868160 1.55880519
O 12.32041233 -0.05246297 8.86882364 -0.49482685 -1.39836210 -0.47580947
O -0.08685200 3.06756769 8.89603069 -0.91979961 -1.23720421 -1.22437764
O 12.35537037 2.95174595 8.83700895 0.39735654 0.43924565 -0.36706992
O 9.58134440 6.02054843 2.54794883 0.33640060 0.20654684 -0.42253665
O 21.98032558 6.19609529 2.47368333 0.14859384 -1.03528300 0.69674341
O 9.63941914 3.13591233 2.34116209 -0.08184043 0.08859745 0.08941546
O 21.88268926 2.97204253 2.49721874 -1.30463971 -0.50302549 0.33202920
O 8.17238591 0.20568108 8.12336863 0.89268552 1.70160128 -0.17758900
O 20.64032898 5.99914728 8.21443325 -0.24960558 -0.15074517 -0.51803437
O 8.23922543 3.03458171 8.15452710 0.23492205 0.01513582 -0.06831700
O 20.54963836 3.01423334 8.09659726 -0.35571873 0.18693828 -0.04335059
O 7.53394611 1.61264188 3.32887932 -0.85844901 -0.61930971 0.90917008
O 19.86563571 1.49394729 3.26777825 -0.99810363 -0.22369388 -0.07010967
O 7.46737929 4.65692544 3.16559860 -0.31292429 0.13589538 -1.41393869
O 19.91080094 4.48867898 3.29793729 -1.41418697 0.02645019 1.50193766
O 6.12977708 1.57152221 8.81972043 0.12546337 -0.30568100 -1.05601952
O 18.56307224 1.48080245 8.95934587 -0.69306112 -0.26241551 0.47525929
O 6.08342654 4.44176705 8.97580035 0.60159254 -0.71398518 0.14433164
O 18.60230561 4.60573691 8.93792769 -0.28827807 0.29221678 0.19464193
O 3.39092628 1.60127312 2.37559882 0.50375482 -0.23214921 -0.66204364
O 15.80860772 1.44938413 2.45076882 -0.42113940 1.20039316 0.18174043
O 3.35013285 4.54777574 2.45734500 -0.26200970 -1.25861715 1.09832448
O 15.87122393 4.48801720 2.51479990 -0.76447369 -0.50703239 0.08593199
O 2.15296079 1.58134654 8.16231991 -0.57233847 1.06780969 1.12883198
O 14.40625190 1.61685844 8.19565926 1.30863225 0.69818917 0.41656274
O 2.02776789 4.62606646 8.06418077 -1.20109891 0.02794571 0.52028449
O 14.37732664 4.53984357 8.17918000 -0.44306398 0.17251289 -0.68603224
O 11.92932142 1.54505347 1.47943173 0.50000467 0.45675763 0.78932105
O 24.14147805 1.49243982 1.48431531 -0.17814819 -0.89821543 -1.76694845
O 11.96433143 4.60620513 1.52014915 1.13051403 0.42746585 0.02393723
O 24.43168277 4.49021111 1.53458197 -0.73141588 1.47163239 -0.56992393
O 10.59763727 1.58623298 7.08537406 -0.18671291 -0.31942825 -0.75555101
O 22.89451613 1.55189937 7.12966067 0.16025059 -0.40834048 -2.07701954
O 10.49049476 4.62137198 7.11093723 -0.05512448 0.63095400 -0.23649402
O 22.89003753 4.58287679 7.17106251 -1.02867679 -0.19421442 0.65283035
O -1.02283623 1.55725822 4.19445160 0.50597781 -0.89662070 0.74622436
O 11.50749361 1.53523707 4.32354992 1.10890538 1.90020515 0.13900743
O -1.15293723 4.75496534 4.06228068 -0.38842330 -0.73884569 -0.60377729
O 11.37826285 4.58218702 4.17883499 0.32710336 0.72497246 -0.23897405
O -2.35492825 1.60768464 9.91677323 -0.32498867 -0.30058294 -0.53155808
O 9.97061334 1.48523000 9.92842313 1.10490522 1.26123158 -0.23244521
O -2.25489470 4.47839691 9.89045706 1.27140044 0.23968359 0.32436874
O 9.97945381 4.68581898 9.81822820 -0.60266339 -0.83152563 0.08258705
O 5.75836872 6.12093559 1.43143276 0.72785865 1.27131170 -0.84251820
O 18.13017578 -0.04248411 1.39262063 -0.29974084 0.51371621 -0.54157136
O 5.84642440 3.09140605 1.39311211 -0.56923578 1.14442736 -0.57431515
O 18.22251968 3.00976876 1.51498874 -0.59424090 -0.82033086 -0.19981954
O 4.38960927 6.17420100 7.15777831 -1.19463525 -0.45562008 0.00029683
O 16.89179417 0.04954552 7.13201033 -0.40902861 -0.36025119 -0.70341176
O 4.44637270 3.17818299 6.98467646 -1.53536913 -0.11107388 -0.76962994
O 16.71991485 3.09267648 7.05445515 -0.22572775 -0.40376748 0.50573496
O 5.11810604 6.13830910 4.12885575 1.56674996 -0.67724028 1.24051822
O 17.47028660 -0.02094656 4.29305729 0.47249068 -1.39666495 0.33928941
O 5.09388556 3.18938979 4.29344074 -0.45885648 0.19030029 -0.95649247
O 17.60124717 2.79604727 4.13028608 0.54897618 -0.56901128 -0.24138342
O 3.85157845 6.16234009 9.77334127 -0.55722437 0.17445418 -1.24065151
O 16.21512562 0.04648953 9.87350003 -1.44225926 -0.80037899 0.34583847
O 3.71293826 3.04983936 9.98845954 0.64137492 0.15508139 -0.48596390
O 16.24285580 3.09345673 9.86412513 -1.11966698 0.63602948 0.23572324
159
Lattice="25.065005 0.000000 0.000000 0.000000 6.205753 0.000000 -2.796047 0.000000 11.489614" Properties=species:S:1:pos:R:3:force:R:3 Energy=-622.641464 Virial="-54.274928 -0.574813 -0.891732 -0.574813 -52.512001 -5.467241 -0.891732 -5.467241 -41.165982" Ga_vac_type=Ga_tetra Ga_vac_tier=low Ga_coord=4 defect_vacancy pbc="T T T"
Ga -0.00885217 0.01690959 4.52697309 0.44736142 -1.54595815 1.30120877
Ga 12.48376786 6.23682639 4.59868763 -0.23850904 0.42077501 0.15876873
Ga 0.00896899 3.09837855 4.61390477 -0.81668405 0.59201814 0.49094041
Ga 12.51445089 3.06368654 4.56615316 1.45471580 0.56807719 -0.35259698
Ga -1.35710366 6.21639790 10.27701917 -0.78998314 0.38436027 1.28377190
Ga 11.10446859 6.20288048 10.37787959 -0.10660437 -0.12552309 -0.90319143
Ga -1.39332137 3.13327646 10.27799038 -1.24750657 0.13853235 0.90381218
Ga 11.29986796 3.15716671 10.26919021 -0.31275439 -0.99173580 1.38884249
Ga 11.15052135 0.04966865 1.19930560 -0.66265786 0.41242241 -1.07454684
Ga 23.75072688 -0.04235655 1.12038583 0.16038974 0.15849772 -0.72205122
Ga 11.11802236 3.13537409 1.17403851 -1.10627635 -1.89037719 0.55842213
Ga 23.69469732 3.13973653 1.16508502 0.55261560 -0.43554713 -0.80773265
Ga 9.65631663 6.20367849 6.87427128 -0.40302617 0.54160038 0.00482450
Ga 22.36254166 0.07195283 6.93607743 0.83330557 -0.15155970 -0.70336330
Ga 9.70224250 3.14502045 6.97800987 -2.53816375 -0.89682963 0.59513146
Ga 22.27883159 3.14265997 6.92092971 0.24782798 0.64759922 -1.05825625
Ga 6.35338226 1.51975169 4.53725567 0.18918614 1.15593315 0.66152535
Ga 18.76467617 1.55963584 4.61501448 1.54141815 0.49056821 -0.54527932
Ga 6.38122800 4.64201584 4.57067495 -0.18933722 0.09879498 -0.70229579
Ga 18.82488955 4.51832523 4.62786428 0.85118726 -0.19820723 -0.84587687
Ga 4.78790277 1.47483563 10.30646178 1.00380591 -0.19184590 0.54507533
Ga 17.42110432 1.51014289 10.30424790 -0.13781741 0.49882166 1.26192518
Ga 4.89560455 4.69198138 10.28651419 0.66086559 -0.00057297 1.33787180
Ga 17.49278472 4.63523988 10.27935211 -0.38492249 -1.02978773 -0.11893415
Ga 4.79920042 1.53009310 1.23120244 -0.92141137 -0.50523797 -0.21198924
Ga 4.90778955 4.61161466 1.15661943 -0.88424647 -0.53337782 0.40144220
Ga 17.39717707 4.57636260 1.18985763 -0.60652875 0.87168795 -1.47746746
Ga 3.52343647 1.62421659 7.00217436 0.24516779 -0.00567737 -1.10540461
Ga 16.03451788 1.56428080 6.86769329 -0.11705709 -0.00733805 1.04109020
Ga 3.42606780 4.57314856 6.90266599 0.41242575 -0.80383881 -1.47720604
Ga 16.03103431 4.68066849 6.93135353 1.16728140 -0.22148357 0.45962557
Ga 1.52769618 1.53890030 1.80416389 0.61131459 -0.17742461 0.11888849
Ga 14.19964108 1.63645813 1.76206840 -1.23063625 -0.45349681 0.93660565
Ga 1.59542545 4.65378401 1.82396557 1.19305599 0.12787718 -0.59273321
Ga 14.13119505 4.63669021 1.77839823 0.42989317 -1.35968462 -0.42532154
Ga 0.09033377 1.51854738 7.63278849 1.28233753 -0.24508902 -1.86779662
Ga 12.66069125 1.52825925 7.48396871 -0.03073213 -0.31268392 0.13037300
Ga 0.10475075 4.62726633 7.65159851 -0.72534339 -0.92240558 -0.33217688
Ga 12.66805562 4.64717584 7.62657133 1.62110152 0.81010193 1.11661407
Ga 9.68528153 1.45971597 3.88304817 -0.91403863 0.57617229 -0.34582398
Ga 22.16348941 1.61602957 3.93114187 -0.13463375 -0.85538341 -0.14526279
Ga 9.63320517 4.54025282 3.84607188 0.53402195 1.44074081 0.55653859
Ga 22.12543634 4.57936938 3.89112401 -0.15018242 -0.14464196 -1.11408563
Ga 8.18114740 1.61699361 9.69429826 0.09283465 -0.48301303 -0.75738136
Ga 20.80186450 1.54462816 9.62222712 0.65400943 -0.16284104 0.43080283
Ga 8.24483555 4.64434615 9.60451874 0.89777142 -0.13939667 0.40589869
Ga 20.71939961 4.57701722 9.59501451 0.39374613 -0.78074736 -0.44019762
Ga 7.78233293 -0.10356330 1.81311501 1.57465411 -0.28278978 -0.29744086
Ga 20.40989312 -0.02510038 1.79561934 0.01132337 0.06677769 -0.11159260
Ga 7.72194420 3.04241753 1.93705893 0.75451806 1.11047118 -0.18772121
Ga 20.19413811 3.12694023 1.76489460 0.63586526 0.42279237 -0.94726822
Ga 6.51696772 -0.00932419 7.46300511 -0.74756089 1.21459843 -0.29963696
Ga 18.85455063 0.07654248 7.47431916 0.08772585 -1.96422598 -1.80976092
Ga 6.40555949 3.14105881 7.61888110 0.28723473 -0.14843400 -0.42319133
Ga 18.90936367 3.27261821 7.55317624 -1.53400365 0.04982875 -0.40942365
Ga 3.40647980 0.00642822 3.89468994 -0.74487025 -1.54299597 0.01023674
Ga 15.80363007 6.24077081 3.97331790 -1.00971033 -0.57024542 1.12993273
Ga 3.33327194 3.19678494 4.00019731 1.37076849 0.61605481 0.26645083
Ga 15.80560902 3.02601174 3.98981903 0.30153812 0.75177928 0.25546089
Ga 1.91262205 -0.08655381 9.75469057 0.92310062 0.13239893 -0.28555930
Ga 14.49301343 6.26000900 9.76914268 0.00885491 1.48696923 1.33166014
Ga 1.92753286 3.08145907 9.66775334 -0.32990260 1.14439333 0.04631896
Ga 14.43234626 3.09899892 9.68405832 0.72911569 -0.14291358 0.45177111
O 1.87442831 6.24629399 0.64244329 0.06751910 0.66860958 2.04172962
O 14.42890267 6.14250249 0.62989234 0.51735910 -0.12928895 -0.63538784
O 1.87270073 3.12520186 0.56440482 0.22129710 0.95210261 -0.01888841
O 14.40415714 3.16476261 0.68666228 1.42725705 1.75094426 0.38936005
O 0.46380478 -0.06438306 6.34593364 0.19208473 -1.52745081 -0.02554590
O 12.93554006 6.09512278 6.37957524 1.33200931 0.78535354 -0.05055116
O 0.50104188 3.20105484 6.41620501 -1.57643941 -0.89843519 0.43877587
O 12.94264765 3.00032654 6.33505170 -1.63952781 1.58833439 -0.42587162
O 9.25630456 0.01345114 5.14792457 -0.60204897 -0.36605911 1.39173919
O 21.72203402 0.09282162 5.10344664 0.09837290 -0.13554519 -0.41625760
O 9.31481608 3.08628569 5.10980537 -1.20957511 1.83541727 -0.00012820
O 21.84547257 3.06374545 5.15611205 -0.82203714 0.10879217 -0.49605049
O 7.80325638 6.15352254 10.92856921 -0.66024427 0.92229740 0.24599775
O 20.35523868 6.24239793 10.95985671 0.13469188 0.67813833 0.36072283
O 7.92400123 3.07154508 10.82771144 0.18937024 -0.97754398 0.46943886
O 20.49402478 3.12872180 10.80867123 1.56095099 -0.36198050 0.35609271
O 8.20297332 1.52534494 0.66851583 0.02620344 1.11767648 0.37527788
O 20.74415638 1.58747422 0.70124250 -0.42113473 0.41737135 -0.35517129
O 8.18217443 4.63560284 0.71424961 0.90913574 -1.53995807 -1.11586064
O 20.70778735 4.59168877 0.57333423 -0.15909016 -1.13887480 1.19626397
O 6.84083805 1.57709289 6.41146550 -0.59176921 -0.26215408 0.54465770
O 19.24097041 1.55190046 6.46490191 -0.03620294 -0.29914612 1.11108044
O 6.78489498 4.68622884 6.35144631 0.98295425 -0.80860460 -0.93155960
O 19.30636726 4.62395407 6.38235189 2.47450314 -0.89792136 0.66162517
O 2.95604585 1.52984830 5.18046287 0.11148951 0.15377929 -0.35234290
O 15.58240253 1.56289032 5.13761102 -1.02014649 -0.84604519 0.02995106
O 2.95807303 4.72306147 5.15773794 -0.81144584 1.97202680 1.59787912
O 15.57725888 4.62648752 5.13772241 1.28069894 0.58723406 -0.86312444
O 1.47212966 1.55200627 10.94728854 -0.77688212 -0.42898198 0.72120433
O 14.17294786 1.58263588 10.76488319 0.24331581 -0.02621819 -0.43452318
O 1.54354901 4.64454057 10.85038141 -0.14494996 0.44643977 -0.89063439
O 14.11933494 4.60959724 10.91777997 -1.88683321 2.42066405 1.36423383
O 1.38969309 6.24581557 3.31622895 1.30783092 -0.99101265 -0.31285401
O 13.94496562 -0.03949857 3.22988400 -0.06566598 -0.08869987 -0.07552130
O 1.27254373 3.03431130 3.26707138 -0.15374039 1.24251567 -0.40267310
O 13.92576755 3.09771369 3.27828250 -0.19579811 -0.12771501 0.68453852
O 0.06998446 0.01134052 9.00163937 0.65942977 -1.72957871 -1.33429549
O 12.51131130 0.03398375 8.98060088 -0.53320832 -0.66930465 0.49136215
O -0.08339137 3.20035940 8.93137667 0.34359210 0.59969065 -0.74714185
O 12.43553790 3.07824898 8.93621896 -0.47279015 -1.27235676 -1.14802251
O 9.75869307 6.17584855 2.41892077 -0.10219800 0.27745485 -0.18370122
O 22.21005854 6.27209952 2.49042113 1.78589077 0.33403606 -0.81679325
O 9.69798648 3.11946534 2.46435828 0.23731825 0.34606454 1.30911072
O 22.28815554 3.05936578 2.40513216 1.26093325 -0.11129223 -0.14751418
O 8.33003387 0.05958549 8.16023902 1.41121109 -0.05901144 -0.37538727
O 20.82436620 6.18483463 8.28070747 -1.19273059 -0.97099152 -0.44463936
O 8.40157463 3.11023210 8.34780259 -2.17232064 0.26320561 0.13912025
O 21.00535279 3.04672197 8.30775253 0.58896933 0.58287389 0.95305011
O 7.63548327 1.57535039 3.21342882 -0.60414583 -1.44067689 -1.53245902
O 20.11767815 1.53358029 3.23670643 1.06795066 -0.59340677 -1.02771066
O 7.64379636 4.70853237 3.22548601 -0.72645615 -0.38122696 0.84465159
O 20.25128826 4.67274490 3.26202295 0.28302905 0.38028385 0.58550139
O 6.26977032 1.61586577 8.99546828 -0.42326714 0.22405148 -0.04771932
O 18.84313494 1.50542751 9.04911952 0.53589970 1.03704382 0.00248495
O 6.29410725 4.64013228 9.01661576 0.15992046 -0.22869588 0.90414194
O 18.78438643 4.62254703 8.96966930 0.18099541 1.39365811 0.60128983
O 3.52068717 1.55766550 2.52804396 -1.53192441 0.03360876 -1.01189350
O 15.94459613 1.50908391 2.54460546 0.22368074 1.43182816 -0.85419357
O 3.38140058 4.66888815 2.51135518 -1.25543050 0.19142679 0.39118143
O 16.00237379 4.59785361 2.45253458 1.29699893 -0.69804277 0.26983422
O 2.07216888 1.60072305 8.16376445 0.46133523 0.81806457 -0.23858461
O 14.61045888 1.41831999 8.22750203 0.39636649 -0.37061819 0.78772908
O 2.06520846 4.58982733 8.22553963 -0.55691966 -0.19135936 -0.42696046
O 14.68323709 4.69978242 8.21340767 -0.40026815 -1.10704080 1.20671571
O 12.06097430 1.61282347 1.44495022 -0.40390912 1.53299534 0.69509452
O 24.62080783 1.54511941 1.44849270 -0.51986676 -0.13011509 0.62293656
O 12.08819364 4.62821863 1.53350983 -0.04854803 1.31764351 -0.25893204
O 24.52889938 4.65921922 1.40424266 -1.31819083 -0.59207974 -0.97457961
O 10.73411593 1.59462477 7.19578185 -1.07958045 -0.07187213 -0.87366859
O 23.31177494 1.65347293 7.20351695 -0.51306952 0.87275241 0.35965527
O 10.76309166 4.50989924 7.23965195 -0.67220941 -1.53577891 -0.14185711
O 23.28718104 4.59221108 7.27857447 -1.28643371 -0.10434224 0.18564827
O -0.97048552 1.55848457 4.28173113 1.94681686 0.71643530 -0.30218267
O 11.58273275 1.57866326 4.25542171 0.21814957 -0.15576714 0.38921003
O -0.96039242 4.62041220 4.34649497 -0.09691237 -1.12779988 -0.55497164
O 11.45501246 4.72934632 4.18008512 0.21590964 2.77080069 0.18939893
O -2.39383667 1.54176649 10.00552755 -0.50206274 -0.63768243 -0.56745622
O 10.08928027 1.51238824 10.05706564 0.23554259 0.31201897 -0.77108673
O -2.32398162 4.71351145 9.91941611 1.55275252 0.83441728 0.67077074
O 10.08682411 4.71294421 9.95280853 -0.25995498 -0.20258381 -0.51601827
O 5.96200308 6.34494264 1.54089770 0.62318885 -0.74967927 -0.15263449
O 18.41255555 -0.08217904 1.42675291 -1.20576850 -2.52455672 -0.42968969
O 5.86536985 3.07451964 1.59766282 0.18202787 -0.54211593 -0.38130102
O 18.48119353 3.03785509 1.46235543 0.01931238 0.73740932 0.69359039
O 4.41184897 6.23092402 7.20001157 -0.71984553 -0.65222922 -1.33387200
O 16.99785321 -0.04173649 7.24934650 1.30431770 0.39977817 -0.59949116
O 4.44392329 3.16629901 7.21732375 -1.67776186 -1.04157795 -0.78615625
O 16.92369716 3.10097458 7.18876479 -0.74657554 -0.19211494 -0.01594046
O 5.29459134 6.21134478 4.30236051 -0.90323545 -0.09462817 1.81309198
O 17.78027294 -0.05577782 4.25579580 -0.50501881 0.42138801 0.23675957
O 5.19866217 3.10830541 4.25248485 0.01278997 -0.58363498 1.00670177
O 17.87711062 3.21265686 4.28562638 0.28523072 0.44247215 -0.05677789
O 3.84258464 6.22607646 10.04506327 0.07268248 0.43094822 0.75573984
O 16.38223910 -0.01512838 10.06811838 -1.00847857 0.84541557 0.40349196
O 3.87834927 3.15687268 9.96753507 0.25368994 -1.20101085 0.11314884
O 16.38196156 3.13106486 10.00392379 0.17239821 -0.08798912 -0.42866688
159
Lattice="24.853251 0.000000 0.000000 0.000000 6.153326 0.000000 -2.772425 0.000000 11.392548" Properties=species:S:1:pos:R:3:force:R:3 Energy=-622.763058 Virial="-58.889532 1.482757 -1.135771 1.482757 -46.387474 -6.762113 -1.135771 -6.762113 -43.625697" Ga_vac_type=Ga_oct Ga_vac_tier=low Ga_coord=6 defect_vacancy pbc="T T T"
Ga 0.09917256 0.03924076 4.50694012 -0.67381550 0.65791818 0.80388049
Ga 12.51674648 6.24775273 4.58078616 0.42135843 -0.19563665 -0.50279238
Ga 0.08799934 3.17492669 4.45146875 0.31681626 -0.74317068 0.65853458
Ga 12.47733085 3.21020346 4.55181810 1.57769749 -0.54090199 -0.63168831
Ga -1.38439011 6.17991488 10.33911084 -0.65118291 0.89067339 -1.03579148
Ga 10.99404490 6.15104936 10.21388000 0.02502959 0.56488256 -0.06597545
Ga -1.37914528 3.08005680 10.12082863 0.77347607 0.17700007 0.59430076
Ga 11.12696373 3.07506757 10.23234116 0.21092777 -0.32822432 1.30266636
Ga 11.06314870 0.01651862 1.12782702 0.67837837 -1.08942969 0.14460756
Ga 23.34681455 0.00513941 1.07157172 -0.01531735 -1.58248282 0.47287465
Ga 10.99367478 2.93951128 1.20500636 -0.44706012 -0.11354580 2.11153769
Ga 23.47872593 3.04028235 1.28552015 0.79087291 -0.20343935 2.19925087
Ga 9.68406168 6.15242156 6.78231612 0.30628877 0.60562389 0.52943383
Ga 22.04782136 0.02131320 6.88611631 -0.60402346 0.25080586 0.55165419
Ga 9.59619491 3.13150578 6.79095577 0.42543893 -0.38345609 -1.37861134
Ga 22.07398574 3.14872374 6.95328959 0.19504080 -0.47806938 0.72848221
Ga 6.27451054 1.63192703 4.55255935 -0.05175821 -1.11017212 0.26087336
Ga 18.57511836 1.61114946 4.53331742 0.01190902 -0.08892340 -0.55475830
Ga 6.29065715 4.70177586 4.51572089 -2.20012405 -0.77003115 -1.42501447
Ga 18.54737756 4.67517685 4.60098407 -0.47059046 1.16818677 -0.74302390
Ga 4.80867461 1.49061432 10.20414191 0.75978915 -0.06221609 -1.26165965
Ga 17.29879102 1.45013200 10.29807785 -0.07306096 1.00132000 -1.19168550
Ga 4.79761248 4.67794594 10.06031672 -0.89066941 0.07433550 -0.22252423
Ga 17.34395774 4.61374328 10.25635041 0.11914939 -0.30079937 1.71520521
Ga 4.83798735 1.51795484 1.15460871 1.51207197 -0.27030005 -2.02585076
Ga 17.14216104 1.71295754 1.21459790 -0.19570164 -0.39897655 -0.91996683
Ga 4.93589109 4.48964037 1.16533882 0.26844344 -0.03191151 0.36445378
Ga 17.23069088 4.60880436 1.12186702 -1.65559984 -0.35320608 0.58370282
Ga 3.44440957 1.47565498 6.89431831 0.79955989 1.67079669 -0.11262515
Ga 15.75600027 1.53407213 6.82837531 -0.69702311 0.03022078 -0.46798571
Ga 3.47550968 4.62754034 6.86723184 -0.78962623 -0.59249634 -0.26314520
Ga 15.83323521 4.62170557 6.92173438 -0.81086984 0.09406804 0.97804823
Ga 1.44528269 1.48416440 1.76500198 -0.25738420 -1.15875318 1.13215917
Ga 13.95446204 1.54335150 1.66710763 0.20945183 -1.20965346 -0.08211708
Ga 1.58300737 4.69202174 1.74909131 1.56969847 -0.06386590 1.10321213
Ga 13.91257682 4.55072168 1.72214041 0.40037453 -0.16610870 -1.26373648
Ga 12.61600946 1.39518445 7.50170047 0.63401362 0.40925359 -1.32096670
Ga 0.17727125 4.59407200 7.42153906 0.93938450 -0.17202154 -0.80995741
Ga 12.53258255 4.57934724 7.58258909 -0.55624100 0.04324614 0.63669912
Ga 9.53252776 1.55459448 3.87456277 -0.75383263 -0.60190232 0.56825592
Ga 21.76539642 1.49549383 3.92975403 -0.51881632 -0.28036691 -0.26502181
Ga 9.50185805 4.64818311 3.97145794 0.00961705 0.40328532 -0.13925762
Ga 22.01365495 4.67092696 3.92300761 -1.04157292 -0.35420238 -1.03527067
Ga 8.04788599 1.49060358 9.47603576 0.88322229 0.40741741 0.66802608
Ga 20.63861399 1.66860527 9.56958707 -1.39544816 0.07751871 0.21672373
Ga 8.14069521 4.54166772 9.53783050 0.72594028 0.69094687 -0.14009311
Ga 20.55836540 4.54303939 9.58854650 -0.28486789 -0.25481949 -0.27745951
Ga 7.67524745 -0.02627626 1.85444466 -0.41730604 -0.28731096 -0.75247849
Ga 20.10043186 -0.13133998 1.78820948 0.61968850 0.69448402 -0.79116486
Ga 7.70409307 3.01213643 1.90038017 0.53778346 -0.92481194 -0.99929961
Ga 20.11732488 3.07872442 1.66962477 0.01501290 0.33327778 0.02717317
Ga 6.44874591 -0.00236808 7.38142536 0.61868175 0.57505830 -0.92121750
Ga 18.82534532 -0.06608468 7.53172161 1.31125006 -0.66621147 -0.35085081
Ga 6.28363710 3.07986832 7.52105775 -0.51219655 -0.98859496 0.38635390
Ga 18.83339723 2.99666672 7.42262369 -0.92490186 1.32775708 0.34069094
Ga 3.33947688 -0.04527271 3.93003922 -0.36588374 0.56844629 -1.29452871
Ga 15.73905255 5.98121999 3.81516628 -0.61252607 -0.80844183 0.04483063
Ga 3.25247658 3.04693842 3.94826287 0.52246477 0.74162829 -0.84193734
Ga 15.70873185 3.06220917 3.85192624 -1.03146218 -0.28711672 -0.96723158
Ga 1.92387228 0.10950444 9.61226361 -0.75354306 0.74893658 -0.05585088
Ga 14.34256813 6.15915476 9.70549969 0.88109361 0.56659621 0.59609684
Ga 1.88149947 3.13350028 9.51531258 0.45947107 -0.74619081 -0.73277722
Ga 14.39252315 2.98541553 9.63516724 0.23266899 -0.51359491 1.22355681
O 1.88148418 6.22296350 0.62795198 -0.02645345 0.50235595 -1.46324941
O 14.33785074 6.07181575 0.67619695 0.52328583 0.69411669 1.28006001
O 1.87525791 3.10799438 0.66835250 -1.06213240 0.68815471 0.08370862
O 14.37601394 3.00267016 0.56594754 0.97013691 -1.35719239 1.01185063
O 0.48358102 -0.05335554 6.30074160 2.01007341 -0.87662602 1.77343146
O 12.90163303 6.23087261 6.21425604 -0.31714746 0.81855678 0.02811637
O 0.54294154 3.14841813 6.45072912 0.04297442 -0.47090975 -0.05094921
O 12.99019590 3.05064967 6.29640470 0.74897374 -0.36186434 -0.57078233
O 9.16255570 -0.05556743 5.03494185 0.13414872 0.30504956 0.24807079
O 21.59118635 -0.02316818 5.05295623 -1.54792827 0.14066296 0.44542767
O 9.22977407 3.14037460 5.04391074 0.15370440 0.73459114 -0.88502215
O 21.61942163 3.07650608 5.21539807 -0.66634453 -0.12771164 0.12636722
O 7.71831771 6.11006561 10.95240021 -1.11540022 -0.14580996 -0.67654773
O 20.16174843 6.18042160 10.75715432 -1.17531562 -1.23961056 -2.17559860
O 7.77256252 3.11667431 10.77496016 -1.10668951 0.84409700 -0.82833606
O 20.17936492 3.06365028 10.72601250 -1.32335022 0.08152716 1.47897857
O 8.02352691 1.47939972 0.67487547 0.01822690 0.66421079 -2.02914253
O 20.64565806 1.52784721 0.62535839 -0.45811012 -0.75905380 0.51902335
O 7.99455979 4.60527627 0.60322783 -0.39864317 -0.41712888 1.08088673
O 20.56556792 4.60389096 0.55675357 1.15248156 0.66987369 0.74183797
O 6.66717590 1.57563519 6.36477892 1.45585643 0.56229208 0.02409204
O 19.13166343 1.44423145 6.41543366 -0.30437823 0.01295458 -0.26906418
O 6.69782935 4.63020642 6.29254535 -0.27867950 -1.72504405 0.40837010
O 19.24739301 4.58288854 6.22059021 1.29923365 0.11666248 -0.52046004
O 2.93856246 1.43686604 5.08589040 1.39274829 0.04694220 0.08839193
O 15.34642225 1.59901409 5.16079676 0.77108446 -0.41637355 -0.47197003
O 2.87090005 4.66689204 5.15326169 -0.42206609 0.73936082 0.26887831
O 15.28270442 4.58588043 5.06282653 -0.32099831 1.09391920 0.74307010
O 1.63327337 1.56367233 10.70901011 0.75793960 0.07633271 0.74793286
O 13.98792697 1.49952060 10.65878584 -0.51795276 0.89411003 1.38887371
O 1.52984922 4.66595062 10.87825315 -0.74447953 -0.86116315 -0.44517548
O 14.07246400 4.75791767 10.89946363 1.23328653 1.05250891 0.04685599
O 1.34128450 6.21508826 3.30616239 -1.15155007 0.43443521 -0.73937682
O 13.78155635 -0.00507532 3.29857890 -0.66036664 0.52656328 0.83486875
O 1.38813153 3.01437709 3.29945830 0.30035057 1.83543664 0.58942227
O 13.83263989 3.10453326 3.30595886 -0.51752115 0.18206079 -0.43482786
O -0.08205715 0.02452278 8.99701765 -0.96015118 1.06261478 -0.86972054
O 12.45455261 -0.03681774 8.95618964 -0.20876229 -0.37118978 -0.65379660
O -0.03500117 3.13844506 8.87201726 -1.30400136 -0.50044932 0.33744154
O 12.34099446 3.09829427 8.93090614 0.49928143 -0.78533195 -1.23382533
O 9.75947636 6.03577593 2.49921998 -0.35196863 -1.30953256 0.13872165
O 22.00136754 6.25002466 2.57629978 -0.27907690 1.69426488 -0.02331611
O 9.74514462 3.03471681 2.48690718 -0.50824861 0.11734561 1.87338398
O 22.19701316 3.09313745 2.43921495 1.02048846 0.32813531 0.08705616
O 8.29260195 -0.12864574 8.06851594 0.26986178 0.03771698 0.26744086
O 20.65539839 6.31839348 8.19692374 1.09693376 1.25876375 0.60196584
O 8.22723292 2.99688925 8.25482802 0.82668046 -1.04400113 0.50009767
O 20.76666178 3.09341365 8.21623459 -0.58140734 -0.22073377 -1.02589655
O 7.52729699 1.50190526 3.18980343 0.08792236 -0.73169577 0.61746716
O 19.94900471 1.46605032 3.25942448 0.16483479 -0.04322632 0.31506445
O 7.40656162 4.55310056 3.24138823 -2.03963810 -0.41495034 -0.02390606
O 19.83847763 4.66203657 3.13929551 0.70646028 0.71664840 -0.04586979
O 6.26182520 1.59462219 8.96376398 0.78578204 -0.52595591 -0.13881660
O 18.61062269 1.52072213 8.87840606 -1.53832115 -0.93230444 0.34552652
O 6.30394563 4.59290064 9.02918686 0.84076124 1.19518948 -0.08918291
O 18.49295699 4.56709399 8.99318265 -1.66928313 0.89746740 -0.30353100
O 3.44449134 1.50814559 2.53354144 1.18042785 0.97009221 -0.36507151
O 15.87825773 1.58212434 2.34357988 0.44751148 -0.91164203 -1.61118470
O 3.47919608 4.38737506 2.51454409 -0.13536427 0.13922189 1.32426805
O 15.73392859 4.59894435 2.43653252 0.16752635 -0.14485278 2.19546450
O 2.11635406 1.58932878 8.15356904 0.45887464 -0.74230445 0.95621338
O 14.47656720 1.55624471 8.12914030 -0.45149507 1.72382108 -0.11304020
O 2.03146109 4.67989607 8.17931926 1.66205392 -1.33948413 -0.70030278
O 14.54101582 4.63574443 8.07957993 0.06332424 -0.39791470 2.02621494
O 11.99356324 1.49073493 1.43789447 -2.00147057 1.45128883 -0.44285611
O 24.42575626 1.58631193 1.56005316 -0.02131823 -0.88204737 0.47928121
O 12.09405909 4.67742728 1.51279174 -0.44029051 -0.57739519 -0.57856816
O 24.44221791 4.61734788 1.54124350 -0.21315324 -0.77770054 0.35181386
O 10.64540525 1.43507243 7.25212153 0.00706560 0.49714126 0.00371452
O 22.95768379 1.40824615 7.07857738 -0.26956594 -0.55402024 1.10253394
O 10.63801324 4.59975820 7.14910008 -0.03227591 -0.24877659 0.01185024
O 23.08596661 4.65782546 7.17511942 0.04794719 -0.67247568 0.31849685
O -0.90902879 1.49028805 4.23216909 0.43263757 0.79086615 -0.39238998
O 11.40865345 1.48595854 4.14469966 0.38681495 -1.22649779 -1.01565609
O -1.03686718 4.55265836 4.16696900 0.63190303 -1.47202270 -0.16791975
O 11.40146908 4.71544012 4.23055617 -0.37006663 -0.63085300 -0.15970398
O -2.29464520 1.48393400 9.93290470 0.00962115 -0.81628590 -1.23329607
O 10.00709408 1.50223399 9.97762270 0.78253508 -0.32308459 -0.33433745
O -2.39771545 4.78469564 9.96733625 1.66509079 1.75378271 -1.51332263
O 10.00616707 4.58093786 10.09533311 -0.17209356 0.11995579 0.37177300
O 5.75562883 6.19986263 1.34150044 -0.55934903 0.04894907 0.04075539
O 18.37500669 -0.02392491 1.49906908 0.19388080 1.68296063 1.53662998
O 5.84514433 3.10670873 1.39659681 -0.52278311 0.01091731 0.07206696
O 18.25266119 3.08262407 1.48942156 0.10991252 0.28589759 -0.56551652
O 4.37695106 6.18117983 7.12026131 1.30475251 0.79567068 1.07984598
O 16.75970841 -0.00175547 7.23079305 0.09853503 0.42161098 0.30592321
O 4.52542178 3.17994316 7.06922410 0.42559730 -0.09702612 -1.48697814
O 16.79605559 3.08526748 7.20671509 0.26089574 0.14483485 2.00109255
O 5.32692276 6.13629514 4.17448256 -0.82848177 0.22752631 -0.52872004
O 17.73467605 0.04540627 4.27613794 -0.64064250 2.23393352 0.42940574
O 5.24326478 3.08374745 4.33136897 1.51597641 0.76628729 -0.44096667
O 17.62678525 3.09161788 4.24131490 -0.91841959 -1.13740253 -0.78061526
O 3.76165692 6.28280677 10.03383467 0.55901686 -0.85293404 0.43910501
O 16.33707825 -0.07197883 9.81525547 -0.14227263 0.32987102 -0.51562207
O 3.70960389 2.95043592 9.96733489 -0.70352827 -1.57873078 -0.55006636
O 16.22949405 3.13833318 9.93748208 0.19386353 -0.05056800 0.27639884
159
Lattice="25.131072 0.000000 0.000000 0.000000 6.222111 0.000000 -2.803416 0.000000 11.519899" Properties=species:S:1:pos:R:3:force:R:3 Energy=-621.104529 Virial="-57.052234 1.144466 -3.692057 1.144466 -42.883278 -6.043163 -3.692057 -6.043163 -42.152920" Ga_vac_type=Ga_tetra Ga_vac_tier=low Ga_coord=4 defect_vacancy pbc="T T T"
Ga 12.54908094 6.19179558 4.55123220 0.29659500 0.15567381 0.13770647
Ga 0.02421542 3.06479707 4.59497297 0.11297558 0.33605071 0.59393200
Ga 12.57087722 3.11284571 4.52068216 -0.22541702 0.47872699 -1.62164021
Ga -1.41404074 6.18191863 10.30769910 1.15730065 -0.58803692 0.22036987
Ga 11.19614033 6.24692591 10.25771817 1.71236951 -0.38820493 -0.48478304
Ga -1.34503693 3.13544357 10.44490884 -0.36371176 0.19258838 0.38010833
Ga 11.05118339 3.06332991 10.37267879 2.08938909 -0.80272299 -0.00378110
Ga 11.15406141 -0.12093078 1.22048251 1.69140808 -0.88666857 0.99005836
Ga 23.67643576 -0.10407679 1.25403482 -0.12664547 0.76672065 0.98643540
Ga 11.00341214 3.13130442 1.20023425 0.61857580 0.12539052 -0.73355383
Ga 23.71579175 3.08953123 1.13345755 0.65857523 -0.34985672 -0.58721700
Ga 9.76499215 6.18988846 6.88338217 -0.94173255 -0.29461451 1.18386892
Ga 22.36373931 -0.13776158 6.89856313 -0.68904236 0.76628534 0.63538591
Ga 9.66413812 2.97028913 7.02817399 0.62789661 0.93190629 0.80702415
Ga 22.35985346 3.03505836 6.94803940 0.02865710 0.05154746 0.93337260
Ga 6.26269786 1.46891601 4.57541203 0.59426315 -0.08875758 -0.17870342
Ga 18.88283553 1.48444900 4.53928090 -0.96368628 0.33383601 -1.62841413
Ga 6.22916729 4.74523623 4.56319254 0.03768185 0.78364009 0.75072022
Ga 18.82258517 4.57056730 4.64303433 -0.02393458 0.93975747 -0.31309510
Ga 4.94002625 1.50240381 10.31635061 0.05220018 -1.09280334 0.18796411
Ga 17.50258468 1.60515630 10.35418136 -0.18130421 -0.35392531 -0.25927975
Ga 4.91153828 4.58724327 10.47684919 -0.46536071 1.85345336 0.13524307
Ga 17.42435807 4.68864578 10.27792942 -0.02912254 -0.12075999 0.53011271
Ga 4.89558630 1.50864364 1.19750830 -1.10246363 -0.57806263 -1.20515851
Ga 17.46681964 1.64318576 1.13133544 0.45512110 0.04514309 -0.05577210
Ga 4.93247775 4.70099888 1.14390114 0.06844516 0.66060972 -1.49470127
Ga 17.47043599 4.66487627 1.10091621 0.02064425 0.06538950 -1.15550710
Ga 3.42546077 1.51962449 6.91631814 0.51723849 1.01721960 -1.35096340
Ga 16.05172059 1.48324566 6.89827417 -1.37223226 -1.24774129 0.69913917
Ga 3.52803252 4.62086998 7.01234515 0.18312189 0.05410118 1.57897065
Ga 16.06168854 4.62618061 6.98206270 -0.65126149 1.23649419 -0.43644467
Ga 1.69070981 1.47828106 1.74743955 -0.78523309 -0.37877822 -0.87385958
Ga 14.09302744 1.62392656 1.85446183 0.44133049 -0.81768079 -1.07205889
Ga 1.54284526 4.57673243 1.89561808 0.00651563 1.98108211 -0.51137127
Ga 14.14826526 4.75494161 1.86289104 -0.61877654 -0.16234771 0.30204405
Ga 0.30504322 1.58118065 7.63180440 0.01348736 -0.47579939 0.47977510
Ga 12.69885439 1.58080823 7.57425578 -0.46625312 -0.18406480 -0.81506352
Ga 0.13163451 4.60830237 7.49329897 -1.14682766 -0.60107172 -0.30447095
Ga 12.65956876 4.66993099 7.57726439 -0.34893644 1.49280429 -0.46864455
Ga 9.70176023 1.61544177 3.96573155 -0.14444806 -0.07371549 -1.43368497
Ga 22.14613218 1.52105445 3.87885192 -0.01101204 -1.04600231 -0.60780688
Ga 9.56470027 4.65680763 4.08881624 0.52667429 -0.74810562 0.37076743
Ga 22.16283580 4.63707009 3.84685831 0.57580776 0.87866588 0.47693679
Ga 8.11695620 1.56493843 9.69774516 1.47429424 -1.39670605 0.08751049
Ga 20.74757066 1.46105673 9.74040111 0.21647910 -0.83542435 -1.01922966
Ga 8.26634648 4.54480514 9.77796965 -1.52485821 -0.14278052 -0.84452742
Ga 20.80951858 4.55948192 9.78339096 0.64421298 -0.24606953 -0.65377532
Ga 7.81074903 -0.03564021 1.84075759 0.29859465 0.19249818 -0.29704182
Ga 20.50324857 0.04423656 1.78826112 1.52104662 0.80548158 -0.79640967
Ga 7.89802299 3.15697909 1.81557443 0.24050806 -0.70022740 -1.34338201
Ga 20.27960477 3.10294779 1.81937993 0.07123732 1.73764567 -0.59173530
Ga 6.39521315 0.10700862 7.60429463 -1.24825136 -0.00924578 0.67456008
Ga 19.01733737 0.04230410 7.57419066 -0.06641904 -0.68887034 -0.69845984
Ga 6.45549694 3.15896867 7.46122986 0.13725940 0.41481179 1.38805985
Ga 19.02956307 3.15459226 7.70769652 0.81335322 0.36751339 -0.03240271
Ga 3.35512821 -0.02273987 3.94628519 -0.28421064 -0.05960703 0.52604696
Ga 15.90782988 6.26548218 3.93523307 -0.84019913 -0.36129300 -1.76406360
Ga 3.34133014 3.16984350 3.89842691 0.28208495 -0.26902903 -1.17670369
Ga 15.92505349 3.21198651 3.97427100 -0.56373830 -1.16001181 0.76538422
Ga 1.94596507 -0.01796046 9.56068065 -0.71796369 -0.36948721 0.73751912
Ga 14.55009174 6.10953496 9.76932013 0.87758657 -0.86980871 -0.91191759
Ga 1.79138443 3.22608175 9.82167684 -0.46805545 -0.87783152 0.87613265
Ga 14.51910557 3.11998527 9.69722558 -0.59330596 -1.27525913 -1.15329192
O 1.91873806 6.29111267 0.63136674 0.01391530 0.07539769 0.25212776
O 14.57314871 6.11004642 0.67704807 0.43359680 0.21724924 -0.48898748
O 1.84544820 3.16744269 0.54140437 -0.10778148 0.65749187 -0.00909159
O 14.39455535 3.13781037 0.59810512 -0.80556268 0.42322947 0.29267724
O 0.47877699 0.14210354 6.46769850 -1.23648368 -0.40272122 -0.16033053
O 13.04790586 6.21384066 6.37828605 -0.11540232 1.56378880 -0.70657397
O 0.55752177 3.10728979 6.32861049 -0.41489677 0.30874101 2.40294028
O 13.15001466 3.17081039 6.35768406 0.31693947 -0.77256217 0.50939998
O 9.25096455 -0.02288564 5.11802855 -0.26844002 -0.05232118 -0.36367025
O 21.84510910 -0.01921590 5.28631722 -0.07108552 -0.51803378 -0.53202264
O 9.28742980 3.16675960 5.18876214 1.46495222 -1.25424896 -0.29914016
O 21.80170790 3.18887549 5.08749080 0.50134381 1.84386150 -1.07691172
O 7.80295366 6.19582433 10.83097786 -0.27416063 1.70141673 0.80296039
O 20.41538585 6.21299645 10.76445379 0.96570327 0.07597713 0.82438541
O 7.86371982 3.08785896 10.94677534 0.58494407 1.50987508 -0.26973037
O 20.47264453 3.10293546 10.96806113 -0.70700704 0.08082089 -0.56015036
O 8.17984585 1.57971085 0.55410594 -0.05301895 0.62692157 1.00891662
O 20.84596850 1.65858296 0.66264849 1.51958029 -0.71798152 0.88700799
O 8.11801567 4.67997619 0.64568022 0.19185814 0.49151858 -0.69903748
O 20.71741397 4.75645136 0.60298163 -0.14169444 0.90937708 0.18781130
O 6.64641556 1.54115183 6.28944408 -1.39878262 -1.22271434 -0.47143537
O 19.29304440 1.55579938 6.35635359 -0.79149621 -0.71533126 0.06159867
O 6.70305777 4.76121002 6.38025665 0.51791611 0.47377139 -0.63236202
O 19.36055436 4.74909636 6.42391402 0.35399617 0.56132904 0.39583005
O 3.03273566 1.52995106 5.11269473 -1.12120005 0.39213151 0.18333457
O 15.57068999 1.59234249 5.20005764 -0.53629033 0.76973423 0.17256326
O 2.98421092 4.64597015 5.10612678 -0.14511987 -0.49370192 -0.88860292
O 15.58362974 4.59984931 5.10754669 0.50208031 0.05452063 0.78053324
O 1.42576537 1.50250453 10.92873518 0.40645953 -0.15995193 0.16473250
O 14.08879555 1.60373859 10.85385848 -0.09347265 0.33589904 0.83115251
O 1.51416911 4.68250321 10.88206854 0.90377192 0.19468973 1.74274453
O 14.11317706 4.64645184 10.89964520 -0.17139516 1.47166135 -1.80341852
O 1.42013027 6.18057511 3.12924562 2.41434140 -1.15930173 0.87432317
O 13.88850246 -0.04235156 3.33460070 -0.20878818 0.74272171 1.76004605
O 1.39446519 3.06864528 3.28028443 -0.30284874 -2.34380280 0.60952996
O 13.95377263 3.08223403 3.17159399 -0.91969965 -0.11614008 -1.22201949
O 0.10656315 0.00292723 9.04796322 0.12917734 0.04127260 -0.34101214
O 12.49606696 0.08800059 8.90498590 -0.84518865 -0.51859372 1.48642767
O -0.09350576 3.23777872 8.96400959 0.13290312 -1.17774614 0.78051871
O 12.67200991 3.18537089 9.00347911 0.62003134 0.24974777 0.40807881
O 9.66799899 6.25969322 2.59487761 -0.38666560 0.28445867 0.28075345
O 22.25891463 6.16312453 2.49801885 -0.34528977 -1.13981192 -0.76754041
O 9.79958761 3.22675701 2.47993964 0.90161858 -0.54103123 0.01022018
O 22.36898788 3.10773770 2.42805315 -0.23849243 -0.90555283 -0.28933384
O 8.39796918 -0.01741544 8.29682196 -0.16659522 1.03404149 1.45377272
O 20.86598658 6.16598521 8.16367403 -0.55477175 -0.78979300 0.46639219
O 8.37166335 3.11040847 8.25625278 -0.57355207 -0.81986889 0.06179755
O 20.96700594 3.15918159 8.19879857 -0.47285518 0.43623941 -0.20261752
O 7.69187379 1.52019280 3.18726350 -1.48889102 0.22503078 1.20841521
O 20.09931125 1.59725424 3.16714087 0.75353467 0.10114647 0.49444315
O 7.71119116 4.62847104 3.31624330 0.27085394 1.75422597 0.85192879
O 20.27848145 4.58489897 3.26115618 0.83209031 -1.10452649 -1.37210124
O 6.27193509 1.58071974 9.05829708 -0.30482704 -0.95002853 -1.19645322
O 18.93104516 1.60844618 9.06319650 -1.31379813 -0.71256859 -1.45830558
O 6.36410475 4.68240491 9.08943172 0.42515441 0.64224510 -0.25028976
O 18.77456652 4.62627686 9.03681414 -0.52771860 0.62611032 0.21385796
O 3.54193191 1.60889256 2.39893444 -0.48355927 0.14213937 0.55032975
O 16.05992321 1.51364704 2.58077597 0.86633262 -1.42911323 0.16101550
O 3.45365080 4.67033318 2.52293956 1.37466412 0.22583260 1.07273672
O 16.02242163 4.69816510 2.49139912 -0.99310836 0.34181756 0.99174348
O 2.12193326 1.56188728 8.35658158 0.39048110 -0.74067687 0.76003149
O 14.63146737 1.58283892 8.19028266 -1.77799330 0.40842815 -0.39903689
O 2.01547941 4.60862611 8.17068195 -0.46829391 0.07887081 -0.69554162
O 14.61039811 4.61748157 8.29653393 1.20751968 0.37181515 0.03268164
O 12.11241285 1.51218925 1.53541216 0.69566642 0.90501019 -0.00231596
O 24.84209347 1.69172806 1.48652689 -1.02237574 -0.52765575 -0.11239513
O 12.18169243 4.61268300 1.50468845 -0.46189857 -0.17130819 -0.10932520
O 24.85585745 4.66747431 1.42454612 -1.09359880 0.00460158 -0.71558650
O 10.76898095 1.52520021 7.35172349 0.23130092 -0.17851401 1.38210203
O 23.36192430 1.59156052 7.19701613 -0.83820042 -0.15929210 0.72898835
O 10.71287067 4.65907972 7.17560557 0.06876815 -1.50797774 -0.38555329
O 23.29049820 4.58685735 7.15269105 -0.13849545 0.73847533 0.73828927
O -0.98762599 1.56131990 4.37974069 2.18264467 -0.55076824 0.15270552
O 11.55329634 1.57317219 4.42067266 -1.59643998 0.55042934 0.29931704
O -1.07780615 4.56971339 4.24884110 1.25796683 0.11222105 -0.60727836
O 11.58480376 4.75368168 4.30010598 0.69867200 -1.19570530 0.28165468
O -2.30060861 1.61701618 10.04082008 -0.60881270 0.40443440 -0.24457491
O 10.14098590 1.55767886 10.09293483 0.07355995 -0.78308898 -0.28093464
O -2.36902939 4.63006674 10.06781980 -0.59572188 0.56868306 0.18398096
O 10.20073107 4.65311750 10.05816658 1.03455089 0.30043334 0.50439906
O 5.88238630 6.24910074 1.49581090 -0.27164425 -1.03284632 0.55127457
O 18.51041718 -0.03116464 1.51277420 0.70034680 -0.90048800 -0.11860375
O 5.84531260 3.10644650 1.40784426 -0.57378336 -0.51222963 0.41842622
O 18.39389006 3.02445934 1.59708710 0.26475364 0.35931471 0.88564699
O 4.48893353 6.30589055 7.24742172 -0.67471073 0.56406445 -0.16199223
O 17.13402247 -0.05600296 7.32853541 0.82390795 1.08685664 0.42737679
O 4.42779299 3.17093346 7.21983705 0.72370709 -0.72309387 0.37350744
O 17.10822422 3.02725741 7.17365090 -1.17859157 -0.20223314 0.25556725
O 5.28865699 6.14372212 4.24446880 0.56622267 0.52612703 1.12025287
O 17.89141649 -0.01873665 4.30430298 0.08092675 -0.80789311 -0.15948056
O 5.30116173 3.12208974 4.28328642 0.27779493 0.59372995 -0.51300844
O 17.82597193 3.02929764 4.27205131 0.15109182 1.20874982 -0.21957283
O 3.82355589 6.25274558 9.94155545 -1.11792453 0.58691634 -0.44708450
O 16.53420784 -0.15471228 10.07145006 0.72248180 -0.17492672 -0.69815721
O 3.93224089 3.17528158 9.98389672 -1.92265797 0.35510886 -1.22220163
O 16.42714021 3.10483747 9.99387453 1.27243218 0.75177683 0.26429983
159
Lattice="24.863862 0.000000 0.000000 0.000000 6.155953 0.000000 -2.773609 0.000000 11.397412" Properties=species:S:1:pos:R:3:force:R:3 Energy=-623.553640 Virial="-56.379418 1.316346 -0.907121 1.316346 -47.832532 -4.670285 -0.907121 -4.670285 -39.410576" Ga_vac_type=Ga_tetra Ga_vac_tier=low Ga_coord=4 defect_vacancy pbc="T T T"
Ga -0.01673363 0.05929890 4.50357880 0.44962293 -1.22076596 -0.49135819
Ga 12.48305097 6.23734006 4.49234579 -0.06425608 1.28817180 0.67251261
Ga 0.09595324 2.93702884 4.43368375 0.73253458 0.08692692 -1.31675570
Ga 12.46276015 3.14194915 4.45815758 -0.21990129 0.33729649 -1.81821599
Ga -1.35694062 6.09430084 10.17882905 -0.93311973 0.72208615 0.04430218
Ga 11.00974037 6.22501812 10.17178226 -0.57294453 -1.71719614 -1.08150338
Ga -1.37097936 3.02045143 10.18639595 -0.85757776 -0.58620078 0.79234711
Ga 11.04841516 3.07554835 10.30532069 0.47568488 0.87311265 0.18875253
Ga 11.07831833 -0.00440258 1.19979581 -0.35198134 -0.36387092 -0.25952568
Ga 23.41416276 0.04075772 1.18449220 0.29197885 -0.34427836 0.57270534
Ga 10.97179736 3.06562466 1.26746370 0.25092273 -1.67029787 -1.44688287
Ga 23.49467987 3.04979391 1.18059747 0.02538090 -0.25031917 -0.24181039
Ga 9.65095124 6.07911643 6.81314365 -0.26293887 -1.14674658 -0.41225430
Ga 22.07876392 0.00971722 6.84243332 0.81606469 -0.10574858 -0.41378868
Ga 9.71718027 3.09429579 6.86436924 -0.21189275 0.70777885 0.34568755
Ga 22.22001975 3.04448167 6.84957606 -0.94404300 0.77950062 0.80987225
Ga 6.25267692 1.56855789 4.46579686 0.07371985 -1.15911988 0.12546144
Ga 18.66184037 1.55126999 4.58063853 1.06466204 -0.04276949 0.22061124
Ga 6.24965924 4.62047292 4.64649967 0.44997055 0.07944262 -0.17063210
Ga 18.70816733 4.69253621 4.61650340 1.21943649 -0.59389814 -0.46131255
Ga 4.83245026 1.62407994 10.20262570 -0.62794149 -0.18905316 -1.17796853
Ga 17.16025237 1.53158801 10.12339217 0.63875205 0.18278504 0.34096548
Ga 4.83176919 4.53221021 10.26855667 -0.72194951 -0.58962239 -0.27683127
Ga 4.81617490 1.50282550 1.23225661 -1.06520088 -0.87071146 0.30749848
Ga 17.20745665 1.47114116 1.30483682 -0.05504324 -1.46616082 1.08959683
Ga 4.82880248 4.59306327 1.03972319 0.41881720 0.09403028 -0.87277078
Ga 17.18005221 4.51705679 1.19001979 0.47067884 -0.13455681 0.49279476
Ga 3.47514644 1.56310172 6.77671329 0.59603327 -0.84618824 -0.29849309
Ga 15.97389892 1.62292779 6.89677391 0.18429637 -0.64082282 0.61858643
Ga 3.42812372 4.61658813 6.89728247 0.70264099 -1.17990063 1.08925776
Ga 15.91588162 4.63194780 6.90635147 -2.20172754 0.69816112 -0.21328388
Ga 1.52191004 1.58691861 1.79861076 -0.31063302 -0.09774991 0.62142460
Ga 14.01294026 1.58605255 1.90665522 -0.88546230 1.05868045 0.67112228
Ga 1.61177553 4.52572786 1.85606499 -0.22364279 -0.19214381 0.36808568
Ga 13.83959005 4.62896578 1.81657871 0.08358975 0.26058184 1.17879640
Ga 0.20288970 1.52480999 7.46572937 0.13913458 0.35810707 -0.45689609
Ga 12.64100895 1.57899842 7.45511799 0.82495124 -0.92923432 1.00507604
Ga 0.13529565 4.54775824 7.47923743 0.52160977 0.37264912 -0.14800539
Ga 12.55541067 4.59675881 7.48246859 0.38653347 -0.70293763 0.59015176
Ga 9.46989740 1.60755387 4.04535441 -0.18843938 1.28762265 0.08377641
Ga 21.98061876 1.39172713 3.84528705 0.57004109 1.37635026 0.84170329
Ga 9.48419353 4.53306730 3.88257183 -0.54801250 0.48515436 -0.54232415
Ga 21.91556061 4.64213759 3.93452931 -1.30338376 1.78546392 -0.23454794
Ga 8.12116463 1.51540767 9.51787471 1.08377372 0.40852383 0.81562533
Ga 20.59600869 1.51268159 9.60438392 0.77438756 0.37075678 1.50180012
Ga 8.06014047 4.67702322 9.63749616 -1.79754285 0.69749042 0.47769964
Ga 20.47334078 4.49386119 9.63624719 0.42655582 0.30806158 0.27930812
Ga 7.72838644 -0.06107688 1.75529148 -0.04027285 0.60412044 -0.59258011
Ga 20.08867444 0.01455271 1.77734265 -0.25074961 0.43720840 0.27071455
Ga 7.84245843 3.12687059 1.77287579 -1.39372705 0.63336610 0.98100756
Ga 20.06635203 3.06654331 1.78265759 -0.83790978 -0.47373943 0.33372247
Ga 6.44970097 0.00410449 7.51728842 -0.02682860 -0.13897592 0.10638753
Ga 18.71836911 0.08736106 7.41550985 0.26302665 0.65550485 0.43822170
Ga 6.32211977 3.13990877 7.57396494 -0.41179095 -0.59702779 0.08315693
Ga 18.82643736 3.14575996 7.49592143 0.64104141 1.13699969 0.76681670
Ga 3.38464824 -0.01105711 3.83578090 1.21362400 2.03662144 -0.44065474
Ga 15.68741381 6.06765840 3.95974221 -0.81337025 0.75294801 0.16977259
Ga 3.30585706 3.12758983 3.92059645 0.63870690 0.09415149 1.00056368
Ga 15.84269786 3.08528581 3.86088980 1.15126931 0.39548691 -1.29498925
Ga 1.89087884 0.00775938 9.48401129 -0.65624756 -0.89296274 -0.30062124
Ga 14.44538759 6.12988261 9.58138380 -0.01415320 0.28320996 0.44869438
Ga 1.96086252 3.07276043 9.69500402 0.05847478 1.38142035 -0.91358452
Ga 14.34054434 3.06906681 9.60437588 -1.09247380 0.64962687 -1.02481809
O 1.84839557 6.22210977 0.74740948 0.30652990 0.12845316 -0.98249541
O 14.27552434 6.14668038 0.63026482 0.46198608 -0.49815253 0.27645957
O 1.92935459 3.06954047 0.69159941 0.47918593 1.05896713 -0.42971913
O 14.26725540 3.02548026 0.73633488 0.77007172 -0.98785769 -1.86338185
O 0.48415621 0.08008405 6.21660437 0.68655419 -0.48062760 -0.74836488
O 12.78165499 6.19484591 6.26917651 0.34778118 -0.21885413 1.03513805
O 0.54861567 3.07164236 6.28111775 -0.16355941 -0.48609367 0.55750332
O 12.93282872 3.14194950 6.38522458 0.02437536 -0.32510386 -1.51214137
O 9.28480239 0.03869064 5.03021034 0.70539326 0.12672107 0.43345150
O 21.54934283 0.01434278 5.12617509 -0.22936551 0.99261626 0.87320170
O 9.14664569 2.96102634 5.09082295 0.35706461 0.93162547 0.99297914
O 21.59579163 3.05110511 4.96702302 -0.13027021 -0.22973243 0.33728788
O 7.84074997 6.15633392 10.73057311 -0.80215837 -0.95146168 -0.05717869
O 20.21178984 6.07395090 10.79929805 -0.01244960 0.75945741 0.28059531
O 7.81499553 3.06928916 10.80079079 -1.96283394 0.40941031 0.73996729
O 20.17754660 2.96687724 10.78421997 1.36167366 -0.19971849 -0.84731599
O 8.11271695 1.50197104 0.60819758 0.02400266 1.71503056 -0.68500781
O 20.55405607 1.64178604 0.52918121 0.42497435 0.92094222 -1.48125594
O 7.98071720 4.53415071 0.52154648 -0.47422513 0.14091481 0.10261323
O 20.58752749 4.62559018 0.67123766 -1.60793523 -0.70877883 0.17202069
O 6.81533739 1.48306357 6.38074840 1.43205956 -0.63051913 -0.43624010
O 19.20049776 1.54554124 6.43133877 -0.83916904 0.30028776 -0.47552937
O 6.67508136 4.64079866 6.37781913 0.36068420 -0.43736228 -0.44996455
O 19.04743033 4.65738630 6.26119497 0.82698095 -2.97848958 0.09886987
O 3.07741247 1.50361963 5.07505607 -0.36094471 0.40249671 0.29402833
O 15.42311349 1.64626828 5.13107074 -0.94640910 -0.29393978 -0.54677672
O 2.95033412 4.59212299 5.09494075 0.18027357 -0.13334204 0.85895397
O 15.46525460 4.72752638 5.14147908 -0.28040078 -1.31852835 -0.30708431
O 1.55610280 1.50071056 10.82797856 -0.58025858 0.09126342 -0.23951743
O 14.00899856 1.64224957 10.78045348 0.00540568 0.49490808 0.35265574
O 1.56567247 4.58053393 10.77595019 -0.30659339 -0.45836630 0.34872218
O 14.02865788 4.57594439 10.70506355 -1.32846837 0.58215853 1.20599131
O 1.32532099 6.21568169 3.14158009 1.44527679 0.11979802 -0.02137786
O 13.64993895 0.02711566 3.13780518 -0.35301052 -0.54973519 -0.43229038
O 1.33201714 3.05454681 3.27061675 1.09689723 -0.19352237 0.43584958
O 13.83647154 3.10373859 3.28307573 0.28146934 -0.25906533 -1.57012985
O -0.01853343 0.02144929 8.93954449 0.30246474 0.46459083 0.64652786
O 12.29262537 -0.04547293 8.86348891 0.47322353 -0.89171487 -0.53451462
O 0.08758548 3.04019788 8.80357058 -1.63356345 1.32398339 -0.26622452
O 12.42598992 3.12439016 8.93321003 0.53107466 -0.44825318 0.88490543
O 9.58740853 6.08685485 2.48991709 -0.45541613 -0.10760668 0.18702601
O 22.07892306 6.17824375 2.45713451 0.07418050 0.17937746 -0.63573434
O 9.68450804 3.02157552 2.44781275 -0.29173966 0.53669458 -1.11615447
O 22.14299647 2.96756606 2.51267871 -0.54981086 -1.64087779 -0.87797028
O 8.35124871 -0.04196500 8.18040796 1.23951644 0.21242725 1.46170676
O 20.66537775 6.15620223 8.22194974 -0.11223162 0.36067049 0.53702580
O 8.25670732 3.05968578 8.18187505 -0.21355395 0.42734963 1.58576200
O 20.69926438 3.08778199 8.11975460 0.44991385 0.01462647 -0.49926150
O 7.59014938 1.44906344 3.18085685 -0.87799432 1.07169011 -0.22755116
O 20.02541644 1.48867521 3.21843206 -0.71978588 0.27789715 1.14822907
O 7.55749181 4.68797928 3.22953518 1.86292718 -0.08668701 0.09933247
O 20.07200723 4.71668438 3.20215965 0.21568691 0.56539233 -0.91284781
O 6.19208254 1.42629456 8.94011000 1.57479609 0.05117170 0.25149828
O 18.69848364 1.63629103 8.90997367 -0.15132534 -0.05044321 0.50142505
O 6.29632462 4.58120375 8.92851223 -0.76669112 -1.14081459 1.01982623
O 18.79476089 4.59654052 8.82430129 1.14056608 -0.43763721 -0.64086263
O 3.40623857 1.55612090 2.47139425 -0.27155111 -0.24274250 -0.39035058
O 15.80052477 1.52043312 2.52212041 -1.11191743 0.44396258 -0.33288415
O 3.36493440 4.51831803 2.49518113 0.45263706 -0.20887510 -0.04980935
O 15.97864350 4.65450527 2.39245729 -0.57595170 1.55361600 1.28178974
O 2.12704538 1.55312981 8.21375277 -0.66338174 0.39417228 -0.30038478
O 14.51889175 1.48635588 8.12206146 -0.31050401 0.14273473 -0.90077797
O 2.07722733 4.49038064 8.11684808 0.24115101 1.34754795 -0.27184700
O 14.42528630 4.66171663 8.09580667 1.59402640 -0.13821318 0.75558070
O 12.03135869 1.54337939 1.48420264 0.20081862 -1.56832531 0.97724221
O 24.49419089 1.61875657 1.43672107 0.52430596 0.32110441 -1.39479042
O 12.13200561 4.68893820 1.37723099 -0.66759796 -1.13971989 -0.07912085
O 24.57098405 4.69889135 1.37517328 0.12339753 1.56801083 0.51210574
O 10.73184070 1.55708114 7.08835185 -0.42887612 -1.17798443 1.11680513
O 23.04471065 1.48343479 7.12196167 -0.20259927 -0.01595816 0.89552981
O 10.67742135 4.61123636 7.19727467 1.90621306 -0.44972533 -1.17911970
O 23.02661204 4.62758990 7.15558827 0.76209316 -1.07866307 -1.52886035
O -1.03548875 1.44593815 4.29520565 -1.60901098 1.42412308 0.14965180
O 11.47500223 1.59153957 4.25948739 -1.16685730 0.43926292 -0.02101656
O -1.00078831 4.56752782 4.22531380 -0.72056705 -0.29645530 -0.06964888
O 11.44815212 4.51703655 4.22197525 -1.33485114 0.09854585 -0.68768875
O -2.27886042 1.52531950 9.92726406 0.80804249 0.92059777 -0.85271991
O 10.07632982 1.58609215 10.05635292 -1.58832765 -0.70733346 0.14739901
O -2.30676929 4.52174143 9.99548671 -0.18882794 0.07376724 -0.54313859
O 10.13446068 4.63813808 9.87864050 -0.41511521 -0.57648199 -0.37721260
O 5.83746588 6.12647886 1.45262460 -0.35469030 -0.37593928 1.20046634
O 18.27144656 0.03622450 1.52256189 -0.48388913 -0.38833982 0.15925036
O 5.80955526 3.04524414 1.43531818 0.55757113 0.11845741 1.28195775
O 18.22477691 3.10162703 1.50271138 -0.40148034 0.04956431 0.47868399
O 4.43227909 6.00365260 7.12569826 -0.18036498 0.25344918 0.64941035
O 16.79292858 0.02987391 7.18833138 -0.97548149 -0.81333730 -1.53988805
O 4.36006898 3.02514214 7.18916786 -1.49697741 0.75816177 0.39603046
O 16.83365880 2.95541585 7.00634817 1.71521505 -0.54586694 -0.39627992
O 5.24751895 6.16298382 4.18502091 2.27088914 -0.44767415 0.37402125
O 17.69115445 0.02283690 4.32888636 -0.81215484 0.74970299 -0.61168385
O 5.23630257 3.06711323 4.25447211 -0.11220749 -1.58962132 -0.87682707
O 17.65865449 2.99133336 4.17228341 1.19291423 -0.12599584 -0.23704397
O 3.83221016 6.12082319 9.90342577 1.44201238 -1.04139888 -0.08716914
O 16.13662845 0.16854271 9.92019109 -0.12089990 0.03832298 -0.82830024
O 3.84430593 3.22615011 9.83502895 0.69974738 -0.19268355 0.38511482
O 16.27940158 3.04747069 9.91415378 0.65746291 0.37219444 0.03069176
159
Lattice="24.939914 0.000000 0.000000 0.000000 6.174782 0.000000 -2.782092 0.000000 11.432273" Properties=species:S:1:pos:R:3:force:R:3 Energy=-622.414353 Virial="-56.030627 -1.608198 -6.318252 -1.608198 -47.555209 -7.674926 -6.318252 -7.674926 -44.236125" Ga_vac_type=Ga_tetra Ga_vac_tier=low Ga_coord=4 defect_vacancy pbc="T T T"
Ga -0.01009651 0.03397745 4.51702108 0.64026192 0.58707593 0.72810729
Ga 12.51837421 6.23559101 4.54427709 -0.14164131 -1.61586773 0.13237601
Ga 12.48389168 3.22063934 4.52070978 0.41510658 -0.86751399 -0.15528431
Ga -1.38566399 6.04051899 10.24869527 0.13511265 -0.19760233 -0.00527054
Ga 11.07047251 6.11470202 10.22813208 -1.15342599 -0.63042724 0.81418403
Ga -1.39198465 3.13298824 10.32280447 -0.51055993 0.91872643 -0.57728992
Ga 11.22468471 3.07329300 10.23498880 -0.13853740 -1.07152840 1.18532066
Ga 11.00846536 -0.02169873 1.09532972 1.22611672 -0.16667231 1.21113606
Ga 23.43623123 -0.09526990 1.05896287 0.86420335 -0.25701820 1.43923655
Ga 11.04223023 3.03311307 1.23528627 1.19605962 0.22167757 -1.32661229
Ga 23.57470152 3.11905946 1.14658987 -0.46311661 -0.26037058 -0.25413109
Ga 9.75410835 6.11469411 6.77640484 0.71010499 -0.52037049 0.17862709
Ga 22.19494821 0.06559468 6.92558360 0.13544630 -1.77843502 0.42555611
Ga 9.70992422 3.14012948 6.82624647 0.76360183 -1.19342709 -0.13694051
Ga 22.19923005 3.07669226 6.84361826 -0.14918526 -0.44809962 0.17463294
Ga 6.26684738 1.60729766 4.51078919 0.41005004 0.36029860 -0.36631450
Ga 18.69603335 1.53548569 4.57091549 0.49510893 -0.57739517 -0.20177135
Ga 6.30514452 4.58608097 4.59053940 0.88315996 -1.00085297 0.24391518
Ga 18.67685519 4.55609730 4.55688245 -0.63302777 -0.52641254 0.40998832
Ga 4.92083571 1.60632421 10.23714371 -1.48752410 -0.05305255 -0.54540598
Ga 17.27013931 1.57285328 10.34833368 0.00462366 -1.00690590 -0.55585650
Ga 4.77705780 4.60148686 10.33846515 -0.24266852 0.55964323 0.31988023
Ga 17.27269200 4.67064915 10.13128686 -0.38124846 -0.49931159 -0.18729546
Ga 4.87263774 1.57324471 1.33036491 -0.74284860 -0.60806258 1.95516924
Ga 17.22872981 1.55968269 1.24153460 0.02281339 -0.69830780 -0.87174124
Ga 4.77214851 4.67217094 1.15218868 0.91515068 1.65174007 1.02356450
Ga 17.28397085 4.62113287 1.11383032 0.37709300 1.88402093 0.14031805
Ga 3.49606755 1.53202347 6.88158230 0.50641170 -0.56276827 0.30686813
Ga 15.90700155 1.55798375 6.80142914 -0.72431414 -0.24934004 1.53642972
Ga 3.49102831 4.66207305 6.86065581 -0.77149227 0.78527864 -0.18693602
Ga 15.96101445 4.70892090 6.86915990 -0.25069719 0.99669581 -0.30428803
Ga 1.53250648 1.52074093 1.80963525 0.33902733 0.05288259 -0.70961932
Ga 13.96925682 1.53712716 1.81322663 0.38952043 -0.04145246 -0.84967908
Ga 1.52267029 4.55390367 1.97844668 0.64752103 -0.68985661 0.15481994
Ga 14.05805402 4.68929585 1.78820950 0.43351598 1.01643776 -1.09440800
Ga 0.06055776 1.53102876 7.56123501 -0.79074181 1.65149320 0.51901062
Ga 12.69520144 1.57262577 7.41976684 -0.28401580 -0.16336223 0.21227397
Ga 0.14221833 4.56008350 7.46066337 0.79960515 -0.75345880 -0.87374194
Ga 12.65166617 4.66423233 7.54711026 0.26346054 -0.12072256 -0.03964203
Ga 9.44834253 1.52363270 3.99501989 -0.06150714 0.53167149 1.16327377
Ga 22.12498556 1.47026149 3.97154221 0.42519203 2.01998755 -0.33591278
Ga 9.51412543 4.56220533 3.88539044 0.02721578 0.36708390 -0.76777012
Ga 22.05923782 4.61820441 3.88780477 0.07812956 0.39163839 0.18260362
Ga 8.17162250 1.52303716 9.63651223 0.28520963 0.24664872 -0.94330574
Ga 20.67555347 1.56120456 9.57567509 -0.17928470 -1.78245153 0.53487463
Ga 8.17526084 4.65417704 9.64370933 -0.93206152 -1.23651780 0.90477222
Ga 20.55226109 4.77737822 9.63921775 -1.03952218 0.19626511 -0.49218492
Ga 7.69116917 -0.00769390 1.79383474 -0.42014966 0.53574603 -0.05458211
Ga 20.21001916 0.09137850 1.85581707 0.16959692 -0.25793177 0.07680067
Ga 7.90280097 3.14109107 1.89590476 -1.22441215 1.10001891 1.48751627
Ga 20.15909270 3.07152644 1.69465962 -0.19217113 -0.08579803 -0.51512569
Ga 6.38397817 0.01435469 7.51226444 -0.57737537 -0.15838934 1.28621927
Ga 18.86237639 0.06678923 7.56775468 -1.70608676 -1.21473105 -0.40757581
Ga 6.32585965 3.04744201 7.45410929 -0.36070109 -0.39603183 0.67805950
Ga 18.75445046 3.02659978 7.51510297 0.03311243 0.66818458 0.45467962
Ga 3.39193339 -0.07323229 3.88277189 1.11731816 0.56275690 -2.23713694
Ga 15.69231193 6.09180902 3.95992172 -0.41910683 -0.33744951 0.99936361
Ga 3.29429247 3.05187927 3.91820163 -0.61941683 1.04281367 0.18474402
Ga 15.69246816 2.98515866 3.93594562 0.65102603 -1.18271099 -0.02132824
Ga 1.85607849 -0.04395569 9.64815295 -0.22650790 -0.39832239 0.18587464
Ga 14.37722986 6.12134595 9.67780554 1.65879711 0.88577918 -1.42010687
Ga 1.95324198 3.06409813 9.64325436 -0.27810747 -0.11818194 0.99900476
Ga 14.37346754 2.96266671 9.63511438 0.17295284 -0.60609253 -1.64656410
O 1.89011875 6.26192103 0.64266282 0.02178818 -0.29147470 -0.05300676
O 14.35307539 6.16438312 0.52525049 0.57275077 0.16712511 0.43545555
O 1.89168862 3.05640579 0.66068524 -0.72287405 -0.41905318 0.60398932
O 14.35146508 3.12197629 0.59195148 -2.37921945 1.46697983 0.86550327
O 0.41274404 0.07372732 6.31840321 0.41477343 1.48771193 0.35057804
O 12.93170998 6.17655484 6.41060771 -0.78306734 1.40362180 0.20865584
O 0.45378519 3.02760290 6.46015225 -1.32511260 -0.77684659 0.02572275
O 12.93671621 3.08283547 6.35386572 0.75958385 0.48453882 0.83061125
O 9.18409827 0.03945758 5.00145961 -1.62779300 -0.59178934 -0.76877928
O 21.68200147 -0.01082170 5.05406050 -0.18539268 0.99406805 -2.05299570
O 9.15738572 3.06393268 5.09214322 0.40096579 0.42450225 -1.82161046
O 21.67131586 3.08039989 5.11448369 -0.62564763 0.13391950 0.05010890
O 7.92942022 6.16981208 10.85666578 -0.05920538 0.39166014 0.52122106
O 20.20394965 6.22459786 10.86730079 -0.45404220 -0.77471814 -1.48463261
O 7.76032083 3.11706924 10.73230541 0.63265130 0.32025236 0.19285375
O 20.36829728 3.04859028 10.87365659 0.93888393 0.06577699 -0.18505308
O 8.12821305 1.57311745 0.65269248 0.28790910 0.17066188 1.22191005
O 20.62521225 1.45405141 0.58053470 -0.30857018 -1.49589777 -0.44384946
O 8.02407896 4.55636751 0.63641876 -0.03969302 -0.99711414 -0.50716867
O 20.60473033 4.54620517 0.63665137 1.02592866 0.54041365 -2.25348215
O 6.73720716 1.54265178 6.28249108 0.82300735 -0.19686729 -0.76090861
O 19.13568749 1.52879396 6.29924448 0.69674614 0.18631881 -0.22730557
O 6.64021353 4.69163686 6.40407572 -0.62443572 0.69252622 1.15682176
O 19.18351759 4.56953703 6.34326560 -0.49378583 -0.40735157 -0.67933074
O 3.09039085 1.54567562 5.03174758 0.56603667 0.99861545 0.29376970
O 15.54098856 1.60450447 5.04977643 0.34993377 -0.02832545 0.18074905
O 2.95398199 4.69752940 5.04983156 0.16781148 0.12291793 0.32647489
O 15.36110619 4.58380282 5.03523908 0.40010694 0.27092109 0.12546092
O 1.58789041 1.61518271 10.74688307 0.07750821 0.69443204 0.62667481
O 14.09987875 1.59766395 10.81049582 -0.89709348 0.20237918 0.56219022
O 1.51682854 4.57367110 10.74992693 0.84220549 -0.86341661 0.41764062
O 13.99328838 4.67634374 10.82991978 0.46518811 -0.26239645 -0.57948951
O 1.33166884 6.17888065 3.28822461 -0.52216416 -1.55356254 1.02688302
O 13.83178284 0.05244434 3.10169911 -1.31205004 -0.07555323 1.11338989
O 1.44296151 3.13486338 3.23897665 1.15119778 0.05496525 -1.27427390
O 13.90408373 3.08702401 3.29747593 -1.27281933 0.68956721 -0.23207284
O -0.01055274 0.01311273 8.93792678 -0.13221336 -1.73156270 -0.59244500
O 12.49165440 -0.02763246 8.97943328 0.07113556 -1.21220916 -0.75317985
O 0.02563320 3.05546206 8.79854670 0.99943293 -0.39424693 1.31442402
O 12.37848841 3.06939851 9.02028964 -0.48779822 -1.76179575 0.33520909
O 9.72506724 6.09138061 2.49277261 -0.81887076 -1.38947760 -0.65685657
O 22.15867537 6.22242513 2.53859188 0.08117507 0.42060052 -1.09495328
O 9.67527031 3.18153965 2.51449332 -0.80226674 0.08480804 1.08083670
O 22.05939955 3.10114321 2.65202202 0.05388865 0.33912306 -0.36104058
O 8.28708578 -0.06589761 8.25973674 0.22564375 0.19889559 -0.49733196
O 20.80532169 6.07795014 8.24192431 -1.81672653 0.48334133 1.64726432
O 8.32494567 3.16199134 8.30007927 1.36658610 0.33618000 -1.57755059
O 20.78309803 3.06473420 8.21934336 -0.97420895 -0.43632915 0.25860777
O 7.59329435 1.58208953 3.21738710 0.90678716 -0.52281085 0.71722133
O 19.99104757 1.52527903 3.16812019 0.37833020 1.18959559 -2.05002753
O 7.54052040 4.69075478 3.15472571 -1.08515313 -0.12370456 0.07232263
O 20.08487568 4.45394775 3.17311871 0.35119236 -1.16815815 -0.83523508
O 6.26585245 1.58964383 8.95503937 -0.80684589 -0.60746874 0.20500205
O 18.76113737 1.55760377 8.87337128 0.50176801 0.02384280 -0.47364965
O 6.19554391 4.68144650 8.95582009 0.17945475 -0.27937450 -0.67970450
O 18.66449000 4.59327063 9.01998364 -0.37275103 0.33849134 -0.08327146
O 3.28491066 1.48181792 2.50099169 1.15535450 -0.23642551 -0.91486265
O 15.87592095 1.60457363 2.55441994 -0.58367549 0.85417877 0.95738512
O 3.49084981 4.62720008 2.41106965 0.08988640 1.20826406 -0.04200892
O 15.96018151 4.65375888 2.52975217 0.19587480 0.32152369 -0.49863698
O 2.11599136 1.54719119 8.19914089 1.30681418 -0.23438459 -0.44386495
O 14.50754892 1.62079707 8.22540359 0.94003279 -1.00214371 0.15588874
O 2.11358416 4.57731811 8.20759024 -0.77998262 -0.71794048 1.02887417
O 14.68744608 4.66084864 8.27509349 0.01518825 -0.37998038 0.22502933
O 12.06827974 1.62147386 1.43733039 0.21654056 1.31306242 -0.22578542
O 24.55901178 1.55657469 1.41663574 -0.47750499 1.18834555 -0.08568092
O 12.12667670 4.58388774 1.56781413 -0.64003471 1.30991011 0.19875243
O 24.59945302 4.64759280 1.41146632 0.95653845 0.93334234 -0.10389682
O 10.62157364 1.58426864 7.08669237 -0.61689119 -0.51077942 -0.11056790
O 23.06940802 1.45755912 7.26640306 -0.58758154 -1.13797857 0.85804980
O 10.78254129 4.67580822 7.16040644 -0.96817407 0.46464326 0.34689094
O 23.27294609 4.59746311 7.16851412 0.72278996 0.02326563 -0.09530678
O -0.95872572 1.56935846 4.27229163 1.05534478 0.39696259 -0.02850905
O 11.53908187 1.55125061 4.19479696 0.15438913 0.30951191 -0.30259077
O -1.04978132 4.70001595 4.24813102 0.24968076 0.50024416 -0.27003989
O 11.52961938 4.67255651 4.25250426 1.63782242 0.04539456 -0.69308329
O -2.28458677 1.60821752 9.95043318 -0.31053321 2.03258008 -0.13514855
O 10.09610716 1.62326691 9.97824989 1.34824280 1.00176832 -0.22437627
O -2.36901723 4.60174558 9.96567376 -0.51439623 0.52360179 -0.16941357
O 10.07723404 4.70070702 9.98536506 0.00136499 0.32282095 0.02043486
O 5.85425789 6.15289322 1.44953893 0.27840959 -0.40927286 0.05356071
O 18.36631699 -0.06302021 1.46413021 -0.40630390 0.15774347 0.02436682
O 5.79700129 3.18020993 1.52256633 0.60904481 0.26695795 0.38933699
O 18.24360826 3.20302626 1.40331994 0.07186351 -1.39320719 -1.63009940
O 4.52218417 6.20908622 7.17564540 -0.87910636 0.18634881 0.96051537
O 16.88308291 -0.07779368 7.21758851 0.61388204 0.51651958 0.90370018
O 4.44053721 3.06545115 7.16515128 -0.56240378 -2.10338250 0.21270779
O 16.84167389 3.06099337 7.16048091 -0.00858288 0.96809267 -1.36337629
O 5.20444494 6.24526595 4.17599520 0.54757817 -0.19004558 0.71945941
O 17.79620431 0.06039404 4.22047986 1.42020409 -0.65593768 0.71262109
O 5.25146299 3.09713377 4.28928719 -0.01079938 -0.09545014 1.47069651
O 17.79671183 3.09495513 4.24557263 -0.19170453 1.53431929 0.16538578
O 3.88357518 6.19771471 10.07820488 -0.05414259 -0.33767166 -1.20586744
O 16.27043115 -0.07336322 9.99642387 0.48415232 0.58854400 0.27390572
O 3.87390350 3.07209245 9.96625167 -1.14478098 -0.44026066 -0.01099467
O 16.37416536 3.08777141 9.91912418 -0.20514202 0.95830485 0.92282182
159
Lattice="24.982551 0.000000 0.000000 0.000000 6.185339 0.000000 -2.786849 0.000000 11.451818" Properties=species:S:1:pos:R:3:force:R:3 Energy=-621.286238 Virial="-51.697124 -0.188325 -1.880183 -0.188325 -45.809950 -4.989251 -1.880183 -4.989251 -43.281173" Ga_vac_type=Ga_tetra Ga_vac_tier=low Ga_coord=4 defect_vacancy pbc="T T T"
Ga -0.00594151 0.04696016 4.44626266 0.07654327 -1.64136774 -0.67301075
Ga 12.41677056 6.13792550 4.56151897 0.79948826 0.66406970 0.42590957
Ga 0.13868511 3.14193066 4.57094304 1.59949122 0.99592240 -0.73732306
Ga 12.42196757 3.07258388 4.62215567 0.54201749 1.09958889 1.67341423
Ga -1.36086337 6.13887601 10.29920997 -0.03311987 -0.23167632 -0.28864222
Ga 11.07710245 6.17171666 10.34610706 -0.39276555 0.29840679 -0.13973779
Ga -1.47622958 3.06413411 10.23778904 -0.40743943 1.47496632 -0.15183743
Ga 11.19867225 3.05340880 10.36495025 -1.02028200 -1.00913867 -0.27359816
Ga 11.07763607 0.19453540 1.19761311 -0.04495428 1.34425566 1.02950788
Ga 11.11098844 2.91260519 1.24183165 0.11348385 -1.25622749 0.34033351
Ga 23.59503837 3.02597133 1.19521927 -0.28952862 -0.21378916 -0.35555277
Ga 9.69831925 6.19943207 6.91067754 -0.50203839 -0.72866459 0.45471741
Ga 22.11489497 0.00163664 6.82619924 -0.26039952 1.39495751 0.75446277
Ga 9.76922726 3.10415353 6.81851114 1.28869509 1.89845709 -0.42222245
Ga 22.21476953 2.99806506 6.89471011 -0.03545465 0.62387128 0.66698751
Ga 6.30106207 1.54362835 4.66045242 0.35353087 1.10874819 0.77330012
Ga 18.73259424 1.42999658 4.53835061 0.04771063 1.43867189 0.43358021
Ga 6.19085611 4.68947004 4.58019722 0.87807197 0.46722760 -0.55090920
Ga 18.77348398 4.61281608 4.50285666 -0.17658639 -0.83571364 -1.21765498
Ga 4.80411791 1.60067616 10.26341410 -1.42002240 0.77320555 0.13854507
Ga 17.41618186 1.59220213 10.31047764 0.37279253 -0.59437716 0.96631343
Ga 4.86735453 4.67693123 10.32325126 0.07278966 -0.62692831 -0.82112232
Ga 17.31396347 4.65888738 10.31635696 -0.11598903 1.31157082 0.53459064
Ga 4.89905504 1.48977472 1.13715485 -0.63948063 1.22936979 -0.09957381
Ga 17.31958151 1.45437537 1.14499996 0.39574943 -0.34598167 -0.03728008
Ga 4.90038994 4.62033873 1.31791971 -0.56297426 0.59371707 0.19625423
Ga 17.30853456 4.68885049 1.23219518 0.14757592 -0.53615599 0.70366630
Ga 3.41189528 1.66075259 6.86431345 0.23751012 -1.34018773 -0.60400872
Ga 15.98935768 1.56060964 6.90792112 -0.47634071 0.76207468 0.17871945
Ga 3.49353750 4.73108255 6.93052157 1.73951231 -2.15728576 -1.23937317
Ga 16.05348496 4.54978378 6.89947435 0.91910612 -0.62493411 0.00735410
Ga 1.57018042 1.61775359 1.75662120 -0.21178310 0.55886583 -0.18232298
Ga 13.88769828 1.55156535 1.82317221 -0.39041490 -0.65940726 0.38388222
Ga 1.63197248 4.61684870 1.98908170 -0.26691693 0.60355522 -0.42486819
Ga 14.04732586 4.67256860 1.77372958 -1.53053312 -0.35645151 0.75020233
Ga 0.23451827 1.61913575 7.51429198 -1.35410215 -1.53036559 -0.68145322
Ga 12.64116052 1.61863117 7.44574635 0.56449685 -0.86626630 0.51461903
Ga 0.10620315 4.54633497 7.53256174 0.87391378 2.14522381 0.03219857
Ga 12.52628814 4.51181293 7.41111753 -0.58285685 -1.28691253 -0.84940603
Ga 9.45525722 1.36577666 3.92151533 0.91082508 -0.58158490 0.68829113
Ga 22.13833599 1.61051969 3.99233051 -0.20367376 -0.34412561 0.59842995
Ga 9.64694999 4.66369039 3.83941806 -0.55263194 -1.06871101 0.79064112
Ga 21.99644688 4.75981712 3.96235089 -0.15820787 -0.98971643 -0.71240876
Ga 8.14362617 1.54745271 9.67344551 0.65990972 -0.28334099 -0.20585455
Ga 20.51500495 1.61320390 9.66173640 0.20662619 -0.35846550 0.79290992
Ga 8.20687568 4.76490805 9.68524177 0.80048716 -0.18207306 -0.70777103
Ga 20.82258354 4.71604555 9.74428346 0.72100159 0.26838829 0.64797392
Ga 7.75775993 -0.03680626 1.79392564 1.00792079 0.48262864 0.99408420
Ga 20.19012687 0.04775022 1.76365092 -0.46548016 -0.30738269 1.01636570
Ga 7.71171423 3.21150892 1.92085915 -0.43063292 -1.26959459 1.86589685
Ga 20.19455571 3.22003476 1.66319139 -1.28652691 -1.26573841 0.92038880
Ga 6.50219587 -0.14453009 7.51029325 -0.29278943 0.63929384 -0.36471457
Ga 18.82836286 -0.02365426 7.43203500 -1.46713905 0.11563881 0.65114331
Ga 6.37811235 3.13524236 7.63539904 -0.36068844 0.34436957 1.00139719
Ga 18.93861834 3.12603056 7.53109446 -0.75346812 0.33492951 -0.37853404
Ga 3.21479611 -0.09871876 3.90092242 0.03096492 -1.45378295 -0.34988828
Ga 15.74220034 6.11119498 3.93580502 -0.32499067 -0.17010393 -0.20280003
Ga 3.13749222 3.07590771 3.94887835 0.85620786 -0.71207716 0.46443143
Ga 15.79789191 2.99714135 3.92058064 0.07312361 -0.85114282 1.06787832
Ga 1.88337447 -0.01382574 9.65630673 -0.68444581 -0.88772410 0.02247971
Ga 14.36666663 6.18595242 9.56771422 1.19703292 -0.03738804 -0.97185002
Ga 2.08652471 3.03891425 9.69515642 -0.91524885 0.71396195 -0.17461960
Ga 14.30353634 3.19897859 9.51952327 -0.03045697 -0.85198329 1.10280600
O 1.84156958 6.17203627 0.71617933 -1.50000509 -0.02408904 0.89368945
O 14.47448104 6.05487197 0.64563242 0.76576248 0.28329558 -2.10074222
O 1.92029657 2.95277435 0.62211861 0.82623131 -0.37486063 -0.99764824
O 14.42829448 3.02707359 0.60366061 0.05717040 0.44519748 -0.22788506
O 0.47776160 0.01642288 6.33737032 0.02268917 1.22083506 -0.07976404
O 12.97663711 6.27136789 6.34572604 -1.23429097 -0.03688882 0.97229312
O 0.66532867 3.11884868 6.39449764 -0.40037543 -0.04858968 1.42256256
O 13.01632177 3.04081034 6.33609142 -0.64699413 -1.18684387 0.40684115
O 9.35416953 0.03640611 5.09235251 2.18363229 -1.30501547 0.44099304
O 21.63554950 -0.00636365 5.15573459 0.03383128 -0.93877421 0.48602588
O 9.19797653 3.12973253 5.07341696 0.35274452 1.13957223 -0.56100678
O 21.75802636 3.06531142 5.07775070 2.29313093 1.63647863 -0.48855797
O 7.67548791 6.06229076 10.83935416 0.77220141 0.55085478 -0.87988478
O 20.30352557 6.21720604 10.79445771 -0.12330235 1.70476798 -0.64899285
O 7.88472694 2.98289450 10.92537175 0.35593125 0.01264373 -0.78474512
O 20.34531966 2.95679424 10.82231154 0.25440007 -1.50757746 0.42152701
O 8.05970544 1.54801063 0.58160607 -0.05679976 -0.88798281 0.90402934
O 20.60455590 1.69746327 0.79407977 0.17120082 -0.07720231 0.23054808
O 8.06928438 4.63531461 0.64862053 -0.34314315 0.14605337 -0.80361127
O 20.61720057 4.73573002 0.68146491 -0.66849237 0.17184038 0.53233233
O 6.73685574 1.61269544 6.30758837 0.39815983 0.57315133 0.42495285
O 19.26406051 1.45167823 6.45080343 -0.22955082 0.64376742 -1.49270277
O 6.67633114 4.49614994 6.35984404 0.79343372 0.35053172 -1.28002620
O 19.17567803 4.55108599 6.34941301 -0.84790027 -0.18508146 -0.92815056
O 2.95410949 1.55093331 5.13268920 1.26568932 -0.29779658 -1.78630491
O 15.40694987 1.57592040 5.07257112 -1.01933042 0.09251952 0.28362232
O 2.91369269 4.76951221 5.14990937 -0.52435175 0.33126160 0.02590502
O 15.47687368 4.63176343 5.06119788 -0.04128131 -1.09931491 0.14277442
O 1.51056888 1.55364966 10.87212976 0.44999013 1.20102882 -0.12988694
O 14.22739573 1.54368763 10.83700489 -1.00842208 -0.23750054 -0.45103285
O 1.62933672 4.68051741 10.85206101 -1.66030709 -0.21798242 -0.03590455
O 14.02124306 4.67923773 10.88687263 0.24398559 0.60099223 -1.06686321
O 1.27476780 6.26168490 3.24156664 0.72940549 -1.08610236 0.72151494
O 13.85741082 -0.01420214 3.06768628 -0.37322408 0.28495767 -1.04865094
O 1.27866124 3.01702259 3.20144552 0.66260400 1.78108932 -0.23864254
O 13.82010764 3.03477933 3.34157103 0.48645465 -0.06144143 0.32144749
O -0.12566310 0.04370909 8.90216234 0.20968655 -0.14348153 0.00599753
O 12.45901400 -0.11934698 8.98769363 -0.13526572 -1.48183804 -1.30260710
O -0.06542841 3.13077953 9.13444151 0.01596172 -0.20191841 0.45702753
O 12.39971569 3.03051479 8.85571091 0.24804340 1.61481721 -0.51569255
O 9.73384657 6.09988322 2.51563118 0.03717957 -0.48409492 0.93932772
O 22.17308597 6.25977471 2.65708266 -2.33245661 0.18348908 0.89499671
O 9.74639041 2.98268617 2.52364202 -0.97233487 -1.11493098 -0.13522751
O 22.31011793 3.07903596 2.57189696 -0.06880332 0.32617696 0.51324055
O 8.36742250 0.16520356 8.09281220 -1.19822235 -0.08250696 -0.06158549
O 20.87874882 6.29046579 8.24260852 1.26444727 -1.00044893 -0.63431147
O 8.23741717 3.23150404 8.18713749 0.97997835 -1.99972999 -0.03878098
O 20.85512611 3.02998942 8.20347737 -1.26410018 -0.02075239 -0.05011245
O 7.62467428 1.64819195 3.25706609 0.10044580 1.28525950 0.46851531
O 20.14981964 1.57590862 3.21096878 -0.12175338 1.44294299 1.00814001
O 7.59199004 4.64069451 3.10878318 -0.03756535 0.81491858 -0.78228709
O 20.13605889 4.56083122 3.24069474 -0.76565395 -1.25822933 -0.90228455
O 6.32223969 1.59258502 8.78672104 0.46760189 -0.53272483 0.73468161
O 18.68543624 1.53611885 8.98735090 -0.11358613 0.75437314 -0.89530218
O 6.31108813 4.66643670 9.04614667 1.86098909 0.85902936 -0.78471144
O 18.62179831 4.58881506 9.05090434 0.07116290 0.79036946 0.01820507
O 3.33560431 1.69831357 2.41405180 0.51573738 -0.18004568 0.31240772
O 16.02114448 1.41730005 2.55304282 -0.08345043 -1.16658973 -1.11636734
O 3.52620492 4.63057200 2.42645244 0.78064953 -0.19888365 0.56735140
O 15.93934374 4.59914401 2.55809524 0.12904881 0.96922818 0.10316888
O 2.01893748 1.50784693 8.26157252 0.60595799 -0.17078414 -0.10548475
O 14.45872460 1.64096579 8.29933983 0.05400149 0.51606641 1.43643364
O 2.06038583 4.58966880 8.29021270 -0.75740715 0.77237086 -0.40581874
O 14.64207693 4.61196734 8.10142004 -0.98667307 -0.83693070 -0.84829596
O 12.07927113 1.72920369 1.62552620 0.86705770 0.46167058 -0.62203617
O 24.57799741 1.62344129 1.48272472 -0.28275481 -0.36306992 -0.50528830
O 12.05695861 4.65056116 1.46199777 -1.29096247 -0.40443978 -1.55730727
O 24.67733095 4.61270135 1.51662279 -0.99063762 0.53236669 -0.32653649
O 10.67271744 1.48680564 7.16565936 -0.72982448 0.50210401 1.23950635
O 23.27058899 1.58438443 7.20404609 -0.00315429 1.32837869 -0.30568043
O 10.54099747 4.58412797 7.22361981 -0.82533146 -0.22322314 0.99262901
O 23.17672211 4.60339220 7.20612697 0.51607011 -0.59481381 1.37274145
O -1.03708449 1.68365525 4.37349316 -1.06006518 0.47597143 -1.31138581
O 11.63945408 1.44493021 4.23110380 -0.02814325 0.49462245 -0.47479774
O -0.96728200 4.74960612 4.24609209 -0.27434423 -0.73238347 -1.50097901
O 11.48477715 4.63790986 4.25390679 0.38065128 -0.77719669 -0.87697017
O -2.24771651 1.61755335 10.03132310 1.02185343 -1.49704143 0.85250727
O 10.15364161 1.56276754 9.98674908 1.08456372 1.04750718 0.49401411
O -2.37923775 4.49975106 9.97013997 0.13275384 -1.60150098 1.13422711
O 10.15362501 4.72642591 10.03353865 -0.39647846 0.17818396 -0.20194897
O 5.74586649 6.28082390 1.58663670 0.95030952 1.14800685 -0.44020764
O 18.34347767 -0.02312998 1.45646490 -0.60350177 0.15459350 -0.63839726
O 5.70348987 3.20401276 1.46830855 -0.03299558 -0.45427174 0.38122495
O 18.40120701 3.11856467 1.56877574 0.37054821 -0.68272828 0.15326627
O 4.51339978 6.23950619 7.05553371 0.03262880 -0.54516727 0.00222335
O 16.85476535 -0.09963434 7.06661067 -0.12274967 1.57776160 -0.27979458
O 4.38504418 3.03359092 7.16582209 -0.40880235 0.52493275 0.18095029
O 17.02064053 3.14837633 7.11213663 0.81570050 -0.40339217 -0.56521846
O 5.23998769 6.22413025 4.24396336 -0.73571327 1.57386781 -0.55677953
O 17.88457847 0.02130965 4.12597625 1.79474484 -0.44183926 0.70163950
O 5.34448656 3.20911466 4.24451437 -0.38001096 -1.89064585 0.57360798
O 17.79339462 3.08627833 4.20477270 0.33968130 0.53293364 -0.74740063
O 3.76492285 6.11240249 9.87795775 0.64186686 -0.59534745 -0.24885009
O 16.30066861 -0.07265404 10.04518461 1.14165498 1.13033760 0.48895594
O 3.95208700 3.06244080 9.93945451 -0.68040325 0.60320874 0.42268077
O 16.16808044 3.11801839 9.92633098 -1.03492437 0.65849766 0.92338698
159
Lattice="24.907425 0.000000 0.000000 0.000000 6.166739 0.000000 -2.778468 0.000000 11.417380" Properties=species:S:1:pos:R:3:force:R:3 Energy=-622.611187 Virial="-51.086335 2.833089 -3.123539 2.833089 -46.067314 -3.723121 -3.123539 -3.723121 -42.705562" Ga_vac_type=Ga_tetra Ga_vac_tier=low Ga_coord=4 defect_vacancy pbc="T T T"
Ga 0.00676317 -0.01586302 4.54326219 0.12144029 -1.10482652 0.54883895
Ga 12.52702229 6.17192752 4.58839712 0.20520312 -0.17512235 -1.98207025
Ga 0.00305117 3.05128127 4.47741320 -0.17240347 -0.16873061 -0.56183488
Ga 12.40552088 3.12066808 4.46546467 -0.10001398 0.75603167 0.25123582
Ga -1.31345598 6.06696245 10.21482916 0.27678006 1.31529219 -0.47893385
Ga 11.13915944 6.20482309 10.28959673 -0.44477941 0.53491256 0.15080754
Ga -1.34899342 3.03204286 10.25625506 -1.53052847 0.21113326 1.02269358
Ga 11.20055722 3.14629356 10.27180229 0.80498146 0.31818697 -1.06704306
Ga 11.05376504 -0.04103582 1.14180841 -0.22360129 0.08600661 -1.41661002
Ga 23.40152964 -0.04743819 1.20854039 1.35161041 -0.93296089 0.06387824
Ga 11.08205643 3.00629989 1.20718128 0.70221175 1.14953875 -0.57110528
Ga 23.50481125 3.10668208 1.20997922 1.50072877 -0.09167517 -0.71779108
Ga 9.65620736 6.04567480 6.85041664 -1.45149991 0.31201828 -0.73012621
Ga 22.13500613 0.00046534 6.91820528 -1.22856316 0.83110554 0.35973372
Ga 9.60340360 3.18417158 6.92258378 -0.43121487 0.00866533 -2.09900116
Ga 22.07136453 3.15030337 6.87015618 0.89878788 1.13878305 0.48040529
Ga 6.14130051 1.50568221 4.61051293 1.42958972 0.73950035 0.19092808
Ga 18.67199033 1.59021236 4.48732853 -0.74605279 0.51845066 0.08344657
Ga 18.68119839 4.64130252 4.52969285 -1.54531669 0.24850422 1.04484132
Ga 4.76620386 1.46939656 10.30638067 0.91138934 -0.39851978 0.08837984
Ga 17.34101691 1.56368972 10.28903286 1.21918674 0.18101844 -0.75508138
Ga 4.79911595 4.50334468 10.27154866 -1.34952577 0.81145534 0.77604097
Ga 17.33166094 4.58358879 10.17078381 -0.53659559 0.27883801 0.25360017
Ga 4.85152546 1.58138378 1.17135939 -0.77422111 0.77823001 0.58654512
Ga 17.32773645 1.56496932 1.18357475 -0.51095868 -0.01432379 -0.47024620
Ga 4.83376123 4.63552288 1.18901165 0.54568164 -0.20447941 0.54038264
Ga 17.25652701 4.51301146 1.12643952 1.34306113 0.28286293 1.25182051
Ga 3.45132829 1.59046550 6.82987421 0.24354901 -0.90189624 0.08601831
Ga 15.95064074 1.56017502 6.80478542 0.06806752 0.17840425 -0.94966705
Ga 3.49328833 4.60815722 6.79706671 0.63642584 -0.07988565 -2.21504417
Ga 15.87023084 4.61160648 6.86832433 -0.62398598 0.10272910 1.42420470
Ga 1.61029088 1.52684544 1.79726052 -0.00471315 -0.00046865 0.42993682
Ga 14.01496928 1.57002353 1.73531082 -0.65011615 0.17826750 -1.14364671
Ga 1.56152353 4.60551410 1.80542335 -0.19033054 0.08252409 0.77717257
Ga 13.95016913 4.58063159 1.85564079 -1.04872388 -0.91825437 0.73544654
Ga 0.22138361 1.50839487 7.44674283 -0.22248543 0.54345627 0.84282452
Ga 12.56472576 1.43406396 7.51480622 -1.23240447 0.30207203 0.14889756
Ga 0.11779566 4.56960726 7.50550984 -0.00986997 -0.47081594 0.03126521
Ga 12.61554053 4.72455306 7.61998004 1.16494791 -0.31586320 -0.00050914
Ga 9.51717946 1.53696676 3.86106480 -0.27406827 -1.23187309 -0.21379923
Ga 21.93396621 1.58286233 3.84690461 1.79529380 -0.23029687 1.05667015
Ga 9.56098692 4.64551706 3.92516587 0.06142258 -0.41738507 -0.82716848
Ga 22.00925865 4.60107702 3.86340627 1.00331516 0.60936035 1.23566496
Ga 8.16394662 1.54837159 9.59930962 0.32184818 -0.80783834 -0.52205314
Ga 20.65774952 1.53277858 9.71194411 0.82734549 0.84600485 -0.96296136
Ga 8.03120810 4.66205989 9.59704798 1.32681013 1.61084898 -0.42449885
Ga 20.57013075 4.67116500 9.57520463 -0.49417801 0.39648667 0.21782803
Ga 7.74279890 -0.00772996 1.75611133 -0.35096530 1.73205237 2.05310565
Ga 20.16326324 -0.00485629 1.73946844 -0.27446409 -0.38249862 -0.55467725
Ga 7.72815023 3.11406448 1.76598505 -0.06837660 0.03051311 -0.04286490
Ga 20.21804587 3.07966830 1.78650964 0.76718682 -2.12742269 -0.18856266
Ga 6.40405251 0.00838289 7.43515145 0.43219671 -0.11678534 1.30848423
Ga 18.89042206 -0.00763844 7.53666890 1.27532112 -1.18940672 0.16184601
Ga 6.38026289 3.00804851 7.60593584 0.10735010 1.74516302 -0.18249953
Ga 18.82602803 3.14074467 7.40023988 -1.43638576 -0.17378230 -0.78776787
Ga 3.32064347 0.00789249 3.93391527 -0.90492599 1.35086162 -0.00548006
Ga 15.69755623 6.12544828 3.86795456 0.18593699 0.76495470 0.04220145
Ga 3.24904533 3.08837034 3.94841653 0.72624419 -0.21873978 0.78766483
Ga 15.81448919 3.05134539 3.80799280 0.65939982 0.47947487 0.47521349
Ga 1.95787203 -0.06062803 9.69582768 -0.01653183 1.19389347 1.55490279
Ga 14.35500579 6.17283355 9.52080739 -0.19056485 0.56561205 0.31998831
Ga 1.89552451 3.16971801 9.66621429 -0.45011683 0.46934011 -0.09989777
Ga 14.42789203 3.08218828 9.71643810 0.15680714 -0.57370032 -0.72261534
O 1.83196212 6.17017192 0.53538097 0.79476926 1.13148654 0.21604165
O 14.28704371 6.20274172 0.63172934 -0.13788691 -0.01553211 -0.75447335
O 1.92303471 3.15499821 0.61391429 0.16268535 -0.64891626 0.08587454
O 14.36896732 3.12187860 0.58472218 0.36045807 0.76089505 0.98576037
O 0.47421700 -0.10664017 6.37320818 -1.10635924 -1.46318315 -0.71103108
O 12.83044053 6.20269621 6.27013898 -1.34232963 0.04056669 0.31013221
O 0.53758723 3.05776326 6.37006448 0.71384459 -0.10449981 -0.80515254
O 12.97075269 3.01489160 6.30159681 0.72400561 0.44044578 -1.08544476
O 9.17487319 0.05458319 5.13274069 0.21887724 1.67410119 1.41976755
O 21.66746713 -0.05566063 5.08056911 0.00880453 -0.62646713 1.28099085
O 9.24297376 3.01404828 5.10119927 0.29818780 -1.76067811 0.49168423
O 21.60386020 3.09388437 5.14512421 0.14200026 1.28991743 -0.98520483
O 7.73710053 6.21262787 10.79108106 -1.48978102 0.87701207 1.47197298
O 20.24821151 6.22645954 10.69540853 1.31563182 -1.42701188 -0.97402103
O 7.76897105 3.04134931 10.76703013 -0.40769319 0.22914598 -0.26311862
O 20.33179306 2.99783673 10.74571897 -0.95093768 0.54571734 -2.11895227
O 8.20193587 1.60482751 0.57576185 -1.43791848 -0.35004712 -0.37912670
O 20.49778580 1.55283367 0.61057072 1.03600591 -0.85326757 -0.00196657
O 8.13971846 4.59571655 0.56932255 -0.68253361 -1.49050062 0.92775144
O 20.59064709 4.63282175 0.57688542 -0.39781517 0.51799857 -0.34392968
O 6.67889959 1.52926769 6.34679082 0.97448915 -0.55151978 -1.06651872
O 19.28635252 1.49674814 6.31945556 -0.89627387 0.03001135 0.73223626
O 6.79030368 4.56609442 6.33921577 -0.11237576 -0.36438090 -1.51058191
O 19.24058420 4.67087127 6.36121151 0.13551626 1.02474765 0.52208556
O 2.91240743 1.63747189 5.11254461 1.46259415 -0.37210742 0.48752001
O 15.36186903 1.50182341 5.18541301 -0.13380014 -0.18710367 0.68011977
O 2.86625951 4.62289954 5.08429053 0.13491791 0.20843993 0.28878322
O 15.36131910 4.59642857 5.01348089 -0.30474208 -1.02725911 -0.18663577
O 1.56134295 1.48689158 10.74938410 0.88650881 -1.30281192 0.79489520
O 13.97837221 1.51558108 10.79842959 0.19787544 -0.71518011 0.22224298
O 1.53779666 4.64251487 10.75316568 0.41484093 0.60060560 0.56001131
O 13.94561595 4.66085682 10.83736516 0.49985893 0.24702166 -0.47842626
O 1.32614335 6.21549797 3.27168029 -1.48374367 1.08191149 -0.15400258
O 13.82785293 0.01040900 3.23034816 0.45450958 0.04813741 0.59673258
O 1.41513806 3.12255207 3.19434905 -0.19831716 -0.31384056 1.98286607
O 13.82548121 3.04683644 3.19042856 1.19204657 -0.23196384 -1.28366677
O -0.01759684 -0.00136359 8.91372754 -0.22764828 -2.38631349 -0.04498322
O 12.48389969 0.03133394 8.75717234 0.47695043 0.70524160 -0.40481601
O -0.03762597 3.10624542 8.89827235 -0.82598144 1.23927200 0.42689422
O 12.44565551 3.12673052 8.88301066 -1.21576491 0.38426926 0.93335130
O 9.59265019 6.02139755 2.48653696 -0.22649558 0.38409112 -0.23377973
O 22.06289322 6.15415483 2.49062054 -0.35451225 -0.98401478 -0.51468434
O 9.69710147 3.16994141 2.44330519 -0.59643501 0.36988987 -0.80574696
O 22.13837185 3.11639497 2.50297626 0.44852779 -0.43151110 -0.68434852
O 8.26926107 -0.05308248 8.19098276 0.79982525 -0.44772766 -0.24601049
O 20.70893555 6.21995904 8.21229696 -1.17343671 0.79026794 -0.34561097
O 8.29499707 3.01546960 8.24868644 0.42130568 -0.51844164 -0.53954281
O 20.74448490 3.09045229 8.14178727 0.69521324 0.87718616 -0.17807669
O 7.55307726 1.63063180 3.21583914 -0.64716645 -1.51029363 -0.36186398
O 20.06345743 1.53093187 3.23841401 -1.20602474 -1.30918525 -0.40828532
O 7.61880077 4.66856460 3.20627378 -0.38353439 -0.23536398 -0.83499629
O 20.05165951 4.64271998 3.22507416 0.29893147 0.83768391 0.43610588
O 6.23693008 1.65549635 8.94876575 -0.50059595 0.00496844 -0.53792336
O 18.68945835 1.63078598 8.96036304 -0.13994415 0.10858150 -0.55199456
O 6.20627878 4.62174728 8.92996087 0.19903561 -0.85325071 1.18801728
O 18.77034708 4.60935528 8.96593311 -0.29540579 0.58539735 -1.19286569
O 3.48633684 1.51413452 2.44307894 0.10241701 -0.09506237 0.81014446
O 15.89229183 1.50620322 2.57243185 1.16450070 0.26537776 1.22701268
O 3.46322978 4.64218898 2.52484107 0.96781115 -1.79366480 0.52500654
O 15.79676009 4.49747522 2.51732305 -0.29622456 -0.86932846 -0.75782117
O 2.11461439 1.56692165 8.26294496 0.02702074 -0.48006223 -0.43535548
O 14.41562621 1.53184810 8.16872876 0.60747001 -0.43118142 0.87579164
O 2.10371655 4.58057310 8.23012853 -0.97770576 -0.42427526 0.65418574
O 14.50736556 4.61152493 8.19296766 0.39113808 -1.82814652 1.52260292
O 11.99822510 1.55065327 1.49055288 -0.23793916 -0.21704190 -0.78375478
O 24.52097122 1.49409944 1.50348006 0.00957167 -0.52067317 1.41467286
O 12.11448020 4.69384204 1.52010889 -1.27522271 -0.86389463 0.27379159
O 24.46117153 4.68897643 1.43287376 1.32304979 -0.09611782 0.89861139
O 10.67820713 1.44770873 7.08072716 -0.08813465 1.03914655 -0.43103840
O 23.13638969 1.48358143 7.20342577 -1.17358905 -1.00391038 -0.17124102
O 10.63891704 4.70749136 7.21781905 -0.67667929 1.06752447 -0.17253346
O 23.09744034 4.55054553 7.13794279 0.52710407 1.47482592 -0.98323636
O -1.06132839 1.46717555 4.19141414 1.46264209 -0.74944088 0.20049905
O 11.46353592 1.61497175 4.28698820 0.14423189 0.91488728 -1.22758989
O -1.04028968 4.62770712 4.21676222 -0.02652703 -0.11456503 -1.69578803
O 11.42444260 4.57573172 4.21387836 -1.36479418 -0.06652770 0.79496286
O -2.44008087 1.50052263 9.92199172 0.59728126 -0.06190549 -1.30766771
O 10.10299328 1.53976336 9.96284866 -0.55118683 1.60753217 -0.12215008
O -2.41241498 4.65480847 9.93665769 -0.51096550 -0.93641926 -0.19160622
O 10.11849850 4.67928217 9.81243260 -1.07792496 0.81410466 0.76928468
O 5.86151413 6.25216724 1.36179096 -1.15680708 0.82754597 0.65243332
O 18.36318872 0.06158739 1.44659136 0.77471553 -0.76797117 -0.47469225
O 5.79528487 3.12879292 1.50970711 -0.99613479 -1.00357715 0.39186618
O 18.28256530 3.04477587 1.51223363 -0.33655006 -1.33195755 -0.00103289
O 4.49180182 6.15372311 7.09032303 -0.98355368 0.80364500 -1.08414570
O 16.93035259 0.09442769 7.27310132 1.73369513 -0.31539982 -0.65283817
O 4.41088431 3.09790459 7.18091168 -1.07667590 -0.21055333 0.01211432
O 16.92889779 3.09482693 7.21004681 0.27553964 0.16405539 0.95308225
O 5.19582528 6.19297854 4.32501863 0.68396600 0.17637458 -0.56124588
O 17.76808310 -0.07814280 4.30685005 -0.20988147 0.95657783 -0.57919210
O 5.25691486 3.05340298 4.24888168 1.94773933 -1.66494512 0.62357344
O 17.67411059 3.07908774 4.26539030 -1.29811849 -0.11893361 -0.27269598
O 3.79371176 6.25459701 10.00815776 -0.02773377 0.82393654 0.00956449
O 16.36120277 -0.03777895 10.02488034 1.06868749 0.18624652 1.95498307
O 3.76390146 3.00555209 9.99629668 -0.02892140 0.22055688 0.50139920
O 16.27318162 3.14931563 9.92124129 0.38828579 -0.36442190 0.09663017
159
Lattice="24.944851 0.000000 0.000000 0.000000 6.176005 0.000000 -2.782643 0.000000 11.434536" Properties=species:S:1:pos:R:3:force:R:3 Energy=-622.231328 Virial="-55.006282 0.913897 -1.966385 0.913897 -44.021289 -3.356230 -1.966385 -3.356230 -43.636342" Ga_vac_type=Ga_oct Ga_vac_tier=low Ga_coord=6 defect_vacancy pbc="T T T"
Ga -0.02353575 0.05686394 4.63193862 -1.15530919 -1.57946132 -0.10079152
Ga 12.55622065 6.08176365 4.65052593 -0.85348547 -0.41507712 1.85108805
Ga -0.06346313 3.15022065 4.53497132 0.85041105 0.29565321 -0.30090622
Ga 12.49763150 2.99910454 4.57736040 0.20492148 0.35231362 -0.78922525
Ga -1.38890656 6.13376621 10.30286194 -0.06102637 0.35803867 0.91469364
Ga 11.08864467 6.16433111 10.24349810 0.67345818 0.20645290 1.12473228
Ga -1.27205335 3.19285151 10.30795951 1.28778619 1.00717991 -0.11489030
Ga 11.08313834 3.13883255 10.21151261 -0.31836668 0.23425568 -0.13958322
Ga 11.15184320 0.03379980 1.13693818 0.31306934 0.99997710 0.60699213
Ga 23.54775553 0.03599224 1.07754358 0.23467926 -0.70619983 0.01192654
Ga 11.13521305 3.10044540 1.14724211 1.19967964 -0.29299145 1.32953343
Ga 23.45630967 3.00462977 1.03853564 0.38902751 -1.34121170 0.77239598
Ga 9.66921085 6.17490468 6.91973015 0.09100849 -0.20195644 0.81369272
Ga 22.14156007 0.13251744 6.90833816 -0.47671197 -0.70509106 -1.12562048
Ga 9.73591831 3.05743097 6.89058599 -0.82444278 -1.27703405 0.06284228
Ga 22.14101187 3.17243452 7.00333397 0.09534522 -0.19823902 1.65609426
Ga 6.29945990 1.41415019 4.46846897 -1.25717691 1.61902737 1.58878049
Ga 18.80435851 1.50658160 4.42214585 -0.42775266 1.02460316 1.12518573
Ga 6.31081586 4.77605585 4.51540832 0.38354704 -0.07357753 0.25087095
Ga 18.62490718 4.64670118 4.60565780 0.01158421 0.14983013 -0.74608304
Ga 4.94423913 1.72601021 10.29091474 1.16150949 -1.22715173 1.29977642
Ga 17.45128553 1.52737161 10.24661443 0.80215759 0.04888312 -0.74476828
Ga 4.82808295 4.65362365 10.42939698 1.00174615 -0.27200355 -1.37628511
Ga 17.32723844 4.52984083 10.36619412 -0.04408258 -1.23596604 1.03689759
Ga 4.81287472 1.61326503 1.20166970 1.37449301 -0.60989529 -0.92317863
Ga 17.36326820 1.60318660 1.12594394 0.20183193 1.40986012 0.53471086
Ga 4.82219020 4.62507968 1.27370832 -0.07982620 -1.15797182 0.66683383
Ga 17.31252316 4.59827248 1.16157446 -0.19016591 -2.00888429 1.47726269
Ga 3.38156756 1.47872974 6.85415575 -0.43536683 0.32075849 -1.01351495
Ga 15.76755675 1.46883003 6.95023151 -0.19490849 1.15922647 -0.47589235
Ga 3.40445077 4.51473167 6.90742411 1.10363139 -0.30565438 0.01858699
Ga 15.76782377 4.54047997 6.86221472 0.50633382 -1.13691935 0.93496087
Ga 1.51650961 1.41311720 1.89405592 -1.16877714 0.37432723 -0.66614277
Ga 14.00363408 1.48382299 1.86135574 -0.21059373 1.01587779 -0.16356711
Ga 1.68055774 4.61229938 1.74313731 -0.61729509 0.38175961 -0.09446992
Ga 14.15438226 4.56848187 1.81088285 -0.47610657 1.10183132 0.53122494
Ga 0.08069498 1.53617427 7.47734283 -0.45539650 -0.30394049 1.06586257
Ga 12.66054986 1.57806303 7.57115941 -0.36843291 -0.54290613 -0.29102682
Ga 0.11554287 4.60841772 7.38098356 0.38366279 0.66863694 -0.00557676
Ga 12.54845060 4.61728680 7.43965288 -0.44748876 -0.19797791 1.40487103
Ga 9.42656562 1.47415907 3.95503025 -0.25412901 -0.68387673 -1.54767467
Ga 21.92831204 1.52206278 3.90914583 0.27034873 -0.11770066 -0.34572735
Ga 9.41405404 4.67133643 3.91518633 -1.75297499 0.37267250 0.72940311
Ga 22.13771588 4.63736118 3.99287196 -1.46962089 0.63043333 -1.62619261
Ga 8.06326760 1.49574039 9.66438224 -0.42746126 -0.61437145 0.01463281
Ga 20.61077960 1.48868620 9.66792093 -0.35859479 0.08166154 -0.26092952
Ga 8.12962279 4.56955576 9.65062558 -0.76813551 -0.58793921 -1.35172054
Ga 20.57941803 4.57425923 9.64859898 -0.60723993 -0.46551818 0.14925509
Ga 7.76332286 -0.04219214 1.81384740 -0.80967675 0.62334650 0.59336854
Ga 20.12437644 0.04257121 1.83108698 0.89094393 -0.39260365 -1.68269540
Ga 7.76648362 3.02332463 1.85860859 0.49695050 0.20854504 1.58273475
Ga 20.28519335 3.07209372 1.82810742 0.63358531 1.15754130 -0.68209571
Ga 6.44293758 0.03652526 7.52468067 -0.23036750 0.22281853 -1.03406130
Ga 18.81898356 0.03476460 7.58805679 1.87884459 -1.30638047 1.15877213
Ga 6.36242882 3.07566752 7.52159414 -0.69807943 1.55451487 -0.28115967
Ga 18.87082111 3.01174102 7.47009028 -0.22306081 0.87866216 -0.34437179
Ga 3.23923806 0.08362235 3.90990006 0.09448135 -0.67053375 -0.67682060
Ga 3.23760594 3.12981752 3.93237771 -1.27126138 -0.31908134 -0.86950178
Ga 15.73151185 3.10330468 3.88974063 -0.80991776 -0.31241083 -1.81362858
Ga 1.83467895 -0.15547273 9.56477490 0.70739688 0.44681523 -1.12372815
Ga 14.46234956 6.16348028 9.70467119 -0.24253980 2.43865011 -0.56158624
Ga 2.05315372 3.15461819 9.59059479 0.08205333 1.29589006 -0.58820301
Ga 14.34432226 2.98364817 9.68205172 0.15703563 0.34024932 0.89814823
O 1.78725110 6.16677866 0.55121094 0.60404452 0.30808752 -0.82273116
O 14.34190165 6.14739194 0.66033641 2.29511959 -0.28112925 -0.16144172
O 1.81827502 3.13977856 0.59348674 1.99010275 0.07844172 -0.41250630
O 14.32169572 2.96055010 0.61669883 0.15926845 0.35885741 0.29272522
O 0.37356918 0.02535186 6.30434738 0.31408765 -0.21037565 0.43632185
O 12.92227502 6.27917327 6.38269719 -0.69069232 0.17851333 1.41669426
O 0.57134249 2.99456464 6.32739385 0.05111849 -0.90419519 0.02431177
O 12.89757318 3.13528061 6.45789302 0.80780069 -0.40547536 -1.82397303
O 9.23848943 0.10649250 5.09629202 0.50045098 0.08597576 -1.40589130
O 21.74470014 -0.19876632 5.14854214 0.01554223 0.85665539 -1.01486351
O 9.09727867 3.02567031 5.12903732 -0.33711734 -0.22650818 0.45155137
O 21.60416621 3.13103732 5.04479429 -0.88193112 0.59036261 -0.29539778
O 7.83655546 6.20762938 10.86314099 0.38049798 -1.43281671 -1.16550729
O 20.32885491 6.18394688 10.78019592 0.51898878 -1.36781212 0.54083591
O 7.74904917 3.03215956 10.81758001 -1.06376079 0.21711377 1.09468118
O 20.23543849 3.18660895 10.76477347 1.02512043 0.10262514 0.02667549
O 8.15911761 1.51158929 0.60711383 1.09131266 -1.83115028 -0.28731934
O 20.72304663 1.47729327 0.63394813 -0.23414757 0.74537943 0.38838458
O 8.13064279 4.69568852 0.55020861 -0.19209165 1.14326533 -0.03330047
O 20.51377706 4.60478920 0.57608940 0.24749202 0.22415757 -0.40864407
O 6.76995815 1.61849349 6.33333365 0.59058350 -0.61605248 -0.39306343
O 19.18498438 1.47994649 6.34301545 -0.19030716 -0.47207875 1.16675259
O 6.76480307 4.59258722 6.30666539 0.00837001 0.98374204 0.03412583
O 19.24142662 4.68824891 6.32625637 0.18513785 -0.69002585 0.90478476
O 2.86460675 1.48924343 5.17322740 -0.70069283 -0.45615203 0.69922356
O 15.45507835 1.60881879 5.18895462 0.75147507 0.54271036 -1.12883303
O 2.85304023 4.60748693 5.07765558 -0.10503486 -0.91227225 0.02660221
O 15.37172913 4.73663214 5.12067453 1.10870339 -0.85250189 -0.65624820
O 1.55009339 1.55716544 10.74294167 0.38102775 -0.20448740 -0.77283486
O 14.07455922 1.62347979 10.82569475 -0.09597632 -0.49784516 -0.92273803
O 1.59706956 4.49269826 10.84394786 1.06738152 1.72900212 -0.05807828
O 14.17570609 4.60427323 10.84927833 -0.03051045 0.69160993 0.22614374
O 1.42574632 6.13228892 3.29029841 -1.44253084 1.21290310 -0.87968315
O 13.89982357 -0.00898624 3.25203552 -0.27070066 0.97842430 1.56997333
O 1.37771295 3.15770153 3.21920843 -0.32681277 -0.19270598 0.24998406
O 13.87192702 2.95522399 3.08852661 -1.16316969 -0.84860983 0.45329948
O -0.02989270 -0.04831809 8.94024140 0.94151267 -0.17439764 0.31266524
O 12.44559576 -0.00311417 8.96609354 -1.01842570 -0.42003639 0.33634710
O -0.15474690 3.12894106 8.90057407 -0.13411587 -0.86265434 0.92357400
O 12.44275242 3.19966250 8.81237048 -0.25052623 0.13031045 0.38175989
O 9.65795203 6.17876167 2.50618931 -1.14263069 1.49601639 0.35135072
O 22.13421652 6.23109600 2.50840766 -0.60122750 -0.39443257 -1.26898619
O 9.69478032 3.08281918 2.53567341 -0.52258459 -0.55472463 0.87163136
O 22.04502579 3.02677838 2.46485981 -0.49253016 0.65824398 0.13980688
O 8.35900505 0.12686133 8.14708520 0.63979023 1.01955108 -2.18962287
O 20.87674318 6.11682420 8.17099727 0.30985406 -1.23182509 0.11503550
O 8.24740306 2.97329559 8.26577980 -0.68498272 0.26896093 1.36645808
O 20.82692425 3.10605979 8.25662067 -0.47758726 1.02439374 1.56377593
O 7.65466026 1.54827849 3.20746459 0.97593438 -1.40522154 0.99140932
O 20.11261887 1.60016117 3.24052869 -0.68147163 0.52602802 -0.59420789
O 7.61048872 4.56776376 3.10438772 -1.39900924 -0.40597458 1.12492503
O 19.97553768 4.52152889 3.27913129 -0.79144797 0.71597094 0.61642777
O 6.22155483 1.56102259 8.94543531 -1.33156343 -0.36741854 -1.51002962
O 18.72531851 1.37404300 8.86495664 -0.07202656 -0.91450435 -0.19456894
O 6.35655765 4.62145328 8.91207432 0.14929424 1.18003808 -1.26514509
O 18.78190729 4.58574704 8.96316144 0.63449158 1.16951681 1.22268129
O 3.51057070 1.57220967 2.44934148 0.17296188 1.49497740 0.81850957
O 15.92597305 1.53474352 2.45435858 0.42211153 0.02605741 -0.70767459
O 3.45608607 4.56729753 2.46646882 0.69522996 -2.02042749 0.00779229
O 15.92545368 4.62811607 2.43229293 0.36707646 -0.86944952 -0.32893691
O 2.01541105 1.48978278 8.11892050 -1.06053050 -0.60758869 0.71533452
O 14.57582023 1.51451592 8.32001663 1.55136199 1.57237251 -0.53522814
O 2.10534993 4.60815238 8.22001500 -0.53203303 -1.02627527 0.48514182
O 14.59062164 4.60181227 8.20172129 0.34524871 -0.67522552 -0.28982834
O 12.07563830 1.69740732 1.37056216 1.79035824 -0.83205867 -0.91110633
O 24.64821612 1.62280659 1.49744513 -0.41460169 -0.49735549 -0.63159125
O 11.89043365 4.58333434 1.45687358 0.33716689 -0.07157900 0.10135717
O 24.53077270 4.57981281 1.46480858 -0.48302224 -0.88130658 0.39103907
O 10.66456973 1.58088365 7.23020413 -0.00486718 0.57810661 0.78327349
O 23.00841736 1.42010329 7.20601252 0.65906676 -0.99431737 -1.00162859
O 10.56520194 4.66038401 7.09988790 -1.78502329 0.76169891 -0.96178255
O 23.27151790 4.53972829 7.23266108 0.92046441 -0.25106445 0.33148641
O -0.92823742 1.42733920 4.21077592 0.19603679 0.61678209 -0.29221271
O 11.33946433 1.56103827 4.27515061 -0.38356976 0.15139978 -0.18653868
O -0.99026501 4.68312506 4.29817680 -1.72499829 0.31945433 -0.28693100
O 11.57626553 4.69016307 4.38373320 0.00805222 -0.76727509 0.33661593
O -2.28590106 1.54606736 10.01324890 0.19548325 0.52100481 -0.27290125
O 10.08360337 1.57642989 9.90008065 1.48871955 -1.15181145 -0.21710238
O -2.59465303 4.69590832 9.98719985 -0.12462111 1.17824214 0.89934796
O 10.09422378 4.59556630 9.93639924 -0.02099189 -1.02379161 0.73745026
O 5.80690842 6.08797165 1.51992451 -0.84973096 0.57476095 0.73491688
O 18.34552118 0.01352921 1.45576866 -2.08701648 0.81018224 -0.76265932
O 5.79893631 3.01031359 1.50175866 1.22582894 0.27011473 1.43304315
O 18.22909283 3.07206126 1.36764166 0.44909565 0.73459177 0.28000761
O 4.54491254 6.29774633 7.08163062 -0.79203228 0.56744556 0.56984345
O 16.78850643 0.02682575 7.30780943 0.74900332 1.29245970 -0.29317627
O 4.41689225 3.09995682 7.20189756 0.07891662 0.15894856 -0.61546807
O 16.99433797 3.08669119 7.15070222 0.67888728 -0.06163338 -0.70692705
O 5.10914144 6.04905332 4.20703063 -0.07810348 0.15038485 -1.19718679
O 17.83846212 0.00212753 4.22127111 -0.32870617 0.36797793 0.06910040
O 5.26576934 3.11617898 4.30134838 -1.03960447 -0.47129302 -0.57152371
O 17.74281683 2.99256750 4.23235162 0.28315664 1.00811703 -0.22260338
O 3.89826484 6.14391305 9.83273429 -0.46825783 -0.58687758 -0.27301214
O 16.35442609 0.10448416 9.98872613 0.40759271 -0.84579229 0.32076053
O 3.90605205 3.13378967 10.08714588 1.01161926 -0.56237523 -0.12059841
O 16.27870940 3.13029442 9.96609965 0.22962253 -0.76082138 -0.62821766
159
Lattice="25.000301 0.000000 0.000000 0.000000 6.189733 0.000000 -2.788829 0.000000 11.459954" Properties=species:S:1:pos:R:3:force:R:3 Energy=-622.938400 Virial="-53.720474 -1.362926 -1.917812 -1.362926 -48.530661 -4.491079 -1.917812 -4.491079 -38.446128" Ga_vac_type=Ga_oct Ga_vac_tier=low Ga_coord=6 defect_vacancy pbc="T T T"
Ga 0.00237673 -0.04916103 4.63409603 -1.24301670 0.97169739 1.88379432
Ga 12.54743029 6.21584922 4.57164488 0.05902362 0.65999266 2.68890854
Ga 0.02841480 3.15593576 4.59252505 0.02435660 0.25866311 0.61019425
Ga 12.60856809 3.12112301 4.36291759 -0.00472810 -0.86751864 -1.09309675
Ga -1.19959246 6.28765666 10.30679974 0.79963914 -0.35463757 -0.60360714
Ga 11.22158241 6.18378463 10.31768455 0.24927838 -0.29344409 -0.20086321
Ga -1.35641434 3.12949255 10.30999636 -0.07836955 -0.89402680 -0.08767388
Ga 11.11447139 3.06911626 10.46205724 0.29337626 -0.82654817 -0.42313069
Ga 11.27494588 0.06911318 1.21510005 -0.30433893 -1.24344776 0.59818307
Ga 23.54804878 -0.02557136 1.18338031 -0.68588414 -0.89602554 -0.32810917
Ga 11.06150470 3.12494427 1.16049377 -0.15104559 0.66262723 -0.49823537
Ga 23.64513547 3.18592952 1.21480850 -0.59089434 1.06642899 0.32277484
Ga 9.57170240 6.11396553 6.84410340 -0.23110394 1.88680500 -0.57617804
Ga 22.31908465 0.03345310 6.92314720 -0.57399039 -0.29982432 0.73257104
Ga 9.83375998 3.08723803 6.90666004 0.58796831 0.12890834 -0.00538709
Ga 22.23231507 3.16402615 6.75053326 -0.43189554 -0.26223079 0.25716718
Ga 6.19576919 1.53537025 4.55893721 -0.72996624 -0.07846983 -0.03128507
Ga 18.71016325 1.49556424 4.64447303 -0.66224044 0.16526489 0.43419981
Ga 6.18879888 4.62083269 4.57679959 0.22869656 -1.51539566 0.91824758
Ga 18.73909974 4.63335250 4.60343452 0.01395729 -0.12581296 -1.35419354
Ga 4.81599614 1.46242948 10.24040720 0.10398487 0.73864407 -0.69499844
Ga 17.32998649 1.60925406 10.31316522 -1.06784781 -0.29607449 0.36109231
Ga 4.93364631 4.65007176 10.34117352 -0.43894521 -0.85294191 0.17521100
Ga 17.41881203 4.62066597 10.23263403 -0.63663091 -0.40253523 1.08104918
Ga 4.95717241 1.63248784 1.17886391 -1.24162730 0.13780031 -0.93429342
Ga 17.20702842 1.58180969 1.06003382 -0.89173982 1.03115494 0.31626115
Ga 4.80956590 4.69486915 1.14336985 -0.40238138 -1.41192257 0.15236393
Ga 17.44802479 4.54710471 1.20899396 -0.67733077 -0.42819560 0.90233253
Ga 3.42087329 1.58700915 6.90302654 0.80772287 0.38219520 0.88968800
Ga 16.02112992 1.47934101 6.90838442 -1.74539548 -1.42180581 0.58217479
Ga 3.29037215 4.69326974 6.86038965 -0.11157970 0.42494974 -1.74733125
Ga 16.05670768 4.62205343 6.85337038 0.34501030 0.36501023 -0.67968399
Ga 1.64442764 1.78295088 1.77577002 0.71561349 0.76244854 -0.68882553
Ga 14.14887963 1.56603147 1.74939761 -0.49846388 0.28957682 -1.66539157
Ga 1.55464864 4.64429980 1.85336574 2.19725535 0.48856812 -0.20848254
Ga 13.95462626 4.67129332 1.83675169 -0.98540765 -0.03545351 0.97586052
Ga 0.11466105 1.79090173 7.52091762 -0.02999195 -0.97209903 -0.54804037
Ga 12.52844096 1.65190830 7.54258278 -0.33048094 -0.72398830 -0.85053070
Ga 0.09205580 4.83422722 7.55469365 1.42893483 0.50202979 0.18393089
Ga 12.69421434 4.67461692 7.28226010 -0.72758800 0.85675324 0.47183617
Ga 9.56108930 1.53239169 4.00332109 0.60307538 -0.99553438 0.72318273
Ga 21.91257217 1.60775083 3.90334739 0.08359908 0.89172228 0.18239223
Ga 9.59935836 4.69157120 4.03496460 2.00568174 -0.32596725 -0.70494473
Ga 22.00229821 4.58567095 3.91100185 -1.27287678 -1.26332228 -0.23242616
Ga 8.31910376 1.53134359 9.85238110 0.05946456 0.03612796 -0.54156772
Ga 20.74758576 1.50788760 9.69885602 -0.66806140 0.72848428 -0.48365445
Ga 8.20728236 4.63638246 9.64350419 -0.77343950 -2.09224618 -0.03315770
Ga 20.75490679 4.74825149 9.76346251 1.10782050 -0.05513004 0.17577620
Ga 7.73574700 0.03248429 1.71131579 -0.89686334 0.00481912 0.88125710
Ga 20.23285975 0.07443977 1.69829925 -0.51312024 -0.16278693 -0.64433640
Ga 7.69247230 3.12006588 1.77299445 0.27055767 -0.13366239 0.49419960
Ga 20.24303951 3.16829638 1.72373219 0.55779043 -0.12713233 -0.62247540
Ga 6.40832737 -0.05239246 7.47953851 -0.31650534 1.56335883 -0.17323278
Ga 6.37848470 2.96309915 7.46911484 0.13044663 0.38240606 -0.02513270
Ga 18.86539399 3.09420933 7.46015247 -0.68829833 -0.71903903 -0.01485602
Ga 3.24331753 -0.09319287 3.92816296 0.29006100 -0.03361352 -0.71613380
Ga 15.73060103 6.23383609 3.86040507 -0.34514716 1.22370984 0.11040333
Ga 3.33610649 3.10426339 3.91915822 0.89267600 0.48768722 -0.11437746
Ga 15.77426833 3.04553850 3.91908895 0.04917022 0.89020780 1.01655573
Ga 1.97176817 -0.00731825 9.77279578 -1.76006083 -0.07199854 -0.28129113
Ga 14.35948629 6.32365246 9.55849740 -0.61271342 1.28634858 0.30267976
Ga 1.95012045 3.13125323 9.65822680 -0.28747114 -1.50716143 -0.01323600
Ga 14.46970689 2.90732404 9.68065913 -0.10517945 -1.10102899 0.85867617
O 2.03502527 6.27789286 0.73913268 -0.81068639 0.71625459 -1.06011093
O 14.40243385 6.19798002 0.61843269 0.01755679 0.55114039 0.33931788
O 1.97246699 3.16669480 0.63075184 1.04191993 -1.47918309 -0.74177708
O 14.38827507 3.07279269 0.59281795 0.58309048 -0.38185267 -0.34074859
O 0.58305956 0.00049178 6.31042743 0.75533905 -0.06456281 -0.83209353
O 13.13785978 6.33653557 6.30678596 -0.86717340 -0.14414463 0.67456663
O 0.50500198 3.27964380 6.41713679 -0.37593852 0.63206423 0.96531301
O 12.87485372 3.12233504 6.38357538 0.54469004 0.39141331 0.92701523
O 9.16928143 0.03284463 5.20369784 0.02267979 0.71164095 0.01094580
O 21.74724558 0.11606212 4.97554917 -0.36189627 0.28283435 -0.10653949
O 9.19155498 3.03574688 4.99956066 0.02672713 -0.19808971 -0.59614028
O 21.67980605 3.12349454 5.17457305 -0.26292464 0.88396862 -0.88848406
O 7.75620545 6.26728936 10.68696953 0.47794426 -0.35300377 1.47356229
O 20.30566651 6.23667152 10.76131052 -0.30907007 1.08713857 -0.99749652
O 7.79257172 3.08429368 10.93894574 0.38438978 0.01916931 0.68308957
O 20.29151660 3.15050913 10.81048508 -0.10205982 -0.19942572 -1.30533781
O 8.30349956 1.46433190 0.57725802 0.39411017 -0.53812109 -1.12973307
O 20.70047243 1.51638697 0.49621806 0.75506817 0.07596293 -0.43950551
O 8.14802531 4.67466422 0.52463324 -1.07789448 0.39761455 1.01591848
O 20.67808808 4.72600266 0.72932685 -0.90711137 0.95298257 -1.84321551
O 6.80249407 1.54646157 6.27304441 1.32555369 1.52519298 0.54476091
O 19.43342372 1.58731693 6.40717884 -1.51746429 -1.89821976 -0.53223885
O 6.85147584 4.63116182 6.45319592 0.01523534 0.46012618 0.29737449
O 19.14053802 4.58517364 6.30112097 -0.54923328 -0.15376425 -1.09763451
O 2.95696706 1.42386054 4.99175714 -0.84000333 -0.13972368 0.51295517
O 15.46227787 1.52826681 5.12624315 -1.62901539 -0.02510077 0.18830773
O 3.01729078 4.65576492 5.06046432 0.89915652 -0.10512936 0.98580650
O 15.51563041 4.62468065 5.20529652 1.92344732 0.56760902 -1.29370587
O 1.52519073 1.51210904 10.75655502 -0.81166597 -1.14509289 0.55830957
O 14.16808366 1.57009600 10.85687690 1.77146001 -0.50268088 -0.75076451
O 1.58236024 4.62137413 10.89136387 -0.05386515 0.48827426 -0.75955664
O 14.04294349 4.68247405 10.76442658 0.05281005 0.46128762 -0.60712720
O 1.41462499 6.19093137 3.31356468 0.26061232 -0.30257812 0.31569579
O 13.81181039 -0.07494870 3.26122015 -0.76478447 0.37353239 0.15651119
O 1.43563861 3.18096530 3.39184250 -0.59340333 -0.07751978 0.11656213
O 13.93338077 3.02989927 3.20274353 -0.38151508 0.01325386 0.86194782
O 0.00998767 0.10219274 9.00040225 -0.25748863 0.50356053 -0.28761550
O 12.61769466 -0.00079210 8.85541033 -0.05253737 -0.59669916 -0.93162883
O 0.01685862 3.04774794 8.96240144 0.94703632 -0.47330272 0.69204887
O 12.51172169 3.22493628 8.99766360 -0.12776121 -0.68260089 -0.43757767
O 9.63753739 6.09673519 2.47801793 0.00105108 -1.01748872 0.45088515
O 22.32151256 6.20414051 2.48089951 0.65544331 -0.40900979 -1.02794003
O 9.80370405 3.02642915 2.50773212 0.70866872 0.56571469 0.01272166
O 22.20636307 3.08342541 2.52207395 1.53530612 0.47509275 -0.19330739
O 8.42229363 0.02204954 8.27072892 1.94957944 -0.31231565 0.17943172
O 20.77664807 6.23633265 8.36100480 0.12843921 -1.52274211 0.62587713
O 8.35061637 2.98654442 8.15678146 0.31246862 1.64098232 -0.68898488
O 20.82370965 3.22001544 8.37809378 -0.34167741 0.16078042 0.36280583
O 7.59638721 1.59640833 3.29602053 0.34260985 -0.59551058 0.04647757
O 20.16424627 1.57433533 3.20743609 1.06570332 0.15122500 0.35951925
O 7.66913768 4.63444381 3.22383268 0.37143935 -1.30430687 -0.63882979
O 20.26046403 4.57066280 3.22569927 2.30022266 -0.87058541 -0.23524173
O 6.29504786 1.60190958 8.85594316 -0.71542296 -0.19107350 -0.58132533
O 18.70982478 1.62817327 9.06075477 -0.13452598 -0.80196569 0.69700065
O 6.31652989 4.64030012 8.94560472 -0.86720164 -0.58130028 -0.68928820
O 18.71977371 4.47196921 9.03517143 -1.23337113 0.08115800 0.93032827
O 3.54040811 1.68691764 2.57871237 1.16288201 -0.17774503 0.18578640
O 15.94127310 1.58561398 2.54109981 -0.97162675 1.00040379 0.53191435
O 3.37676368 4.66214106 2.33938927 0.63571165 -0.30060146 -0.38957136
O 16.12622300 4.69563278 2.48286953 -0.85255195 0.68065387 -0.08233770
O 2.20043271 1.75329899 8.13805786 0.23808048 -0.92473838 1.19377728
O 14.48382000 1.53464046 8.25700408 0.98629779 0.40679270 -0.79775285
O 2.15236705 4.71035835 8.13086126 -0.78393576 1.14175625 -0.34964818
O 14.52682089 4.65948094 8.23823858 -0.40326066 -0.63160270 -0.25531534
O 12.17546905 1.52063426 1.39472557 -0.46927387 1.44498099 0.28786897
O 24.51289635 1.52498467 1.60693400 -0.40991872 -0.20121469 -0.85363676
O 12.15324520 4.74058687 1.56086367 -1.05761065 -0.72381701 -1.77027714
O 24.65964283 4.58951474 1.44428094 0.36764230 0.65409926 0.93616328
O 10.78123420 1.55474043 7.11764058 -1.33561577 -1.91727519 0.42120869
O 23.27630540 1.50480301 7.21642887 -0.13247346 -0.48740741 1.14191628
O 10.73176381 4.73357189 7.24110697 0.98247992 0.47310331 -0.53759633
O 23.22278338 4.64671683 7.18596117 -1.29265047 0.04263578 0.89738577
O -1.01207398 1.50643412 4.36208864 1.54480517 -0.53984193 -1.27529016
O 11.49194320 1.49149559 4.25149466 0.51551998 -0.15080868 0.04273756
O -0.74863415 4.65778772 4.37798625 -0.08685311 -1.32581226 1.11224961
O 11.51870427 4.64239635 4.22004325 -1.05510816 -0.42825416 0.49421802
O -2.33306361 1.50996139 9.89976017 -0.42037505 -0.18264775 0.42552089
O 10.07166673 1.50853528 9.93071887 0.96884415 -0.46800496 0.20657466
O -2.55971480 4.54833090 9.98513596 -0.26685988 -0.76735373 1.06105441
O 9.97426325 4.77867325 9.90680084 2.21495259 1.32370391 0.49416755
O 5.86347628 6.05676234 1.46410705 0.16084372 0.04158093 1.07113501
O 18.42106396 0.02602469 1.57389164 0.02530530 1.13238729 -0.04313894
O 5.97585817 2.94411842 1.56436428 1.02484024 0.29017793 0.39941821
O 18.42516439 3.11776902 1.48092698 0.79434530 0.65765448 -0.03622120
O 4.33646398 6.17190811 7.13439225 0.15460992 -0.71617387 0.71469507
O 17.02549763 0.02236822 7.19555572 0.77424266 1.57609037 -1.76977748
O 4.54539821 3.06356993 7.28966998 0.86282109 0.46128489 -0.99374191
O 16.86046782 3.10724489 7.11699614 1.19557831 2.08031355 0.56248029
O 5.39256386 6.00814653 4.28098366 0.30472186 0.47681762 -0.61374823
O 17.65998951 -0.06849230 4.22094036 -0.71622289 -0.24192509 -0.65458252
O 5.16093583 3.09637349 4.34545729 -1.23290942 0.52011894 0.12624039
O 17.71667537 2.95804652 4.32712362 0.24963341 0.75458380 -0.87892030
O 3.81182224 6.06399036 9.92113065 -0.34465899 -0.58156427 1.23113674
O 16.41243049 0.07705658 9.96865186 1.07340155 1.11110291 0.84484829
O 4.02383347 3.14887212 9.84175196 0.09885654 0.32073107 0.54507446
O 16.18670440 3.09463042 9.82246605 -0.32111706 0.58956614 0.96007346
159
Lattice="25.176132 0.000000 0.000000 0.000000 6.233267 0.000000 -2.808443 0.000000 11.540554" Properties=species:S:1:pos:R:3:force:R:3 Energy=-622.708122 Virial="-56.254115 0.202087 -0.569364 0.202087 -44.839648 -4.214184 -0.569364 -4.214184 -42.873529" Ga_vac_type=Ga_oct Ga_vac_tier=low Ga_coord=6 defect_vacancy pbc="T T T"
Ga -0.01903642 -0.00172558 4.56874703 -0.16153937 0.21298532 0.71200337
Ga 12.54700010 6.28018169 4.57985382 -0.12491510 -0.06597898 -0.30679637
Ga 0.00156077 3.10098766 4.54233740 0.45729668 -1.36531411 -0.75555107
Ga 12.54005558 3.13595656 4.58096955 1.24967889 0.29266796 0.75572409
Ga -1.43324592 6.25514665 10.43857732 -1.15875008 -0.02844157 -0.26501228
Ga 11.15539759 6.25162121 10.40617121 -0.15295809 -0.24421149 0.31139827
Ga -1.43374550 3.13465846 10.35802193 0.10962670 -1.70757425 0.19345137
Ga 11.20190786 3.21968334 10.28095692 -0.94126820 1.89732684 1.50189492
Ga 11.15605693 0.02266158 1.19046868 -0.34324207 -0.74566186 -0.10015256
Ga 23.80417855 0.01702053 1.15411349 0.14336884 -0.27966852 -0.99214671
Ga 11.20042333 3.14101605 1.12924901 -1.24718845 -0.53474587 0.56486631
Ga 23.79333511 3.07576262 1.19252506 -0.13874139 0.53278210 0.47449985
Ga 9.86022987 6.36278014 6.94871352 -0.05432538 0.48532165 2.11367429
Ga 22.22696131 -0.00332762 6.92622619 0.91876281 0.37073248 0.54995976
Ga 9.80821217 3.12363576 6.86273959 -0.18053624 0.17381341 -0.65967664
Ga 22.32355518 3.10802817 7.02224223 -0.39566969 0.21987554 0.46841387
Ga 6.30742590 1.53142373 4.57989094 -0.37310107 -0.02161082 0.50837459
Ga 18.98459038 1.53889728 4.53791607 -0.50827319 0.92861320 -0.47322416
Ga 6.28144632 4.67106850 4.60393146 -0.65206282 -0.07492700 0.40507766
Ga 18.90894061 4.68098056 4.46743626 -0.42725814 0.42044032 -0.60527330
Ga 4.91000417 1.60360104 10.37001692 -1.13277838 -0.76808571 -1.01171697
Ga 17.54040840 1.61745128 10.35877331 0.96114868 0.43494674 -0.64211158
Ga 4.90708596 4.62588896 10.38245929 0.15787380 -0.53238657 -0.15824950
Ga 17.42384126 4.72655441 10.34900678 0.93267486 1.22336625 -1.33546822
Ga 4.86834803 1.52732363 1.16744528 -0.55846420 0.88634733 1.02733588
Ga 17.43289455 1.58363274 1.15165292 0.42484771 -0.51758297 -0.48423886
Ga 4.89572300 4.63548507 1.21642067 -0.11398672 0.79699615 -0.25414907
Ga 17.46858490 4.70235909 1.17840296 0.39680952 -1.01191366 -0.45581285
Ga 3.48366361 1.50294716 6.97760245 -0.11911722 -0.06093334 0.41284458
Ga 16.16828379 1.59003719 6.95019689 -1.12262140 -0.22985466 1.04792057
Ga 3.47895820 4.68543046 6.92700246 1.47506932 -0.31643493 0.96989255
Ga 15.98516886 4.61840133 6.93136566 1.38244061 -1.00516994 1.46459211
Ga 1.60786210 1.54108649 1.85904757 -0.83567257 -0.38072372 -0.01418629
Ga 13.98099705 1.50130045 1.84317211 1.31844644 -0.77729172 0.53361510
Ga 1.58736328 4.61963176 1.83916966 0.90984204 -0.02927489 0.32395805
Ga 14.14369323 4.68643920 1.80607943 0.31802875 -1.44196289 -1.29720212
Ga 0.16912215 1.56995703 7.63313160 -0.67843954 0.77355308 0.77312194
Ga 12.82394442 1.52636113 7.53157851 -1.56864705 -1.23982438 0.87345934
Ga 0.24440316 4.66021683 7.55307094 0.18107720 0.01265736 -0.95095821
Ga 12.76003651 4.72427915 7.59479716 0.41252351 -1.67735871 -0.32921118
Ga 9.65738230 1.57926616 3.97200068 0.52507331 0.34519464 -0.04249255
Ga 9.60779746 4.73882270 3.88415743 0.95499961 0.19316169 -0.28717842
Ga 22.29031851 4.70619248 3.95755492 -0.49663672 -0.48976274 -0.50674638
Ga 8.29440311 1.53274713 9.77081187 1.37861481 -0.19059402 0.49516015
Ga 20.80002816 1.52958677 9.72658273 0.26140105 -0.18224882 -1.10624971
Ga 8.20794859 4.66360569 9.68540649 0.15684383 -0.28728723 0.72824463
Ga 20.85136471 4.65597280 9.77130828 1.66899720 -0.42083036 0.02266043
Ga 7.89695114 0.01147599 1.82265212 0.63688184 -1.12826104 0.12626018
Ga 20.34825615 -0.05849789 1.79708851 1.44944883 0.34430529 0.19542908
Ga 7.88595030 3.19439961 1.85964171 1.12919843 -0.30575202 0.25116381
Ga 20.46569975 3.10698637 1.83921226 0.84133008 -0.09449375 -0.63404920
Ga 6.44786513 -0.03009637 7.55885556 -0.25015688 -0.50498584 0.98230557
Ga 19.03596720 -0.00494931 7.62244068 0.01839880 -0.11385659 -1.18393551
Ga 6.46625508 3.04685265 7.60916949 -0.65431226 -0.24003748 0.32461294
Ga 18.96008878 3.17150797 7.61611171 0.00477767 -0.00709463 0.68357248
Ga 3.29776378 -0.02311890 4.01783893 0.03704132 0.23964144 -0.09862216
Ga 15.95214858 6.30182167 4.03131204 0.21194414 0.19353680 0.06732363
Ga 3.31154174 3.04693378 3.86956095 0.47198691 0.47231228 1.03806999
Ga 15.95560129 3.10067303 3.93074356 0.97038975 0.18446115 0.27786059
Ga 1.99230141 -0.04820833 9.73657067 -1.59960647 0.73461457 0.66861010
Ga 14.57769866 6.18995648 9.64997270 1.57840191 -0.10705914 -1.25202821
Ga 1.85674623 3.00758999 9.74960712 0.31853332 0.36844831 0.72841656
Ga 14.55261628 3.18047697 9.64724214 -0.57959438 -1.21042598 0.03378027
O 1.85937622 6.15181168 0.66059676 0.26987346 -1.38731498 0.80763168
O 14.46023900 6.29794394 0.65479286 -0.75551380 0.21125386 -0.75125145
O 1.88173223 3.06250763 0.62383991 -0.45510868 0.73895845 0.90422136
O 14.47911098 3.14039393 0.60683057 0.64009788 0.71363092 0.58971484
O 0.52867805 0.04267163 6.41273605 0.72619182 -0.34385326 -1.19049813
O 13.05895756 6.22835190 6.39334663 -0.98433364 1.19106235 1.90566457
O 0.52458876 3.15374784 6.44119609 0.95962194 0.31835311 -1.28738091
O 13.05945183 3.05677829 6.40585012 1.91285885 1.67918151 -0.81883727
O 9.25019278 0.05784541 5.19503588 0.23108695 -0.05824336 -0.14709257
O 21.78681368 -0.01576812 5.21626826 0.05321209 -0.56929172 1.51238707
O 9.21972349 3.03564403 5.21281348 0.14568600 -0.71832237 0.85503949
O 21.75546705 3.12324179 5.17134954 0.36002187 0.91083632 -0.84508168
O 7.95851742 6.17548681 10.91000899 -0.11676529 -0.07135063 0.85728192
O 20.40609597 6.23263893 10.83718249 -0.68793586 0.56671372 0.49000389
O 7.86243071 3.07707089 10.88316609 -0.02178328 0.46842865 0.00886517
O 20.45879319 3.13850752 10.84817106 -1.37268951 -0.60257639 -0.92985050
O 8.23791381 1.50717736 0.61822911 -1.68647392 1.27510060 -0.25179546
O 20.79986640 1.59559160 0.61800671 -0.12019665 0.65318976 -0.17493715
O 8.11872095 4.61576639 0.59126318 -0.73835425 -0.43929012 -0.40692794
O 20.77713796 4.64050223 0.63266544 2.47994731 -1.47591696 0.44013875
O 6.89699891 1.60163626 6.37105116 -0.63710815 0.31694135 0.31953641
O 19.37210837 1.57732770 6.44643374 1.24265726 -0.63522950 0.75520611
O 6.85548760 4.64484211 6.48065605 0.42405136 -1.95467070 -0.42675238
O 19.31977331 4.58298852 6.38782657 0.43136153 -0.24694656 -0.35832115
O 2.97186209 1.52013426 5.01069055 -0.23423087 -0.53791957 1.06924189
O 15.66149385 1.62175181 5.15358610 -0.96254309 0.63658983 -0.57778072
O 3.05510398 4.75562778 5.19406679 -0.65280667 0.76023194 -0.47129656
O 15.52839158 4.61032924 5.06364865 -1.67330242 -0.79981379 1.14573487
O 1.65131967 1.53234027 10.85502603 -0.82564656 1.36960891 -0.16948386
O 14.18582657 1.51340989 10.89529795 -0.79832844 1.41333383 -0.34349752
O 1.54103694 4.71149057 10.89845479 0.40493552 0.81028738 -1.82422641
O 14.17449421 4.80390614 10.90477186 0.77219082 0.59173643 0.95568965
O 1.46749069 6.25470748 3.20420992 -0.91687358 0.53886149 -0.38117269
O 14.05601981 -0.02208306 3.20983732 -1.46759363 -0.75574993 -0.69596036
O 1.41432126 3.14761560 3.29764268 -0.04163990 -0.48930016 -0.67628303
O 13.98902141 3.13181030 3.24960432 -1.44317907 0.79179598 0.24052987
O -0.04586379 -0.00563850 9.02876814 0.75877623 0.21251158 0.10815106
O 12.63579170 0.00077360 9.04153939 0.87353964 0.34843780 -0.91036635
O 0.05444713 3.18922498 9.00949423 1.23128773 -1.79358221 -0.28324912
O 12.55315041 3.06535341 9.03611149 -0.36586172 0.09457336 0.45703442
O 9.75049025 6.21528775 2.55673322 -0.08553134 1.47324582 -0.98123868
O 22.35560112 6.17326757 2.45201009 -0.14812035 0.21165658 0.11300637
O 9.72153946 3.10209952 2.46144449 0.33639889 0.15340098 -1.47150776
O 22.36109257 3.15455461 2.44515430 1.58605238 -1.20184977 0.45001705
O 8.40541580 0.01671637 8.26453143 -0.17196722 1.02281750 -0.04115750
O 20.99073183 6.21457835 8.25907284 -0.21821407 1.45005839 0.52346828
O 8.41759211 3.12467615 8.36247201 -0.55468868 -0.29618538 -0.36422509
O 20.98986247 3.06654166 8.14545610 -0.04630093 1.09551052 -0.51032480
O 7.73031479 1.53058577 3.27151175 0.71954635 -0.11735854 0.25505282
O 20.22706383 1.56854503 3.30339835 0.37076840 0.18546381 0.49952312
O 7.72675147 4.66621309 3.31563299 0.75638499 -0.84998873 0.56436887
O 20.29971734 4.67121874 3.28798661 0.11104485 0.31113925 1.01655684
O 6.22230816 1.55516705 8.98005069 -0.06869068 -0.69668334 -1.38072529
O 18.89931335 1.53343473 8.97079358 -0.10485399 1.08544575 -0.28818575
O 6.27232083 4.63951535 8.98466709 -0.79272115 -1.15531290 0.15475900
O 18.87577694 4.68009422 9.09732188 -1.30620913 0.50777608 0.63650174
O 3.44495183 1.58869504 2.57459839 -0.45140769 -0.50027217 0.25379898
O 15.97370259 1.51759536 2.50025707 -0.63682702 0.79045041 -0.63456002
O 3.53222538 4.67866741 2.50756550 -1.30674277 0.24361330 -1.72342607
O 16.15440438 4.69045512 2.68224911 -0.86161994 0.90451993 -1.30845837
O 2.12776569 1.57253694 8.20711745 -0.09955828 -0.13266476 -0.24687349
O 14.67054975 1.49188691 8.29433392 -0.07132924 0.70193303 0.07378486
O 2.05808738 4.73692416 8.20469029 0.05131326 0.07017233 -0.03734785
O 14.75524209 4.64400155 8.22136721 -0.63008393 -0.92461759 0.39159728
O 12.18514445 1.59679926 1.46359196 -0.55987261 -0.20501326 -0.18173121
O 24.71089982 1.56336645 1.49541781 0.83120376 -1.44810735 -0.20535747
O 12.19496765 4.65895094 1.57941152 0.02155577 -0.15747738 1.36457906
O 24.82210911 4.69037053 1.36971862 -0.34620763 -0.02044198 -0.73132842
O 10.71380412 1.57558293 7.22036686 -0.03037652 0.20218747 -1.01634935
O 23.38509799 1.58487213 7.28503392 0.16645984 -1.34646766 -0.36765328
O 10.82509206 4.70536707 7.26928714 0.00361120 -0.61698046 -0.67212665
O 23.43676543 4.71007558 7.30825031 0.72167406 0.53085081 0.14680752
O -0.98784553 1.61678231 4.24449101 2.10533370 0.30877639 -0.83565458
O 11.66680638 1.55757598 4.32437570 -0.58549483 1.05955806 0.24065721
O -0.94004787 4.72258106 4.32286455 -0.66391046 1.30900179 0.20514783
O 11.50468995 4.66880367 4.24912940 -0.06776995 -0.32947630 0.60575201
O -2.31971137 1.46820926 10.06678576 -0.48958429 -0.67833811 0.70379669
O 10.22944064 1.53057396 10.10406301 -0.81396144 -1.83855966 -0.72182822
O -2.40328210 4.72421151 9.98776706 -0.20213232 -1.50508748 -0.33052058
O 10.14721994 4.62812670 10.07095316 -0.34304696 1.28318848 1.10869063
O 5.92175776 6.19788452 1.52844333 -0.14071871 -0.14754057 -0.93362668
O 18.39662226 0.07025841 1.46580544 -0.28022615 2.20938865 -0.39687869
O 5.92262554 3.05255455 1.44315932 -0.05829970 -1.51297711 0.68143412
O 18.54229639 3.10731403 1.52011180 -0.57785071 -0.44741793 1.39141971
O 4.43667642 6.14679106 7.26004167 -0.42394940 0.19403783 -0.49403638
O 17.03370550 -0.04641152 7.25188900 0.10260621 -0.19609608 -1.11261963
O 4.46883905 3.16267416 7.18696597 0.86866042 -0.15889615 -1.10362579
O 17.01994700 3.08604679 7.25939318 0.52385814 1.02888517 -0.40149208
O 5.38588994 6.18921313 4.32524397 -0.83835807 1.17133683 -0.07154129
O 17.83495191 0.06959100 4.24984413 -0.02120711 1.05984876 -0.04139881
O 5.38077391 3.18345386 4.33722130 2.08446086 -0.34280557 -0.85915611
O 17.86551839 3.10299729 4.25988442 0.50866154 -0.90584433 0.73801388
O 3.94367618 6.28343186 10.03952849 -1.13662811 -0.20405296 0.20077874
O 16.53473163 0.05448837 10.12791909 -0.36814896 -0.06216552 0.95566457
O 3.91365350 3.12419755 10.08978300 -0.41337340 0.79667427 -0.26050381
O 16.43882480 3.12859266 10.08835661 -0.70665624 0.50701424 0.54314391
159
Lattice="25.072848 0.000000 0.000000 0.000000 6.207695 0.000000 -2.796921 0.000000 11.493209" Properties=species:S:1:pos:R:3:force:R:3 Energy=-622.452287 Virial="-52.283339 -1.409261 1.536249 -1.409261 -45.192948 -4.066640 1.536249 -4.066640 -38.511184" Ga_vac_type=Ga_tetra Ga_vac_tier=low Ga_coord=4 defect_vacancy pbc="T T T"
Ga -0.07746256 0.03030355 4.51769635 -0.11591093 0.64223575 1.75281023
Ga 12.51754737 6.16683988 4.50972517 -0.60493758 0.32345517 -0.58438498
Ga 0.05522237 3.19533258 4.59227406 0.27374474 0.69827028 1.25546325
Ga 12.49450876 3.09401819 4.59437604 0.16720736 0.71075923 -0.32442551
Ga -1.39988605 6.19230528 10.40974285 -0.66149038 0.72419306 -0.94256095
Ga 11.19280821 6.13108050 10.24150774 -0.16747333 -0.55501229 -0.77811319
Ga -1.48238156 3.10515294 10.40446234 -0.04598038 0.16381232 -0.10874092
Ga 11.18859343 3.19067319 10.42971930 1.42584801 -0.73158732 -0.07895867
Ga 11.24133462 0.04603458 1.24213674 -0.48347554 -0.32685964 0.37644914
Ga 23.67034884 0.09059040 1.12153196 -1.49488973 0.55100176 -0.34514061
Ga 11.11469007 3.14023384 1.14147424 1.06652177 -0.31147756 -2.24944628
Ga 23.61598959 3.10456740 1.24776155 0.20000523 -0.42272406 -0.22996107
Ga 9.79617056 6.23595901 6.86151973 -0.17597004 -0.87364207 -1.29089121
Ga 22.26584334 -0.03158748 6.94225134 2.84918728 -0.77591601 0.33923944
Ga 9.77166665 3.12846854 6.84114711 -0.72233805 -1.17003280 1.30238243
Ga 22.25215601 3.03452454 6.92433363 0.43893739 -0.35823022 0.72949741
Ga 6.28630157 1.47383203 4.61236992 -1.50209904 -1.04131272 -1.30089498
Ga 18.81570679 1.54998719 4.39396989 0.31856222 0.27754467 -0.05395935
Ga 6.27619213 4.63396746 4.60480850 0.34256577 1.52711693 -0.99007219
Ga 18.89238804 4.74559881 4.59899397 0.19073346 0.37852474 0.78575099
Ga 4.89052445 1.63671919 10.34727538 -0.17060404 1.14891349 -1.19478563
Ga 17.31263820 1.60396469 10.24979923 0.69833583 0.55355822 -0.26693355
Ga 17.49807412 4.62231060 10.29370492 0.29832725 0.59805480 -0.64512522
Ga 4.87863750 1.52410920 1.21413056 -1.16001968 0.47749459 -0.25390498
Ga 17.39424549 1.54636637 1.14143955 0.01099029 1.28702432 0.59532679
Ga 4.85346241 4.59470888 1.22839410 -0.24164301 -0.02380879 0.77379607
Ga 17.46376129 4.61943068 1.25589590 0.47636801 1.03120911 -0.02953623
Ga 3.49580043 1.54628173 6.90802668 0.29327105 1.19184095 0.75303141
Ga 16.01981062 1.56531662 6.82776632 -0.99755653 -0.92304880 -0.90485042
Ga 3.52962116 4.71016584 6.92161883 -0.34773880 1.62057125 -0.06471769
Ga 16.00983645 4.73168715 7.00113959 -0.62817682 0.31306992 1.29734314
Ga 1.46930294 1.58254580 1.71940094 0.23587391 -0.39196844 -0.48104438
Ga 13.99999505 1.58571891 1.83121080 1.05704363 0.12808137 -0.81783606
Ga 1.51755191 4.67007271 1.76409963 -0.29057167 -1.61010298 -0.95036804
Ga 13.97598301 4.69034537 1.84551161 -0.73288722 -0.96806345 0.58983461
Ga 0.10921979 1.49221896 7.54589363 0.15053398 0.33075061 0.69021158
Ga 12.60623039 1.53052140 7.56015163 1.22458501 -0.15855107 0.51346055
Ga 0.13585567 4.64635203 7.53697809 0.10541239 -0.40147929 0.83667150
Ga 12.68562985 4.65954132 7.47439700 -1.04974035 -0.47695348 -0.23789973
Ga 9.58985845 1.53986969 4.04237074 -0.23873356 -0.40206842 0.94765047
Ga 22.15390607 1.63835721 3.92288516 -0.78633607 -0.12961844 0.22951235
Ga 9.60574291 4.67669192 3.94125363 1.46290057 1.49642550 0.95638724
Ga 22.02975534 4.62496722 3.88689868 -0.60100587 1.75919170 -0.50309821
Ga 8.16428565 1.50695109 9.65564678 0.03109594 -0.73971059 0.35448995
Ga 20.77177577 1.63388523 9.57519956 -1.01125892 0.80397742 0.36110981
Ga 8.17857782 4.65145224 9.66959788 1.39409843 0.13545719 0.01516996
Ga 20.80678302 4.66839745 9.73547754 -0.62062289 -0.44083238 -0.41167474
Ga 7.86718074 0.08401055 1.84055259 0.18660189 0.46377954 -0.03958880
Ga 20.39527987 0.05271591 1.83057046 0.81173487 0.21629011 1.70260501
Ga 7.83108317 3.01644264 1.79226795 -1.11785753 -0.15700278 0.81062021
Ga 20.32999479 3.12822693 1.68757634 -0.85209279 -0.23360869 -0.16559618
Ga 6.42044096 -0.05709227 7.50701732 0.38249012 -0.99442224 -1.23264761
Ga 18.91943558 -0.04630842 7.58981480 0.14738467 0.44144459 -0.27114388
Ga 6.50652259 3.10496789 7.53610778 0.40689827 -0.44260355 0.72491068
Ga 19.04792418 3.17887723 7.49514570 -0.18359718 -1.61750135 1.10313938
Ga 3.36027826 -0.02387942 3.87348960 0.25254664 0.78185954 -0.55586094
Ga 15.84330697 6.25901138 3.99954592 -0.84719140 1.05086564 0.40266948
Ga 3.29786159 3.03637239 3.93791079 -0.20779185 0.40712904 -0.33114875
Ga 15.88865595 3.15833474 3.96826872 0.93019742 0.50964412 0.21973040
Ga 2.01213704 -0.02452510 9.79360730 0.52717867 0.45064905 -0.51170685
Ga 14.44785298 6.15104589 9.64434875 0.67320519 -0.69313882 0.70943181
Ga 2.04089670 3.11493022 9.69995034 1.13573838 -0.53038995 1.17542157
Ga 14.37796952 3.17438389 9.78705328 -1.78667768 0.97838077 1.88900748
O 1.93236230 6.17138996 0.65048792 2.34442037 1.63823131 0.06369902
O 14.50775850 6.24822270 0.53671692 0.73320505 -0.84486253 -0.98912820
O 1.91137228 3.09574011 0.59266536 -0.79459862 -0.33829620 1.04026397
O 14.38700585 3.18439253 0.63096599 -0.80877714 0.40778842 0.46284617
O 0.47090800 0.02849207 6.35803215 -0.23557951 -0.15374301 0.51880622
O 13.01085448 6.27544119 6.39309564 0.60233449 -0.39580126 0.02715602
O 0.53341079 3.18611171 6.30520198 0.80295515 0.16936237 -0.87104845
O 13.07736087 3.10249017 6.38594577 -0.09996881 -0.76703073 0.09012115
O 9.16579172 -0.02622574 5.03682223 0.32360036 -0.56297895 0.03381423
O 21.76140566 -0.02476582 5.04621630 -0.94075218 0.12357948 -0.24402855
O 9.15079278 3.10677663 5.03380366 0.32854149 0.24711304 -0.91852015
O 21.79210005 3.08845928 5.10018573 -0.57999955 -0.08397986 -0.25301800
O 7.77115940 6.31341199 10.94302559 0.47616095 -0.07824834 0.15145004
O 20.36425050 6.28416043 10.88278128 0.14021785 0.20582145 -0.22012750
O 7.96046255 3.02371232 10.80738840 1.65996846 -0.40485220 0.86612552
O 20.43978854 3.02105718 10.96752840 0.81675936 -0.23508810 -0.41439474
O 8.11815964 1.62863965 0.56275787 -0.06705498 0.04646191 -0.73134717
O 20.67031886 1.44644757 0.51515879 0.36476043 -0.07065986 -0.03241798
O 8.27921938 4.78898262 0.61593493 -0.72940909 -0.71469513 0.10047371
O 20.56578029 4.62753780 0.65302179 0.54277113 -1.91202278 -0.94439069
O 6.83338683 1.54111410 6.41892255 -0.54064984 -0.27229940 -0.29032348
O 19.37139272 1.53360346 6.33695116 0.21249639 0.25464295 -1.16708756
O 6.84163787 4.70282214 6.41807389 1.10385698 -0.12844499 0.69254527
O 19.33213741 4.72978999 6.45405301 1.50292291 0.39095018 0.84678205
O 2.96697972 1.47822300 5.14442948 -0.45617526 0.87486412 0.78750130
O 15.39527974 1.59872854 5.15395744 0.13327216 -0.19780539 -1.85490996
O 3.04819969 4.65718483 5.12994722 -0.30244320 0.11831347 -0.49374640
O 15.55407665 4.55325583 5.17400296 -1.24086091 0.81016112 0.96410268
O 1.64007506 1.55999254 10.90613821 0.19318427 -0.61021704 0.87566267
O 14.11730908 1.49697326 10.94916706 0.70206380 0.67491883 -0.19510723
O 1.51944760 4.62034815 10.92431208 -0.97696357 -0.47819822 -0.43002415
O 14.11795167 4.63019855 10.79961144 0.56918180 0.62439223 -0.24873315
O 1.34404855 6.24536344 3.21962966 1.89772817 0.97449878 0.75172485
O 13.95663486 0.05625038 3.24593297 -0.71767480 -1.26740165 0.82113797
O 1.35769870 3.12679921 3.22881357 -1.17235385 -2.33949117 0.15678180
O 13.88782364 3.08597462 3.22714902 -0.49405806 0.28222641 0.85181904
O 0.06986466 0.01093763 9.05903159 -2.21064860 -0.01219641 0.45505976
O 12.59947103 -0.03989571 8.95634132 -0.14922403 -0.08628635 0.42609748
O 0.00799994 3.10565259 9.05683010 -0.86623061 0.21264691 -0.08045704
O 12.55316056 3.06556139 9.05692240 0.09237992 0.53387438 -0.35937863
O 9.64960703 6.19688526 2.50079886 -0.47418759 -1.31287874 -0.82517889
O 22.21884988 6.18549348 2.60030569 -0.75091679 -0.20879741 -0.89587190
O 9.66838936 3.12095824 2.46388616 -0.35750924 0.08970856 -0.21409708
O 22.26806188 3.00782397 2.46268212 -1.52255678 0.42021371 -0.79116788
O 8.28690383 -0.01543723 8.28240200 -0.90853186 0.08055701 -0.04092707
O 20.99985177 6.22439834 8.19714410 0.85183724 -0.27748238 0.47312012
O 8.34002905 3.12114736 8.21425182 -0.68444812 -0.15953799 -0.75588294
O 20.86513178 3.08140418 8.16715421 1.31813299 -0.83322536 -0.31043450
O 7.60987686 1.57321387 3.18854505 0.92403218 1.06161914 0.92104233
O 20.24130616 1.46865197 3.22964432 -2.04577404 0.34096667 1.05053293
O 7.67735964 4.66694039 3.20829076 -2.04571437 0.95242375 -0.07240211
O 20.22614513 4.68665901 3.23416219 0.91133425 0.28950375 0.31704734
O 6.20999725 1.59579264 9.02107589 -0.55677989 -1.30742579 1.63308074
O 18.82626291 1.47429882 8.96747290 -0.10721466 -1.08521617 0.11485581
O 6.38444007 4.71650270 8.97607690 0.41596392 0.76354974 -0.94695255
O 18.74385974 4.79586598 8.88653999 -0.04786098 -0.59687535 -1.13861436
O 3.47134433 1.53427858 2.43333847 0.62241421 0.73623850 -0.20661092
O 16.09134686 1.51835319 2.53452480 1.36583477 0.96397802 0.30607147
O 3.47866922 4.73724991 2.45460571 0.71212742 0.40967359 1.68571917
O 15.95467849 4.75691184 2.51517626 -0.12078977 1.17256179 -1.22724110
O 2.07863709 1.52426915 8.24974697 -0.42614987 -2.17601174 -0.06646521
O 14.64029430 1.58963833 8.32241479 0.25263654 -0.12019413 -0.00174324
O 2.07215624 4.50852847 8.20738625 1.38186663 -1.10657066 -0.90471293
O 14.61944162 4.62301814 8.36048234 -0.30763820 -0.82533475 -0.02749187
O 12.11028607 1.55153064 1.47458623 0.37017515 0.11325005 -1.27229577
O 24.70077454 1.61340888 1.46029912 0.12902359 -1.48585533 -0.17200239
O 12.14210740 4.61603822 1.45265154 -1.06910407 -0.51539687 1.11228088
O 24.59982408 4.61728741 1.31966248 -1.25242179 1.47081228 0.02712624
O 10.76402670 1.57645495 7.21670146 -1.38385791 0.63471239 -0.54525398
O 23.28486925 1.62419854 7.23982898 -0.71397092 2.03788784 -0.13781592
O 10.66391380 4.57678157 7.27193591 -1.10450638 -0.81724438 0.39509326
O 23.27471486 4.60475679 7.19741037 -0.02255379 -0.64299869 0.56613580
O -0.96146115 1.49261344 4.28870141 0.35290673 -0.15500583 0.27546117
O 11.48692978 1.48588021 4.33633712 0.99317568 0.06267540 -0.58762466
O -0.97777579 4.59318288 4.22145017 0.06414093 -0.13627922 -1.39617988
O 11.53969382 4.60237614 4.23009011 0.36711302 0.72073982 0.94953049
O -2.38475138 1.57214110 10.01860172 1.05822884 0.75290042 -0.80026851
O 10.15430447 1.53878939 9.99905965 1.14654183 0.44477498 -1.18976888
O -2.38730189 4.73222348 10.07582840 0.10578661 -0.08003960 -0.15489027
O 10.15488830 4.63046465 10.07214382 -0.58872009 -0.31506603 0.42925539
O 5.85015228 6.17135227 1.49048089 -0.01063743 -0.18363827 -0.63995062
O 18.38185409 -0.04306658 1.60318773 1.07388747 0.13553720 0.20214087
O 5.85972928 3.07427729 1.47511195 1.06928820 -0.56603412 0.32837645
O 18.36641795 3.13614251 1.39827396 -0.38910086 -1.25471400 -0.10600622
O 4.40479870 6.23005998 7.10849933 0.68308235 -0.85645100 -0.48963206
O 16.92815251 -0.01291938 7.27706932 0.24956070 -0.76259842 0.46522300
O 4.40973299 3.04121900 7.11893691 0.30265560 0.96379382 0.04596212
O 16.98689448 3.00942002 7.18571052 -0.40063090 -1.27909822 0.47470373
O 5.33158345 6.17757929 4.28646694 -0.94036685 0.05480227 -0.81730172
O 17.82921929 0.01281447 4.25846926 0.17090669 0.33885584 0.01038237
O 5.31187484 3.14672011 4.23443941 0.60668345 0.36350024 0.74115491
O 17.80522564 2.99869323 4.31995216 -0.13026755 -1.59569598 0.09635490
O 3.81512562 6.25538152 9.89555508 -3.01570058 0.70717034 -0.55498082
O 16.44084741 -0.02634893 10.05436477 1.00048288 0.37788942 -0.45526185
O 3.79871356 3.02072056 9.98184308 0.09854154 0.06449904 0.08074221
O 16.45695321 3.03551379 10.18917120 0.30073415 1.22471446 -0.24825406
159
Lattice="25.008258 0.000000 0.000000 0.000000 6.191703 0.000000 -2.789716 0.000000 11.463602" Properties=species:S:1:pos:R:3:force:R:3 Energy=-621.324626 Virial="-53.024143 1.106104 -0.268057 1.106104 -47.725724 -3.199190 -0.268057 -3.199190 -42.740260" Ga_vac_type=Ga_tetra Ga_vac_tier=low Ga_coord=4 defect_vacancy pbc="T T T"
Ga 0.08712102 0.03116817 4.61074210 0.88045762 -0.70050682 -1.14864516
Ga 12.53652595 6.21344694 4.63372787 -0.45904337 -0.06404904 0.44948957
Ga 0.08779337 3.11524951 4.61470909 0.05231495 -0.82834671 0.51567853
Ga 12.66012503 3.14868889 4.38909456 -0.93574650 -0.22225452 -0.16277180
Ga -1.45191748 6.08786231 10.27039875 0.72954050 -0.38600030 1.00817644
Ga 11.08377765 6.11834326 10.15621343 0.15721266 -0.01853203 -0.00104386
Ga -1.33909747 3.10221827 10.29737208 -0.08669674 1.16716664 -1.24030456
Ga 11.02706145 -0.02854182 1.23983530 -0.42670220 -1.12825148 0.59549535
Ga 23.64258947 0.09761086 1.14708428 0.13148484 -0.20182593 0.09467402
Ga 11.15843504 3.01428443 1.02338284 0.02707100 -0.65940274 -1.62885482
Ga 23.62785190 3.16371863 1.03364456 2.39110766 -0.93660130 0.73023844
Ga 9.64420388 6.10314740 6.89884196 0.87050703 1.95775173 -0.46850808
Ga 22.14995536 -0.01227929 6.83691188 0.75444798 -0.92835968 0.32182279
Ga 9.75454134 2.99924043 6.78119288 -0.11100171 -1.45768999 -2.10381647
Ga 22.26820527 3.07227390 6.90331053 0.80941995 -1.60801352 0.49425719
Ga 6.32838057 1.55834353 4.56560783 0.26221883 -0.86318829 -1.20737759
Ga 18.73984674 1.64838911 4.62567958 -1.21769671 2.08562841 0.12360632
Ga 6.12717104 4.71770141 4.62372189 -0.80910574 -1.07551793 1.05315063
Ga 18.78715297 4.60333478 4.41360936 -0.11098704 0.71872431 2.59697161
Ga 4.72875861 1.54079144 10.16315419 1.38730205 1.04486572 1.15632012
Ga 17.47272351 1.54606512 10.05517651 0.91402013 0.60661829 -0.38034105
Ga 4.82872946 4.73445357 10.40283383 -0.33561893 -1.56531867 0.42323438
Ga 17.42211052 4.52799443 10.29707552 -0.00341716 -0.91521919 0.06530792
Ga 4.64327172 1.56450321 1.02307542 -0.18016549 -0.11214068 0.15573980
Ga 17.29748858 1.62980608 1.20380018 0.38406885 1.02060767 0.15368220
Ga 4.78081300 4.64820021 1.14734866 0.33703209 -0.26088674 -0.01127353
Ga 17.31484069 4.65941540 1.31317126 -0.59367132 0.08181156 0.22101149
Ga 3.38964387 1.47345959 6.92991426 0.06894806 -0.57288297 -0.51235305
Ga 16.00352335 1.64995125 6.86074623 0.73314320 1.10483344 0.58678095
Ga 3.51605904 4.74925322 6.98129672 -0.40500685 -0.35655256 -0.54838123
Ga 15.84924395 4.70441134 6.90316265 0.04913941 -0.39986845 -0.43274423
Ga 1.42953148 1.61140721 1.84411763 -0.36231763 -0.28201326 -0.15787476
Ga 14.09089365 1.46048747 1.69732073 -1.88028105 -0.02293276 0.91571343
Ga 1.44885754 4.52954443 1.73542445 0.25658717 1.05241634 0.38775362
Ga 14.12220182 4.70338683 1.93527249 -0.40342154 0.04977812 -0.46558170
Ga 0.17128620 1.61481202 7.50666856 0.20119103 -0.45197592 -0.18259646
Ga 12.63348498 1.52566959 7.66420576 0.10930694 -1.02759738 -0.54539734
Ga 0.06699309 4.66015871 7.64785353 -0.78052208 -0.03579142 -0.87361315
Ga 12.61378043 4.64742231 7.58599298 -1.62847236 -0.87645586 0.37981909
Ga 9.60344784 1.38640809 3.97580064 0.25531032 0.83719938 0.76509598
Ga 22.20783009 1.60610786 4.04661815 -0.38689918 -1.22814099 -1.09765668
Ga 9.61803862 4.64267575 3.88905605 0.59920303 0.51449349 1.80972044
Ga 22.17749536 4.62792738 3.87930270 0.67094464 1.11529762 -0.39415966
Ga 8.14294882 1.47813469 9.72988322 -0.77533285 -0.94604418 -1.11667957
Ga 20.60912320 1.57606524 9.55041982 -0.11687381 -2.30870677 -0.41299564
Ga 8.13895722 4.78033939 9.73856356 -0.18158208 -0.55308976 1.10339438
Ga 20.70857025 4.70827078 9.59604888 1.04040168 1.23087485 0.04343028
Ga 7.92780668 -0.06404701 1.81718355 -0.70263858 1.72632420 0.08431784
Ga 20.42162481 0.08211612 1.66638173 -0.34653632 -0.40371038 1.80084385
Ga 7.88364559 3.12727666 1.83250358 -1.55092875 0.18768044 -0.10929502
Ga 20.48097682 3.00249384 1.75499238 1.40398115 -0.59037689 -1.26666078
Ga 6.34027363 -0.05946760 7.42839107 -0.22524453 -0.83251704 -1.08235397
Ga 18.89716269 -0.04105835 7.55814838 -1.00732198 0.39682727 -0.33400497
Ga 6.47847356 2.99569459 7.71713294 -1.08246443 -0.21939955 1.00065023
Ga 18.83500505 3.12290550 7.53226250 -0.03055603 -0.85734070 -0.35492977
Ga 3.37128557 0.02810053 4.02414029 0.11654226 -1.07155231 -1.01094165
Ga 15.87445589 6.05915766 3.97286359 -0.43578330 -0.26406690 0.10576493
Ga 3.36307568 2.99437152 3.96261442 -0.09421417 1.03863671 -0.85890080
Ga 15.77647750 3.09453268 3.90585347 -1.42389282 2.29800993 0.04352848
Ga 1.84482128 0.04440508 9.83667397 0.78494035 0.64685976 -1.35044094
Ga 14.47782651 6.15411867 9.58553040 -0.75027845 -0.27625377 -0.81669579
Ga 2.00733808 3.16096821 9.55637183 1.02858075 0.28178573 -0.33194232
Ga 14.53514717 3.01570044 9.68256618 -0.62437923 -0.24122305 0.01932396
O 1.76888783 6.18540148 0.58941378 0.26190722 0.03425272 -0.56531406
O 14.68070820 6.14341828 0.64442793 1.65911143 -0.00942529 0.05394242
O 1.80644258 3.11111258 0.63261895 -0.65731305 -1.02145944 0.44524777
O 14.25646956 3.07829591 0.52058899 1.14964922 -0.86405734 0.06226701
O 0.38626253 0.05652540 6.29640089 -1.21121478 -0.00114943 -0.40441594
O 13.10369913 6.21818361 6.27892615 0.56526093 -0.80721130 0.14648473
O 0.43758399 3.03012055 6.28653268 0.37101864 -1.01358692 -1.68857937
O 13.00236939 3.05541470 6.31130583 -0.90819296 0.06824103 0.83168483
O 9.21327394 -0.12093866 5.19254547 0.04114349 -0.42483216 1.00386418
O 21.76911802 0.04698800 5.16368468 -1.21542063 0.85462550 1.38388512
O 9.28226256 3.04380254 5.10475901 0.81125597 0.26026960 -0.55971755
O 21.73710251 3.11233452 5.14075419 -0.00233490 -0.45675974 0.76844071
O 7.83968035 6.20163468 10.73297014 -1.12287645 0.37261344 -0.27168807
O 20.35246949 6.26156936 10.81819381 0.51853154 2.47535671 -0.18397779
O 7.74846703 3.14610923 10.88638279 -1.14444793 -1.86251479 0.71144855
O 20.29377082 2.91743307 10.66486951 -0.16592115 -0.33734660 -0.54784420
O 8.08300150 1.61738179 0.70570687 0.18295001 -0.04229368 -0.50061596
O 20.63791876 1.52098306 0.79565212 0.09943652 0.32757916 -0.97890434
O 8.16720850 4.65280225 0.54516707 -0.31447364 0.40013223 1.76060631
O 20.61602899 4.66023618 0.65791949 0.03218145 0.96568849 -0.63459659
O 6.74196603 1.42038822 6.36712555 0.31848509 -0.63161104 -1.42210855
O 19.31208075 1.56073653 6.28967220 -0.51159078 -0.20485988 1.26517054
O 6.71301165 4.62997321 6.39864808 -0.31743679 0.62670201 0.56894103
O 19.28227786 4.64378634 6.46277467 -0.32147583 1.02756768 1.04283699
O 2.91205795 1.52706483 4.94898967 1.04161499 0.23979366 0.64153282
O 15.42460361 1.55531227 5.05710462 0.38269260 0.29534902 -0.64596608
O 2.98797540 4.62572583 5.27353673 0.24932030 1.70871761 1.63250657
O 15.38362573 4.72790664 5.16439416 -0.32207558 0.63622781 -0.45621301
O 1.58974593 1.34954692 10.74493865 0.25562435 -0.19397419 0.16533084
O 14.09028618 1.50699030 10.91545677 -0.19384434 -1.34318111 0.87846240
O 1.73519268 4.67335433 10.92704540 -0.00796413 0.10570070 -0.28844993
O 14.16611889 4.70609860 10.89134186 -0.41361879 0.62887515 0.66047645
O 1.28883018 6.22687831 3.26534165 0.41091096 0.10261355 -0.55290041
O 13.87828544 0.10716364 3.27257104 0.37282815 0.07595703 -0.66982148
O 1.40440267 3.00718120 3.20782573 -1.15274930 0.56514294 -0.03820979
O 14.01379617 3.10591550 3.21332743 0.28627633 0.05702323 -0.79939744
O 0.06892334 -0.14068340 9.01299280 0.97366026 -0.56294824 -0.19420912
O 12.43341205 0.03494176 8.90030010 -0.63137088 1.24916253 1.41420307
O -0.08695643 3.14585754 9.01069843 0.17947670 0.96500144 1.16212034
O 12.57422728 2.98957969 8.89849726 0.18056896 0.15904603 -0.27167158
O 9.67095208 6.17869508 2.44149976 0.14149251 1.84040302 -2.10510776
O 22.33666249 6.26875423 2.57982460 0.19366190 0.38335638 0.23828616
O 9.73916189 3.13475529 2.55160802 0.17087668 -0.40455356 -0.50505403
O 22.05919673 3.09674861 2.47393205 -0.73250942 -0.12630621 -0.25265688
O 8.34095173 0.01537965 8.19398150 0.44080363 0.10746869 0.39552873
O 20.86060949 6.13571262 8.17132301 0.48666295 0.42904854 -0.56572127
O 8.26666188 3.12078444 8.25028877 0.27101135 -0.57824720 0.03848528
O 20.78195305 3.17273218 8.21362201 0.43807580 0.56991869 -0.80593317
O 7.79695811 1.47694696 3.24416774 0.83840652 -0.11351171 0.40451728
O 20.16418289 1.61223972 3.33361909 0.53363664 -0.48693902 -1.42901137
O 7.67461299 4.73551725 3.19406780 -0.05920382 -0.45414588 -0.21772232
O 20.16030991 4.71294540 3.37589540 1.18375242 -1.51383264 0.81666093
O 6.21157650 1.46471888 8.90785682 -0.53165316 0.64892442 0.02680030
O 18.83783286 1.58547197 8.91965164 0.72507912 -0.49754848 1.50107850
O 6.20125614 4.47643778 8.91820432 0.55844513 0.23844511 0.24614467
O 18.68836197 4.50975555 9.03944791 -0.32659805 -0.79440144 0.07083767
O 3.56624317 1.40765588 2.42653711 0.15584754 -0.95630650 -0.46906973
O 15.86784922 1.60133899 2.53233624 0.30644227 0.22234491 -0.54631957
O 3.46741133 4.66856120 2.47051510 0.32739773 0.27593003 1.10209437
O 16.01556789 4.72191593 2.43334178 0.35898515 -0.03783097 1.18466513
O 2.13717550 1.55814358 8.33523274 0.52196332 0.89385414 0.92374203
O 14.55755521 1.55421711 8.35501666 -0.54191790 0.87981867 -0.72533521
O 2.18067088 4.64803070 8.20781819 -0.86127347 0.44398268 -0.73937465
O 14.62962485 4.64840715 8.22342616 1.18920589 -0.75677869 1.27591427
O 12.24967957 1.56241827 1.46161128 0.59584746 -0.33242959 -0.78880667
O 24.54370807 1.50425282 1.50354912 -1.28653400 -0.84371219 -0.09279030
O 12.07974831 4.51345723 1.45285371 1.54419933 0.18288320 0.56762581
O 24.60368659 4.58526526 1.28101390 -1.17075206 -0.18747067 0.13387461
O 10.60415838 1.43628908 7.29377823 -0.58635414 -0.18217050 0.18937474
O 23.10800348 1.53110073 7.06837200 -1.05357723 -0.78762228 -0.60224972
O 10.71438307 4.88651937 7.19985183 1.36379665 0.22650825 -0.17761541
O 23.23759331 4.47681273 7.20308104 -0.69577267 -0.66799318 1.13891799
O -1.02585817 1.49035707 4.30985755 -0.80033545 -0.29562383 0.40395180
O 11.63312689 1.49280754 4.32229019 -0.93454428 -0.25567506 0.41101645
O -1.02549819 4.63150932 4.16682094 -0.04846313 0.19035386 0.21038434
O 11.49879408 4.67477587 4.17125178 -1.00804291 -0.09153006 1.20094485
O -2.41415668 1.55098024 9.92036201 0.60452600 0.03778163 -1.80400823
O 10.18491364 1.44211417 9.97394167 0.06942954 -0.33743244 1.41452104
O -2.37243481 4.58596763 9.99255067 -0.84855177 1.58264432 -0.28083056
O 10.11721561 4.67665056 10.00656371 -0.32233399 -0.04515768 -0.22297584
O 5.85347028 6.16951236 1.40216970 -0.94813410 0.87489061 0.11307077
O 18.43691101 -0.02890392 1.53120289 0.80624681 0.30273265 0.50960738
O 5.95292246 3.01706117 1.43212395 0.29352511 0.32272798 0.37014644
O 18.24194222 3.05207579 1.51923035 -0.27106779 2.56126561 0.80476673
O 4.39853576 6.21483012 7.16891143 0.15699308 -0.65150086 -0.81456247
O 16.92053360 -0.07010502 7.26414753 -0.76395042 0.34232443 -1.16911682
O 4.51578415 3.14488185 7.04824402 0.79409736 -0.25233943 0.26567848
O 16.92785279 3.02437446 7.25699737 0.51349095 0.17533884 -0.50750543
O 5.23296085 6.14855691 4.31550970 1.50642708 0.17746544 -0.22433164
O 17.93661944 0.06491882 4.29416467 -0.47002162 -0.82005408 -0.85248576
O 5.11550460 3.02915270 4.16772071 0.55636469 0.03073582 -0.11783205
O 17.82603169 3.07257330 4.16920222 0.20958337 -1.26295754 -0.07460601
O 3.82488976 6.18821896 10.02686494 1.00778562 0.25674061 -0.20480979
O 16.37735313 -0.07884838 9.96552614 -1.09958251 1.29165742 -1.11431264
O 3.82366535 3.33227459 9.96794508 -0.04263458 -1.01075843 0.20037491
O 16.36677345 3.20565452 9.91679392 -0.13145949 1.41726280 -0.26957562
159
Lattice="25.054926 0.000000 0.000000 0.000000 6.203258 0.000000 -2.794922 0.000000 11.484994" Properties=species:S:1:pos:R:3:force:R:3 Energy=-622.387849 Virial="-52.763365 -1.225778 -1.285346 -1.225778 -41.141394 -0.983121 -1.285346 -0.983121 -41.590123" Ga_vac_type=Ga_oct Ga_vac_tier=low Ga_coord=6 defect_vacancy pbc="T T T"
Ga 0.09312254 -0.13024013 4.64319810 -0.23165950 0.63421271 0.11616311
Ga 12.63680686 6.23827617 4.49971343 0.57973069 0.08478160 0.47338242
Ga -0.17065886 3.06258811 4.50957983 1.09027124 0.33182945 0.34484339
Ga 12.56559102 3.04731110 4.59536595 -0.04319916 0.87273100 -0.57014563
Ga -1.36343354 6.22113998 10.31288014 1.08630583 0.40028665 -0.25974845
Ga 11.18338900 6.14303053 10.13467018 1.20448042 1.04062745 0.38393673
Ga -1.36329361 3.12502930 10.24493412 0.45474640 1.34610890 -0.45797599
Ga 11.14152052 3.14614551 10.26309138 -0.32473728 -1.51338663 -1.50034828
Ga 11.07071714 0.02676923 1.14636502 -0.45351855 0.71221646 0.00975810
Ga 23.60726746 0.04005427 1.22208079 -0.00285246 -0.23546333 1.44022392
Ga 10.95980019 3.07603800 1.03635472 1.21393456 0.18414445 0.20608435
Ga 23.58835490 3.04835446 1.04148079 1.13375353 0.23664161 1.21424833
Ga 9.69991489 6.14936423 7.01021539 -1.45690495 -0.20893129 1.24644240
Ga 22.31822717 0.18067860 7.01948842 -0.92132048 -0.82796954 0.00944244
Ga 9.70842459 3.14762374 6.82265631 0.39203718 -0.63266757 0.53801183
Ga 22.20357452 3.10030829 6.92983292 0.25013420 0.02553685 -0.80026043
Ga 6.29020854 1.54641803 4.53825029 -1.03191947 2.03645180 0.66629671
Ga 18.72120486 1.42214353 4.59297973 -0.63481435 -0.02735469 -1.72297459
Ga 6.33104625 4.63063588 4.63137352 0.30768579 -1.16298422 0.31537521
Ga 18.87707744 4.62750240 4.51306287 0.81691112 -0.21279837 -0.54221328
Ga 4.86784036 1.46170642 10.35219158 -1.17038797 -0.24192613 -0.04624940
Ga 17.55320299 1.45826493 10.21865024 0.77545217 -1.64639125 0.19428515
Ga 4.76578679 4.62526500 10.45187779 2.10303101 -1.01421204 1.14671924
Ga 17.50156317 4.66337412 10.39980021 0.02446983 1.06659483 -0.36383197
Ga 4.75984354 1.59861693 1.12232282 0.69841040 0.17868508 0.49907003
Ga 17.36866165 1.62047156 1.18387267 1.12040135 -0.78080180 -0.50661878
Ga 4.83944391 4.69772989 1.09239804 -0.48628493 1.15934307 -0.38090268
Ga 17.46463148 4.75976318 1.21215388 1.31877334 0.93975389 -0.23996683
Ga 3.48082983 1.63247648 6.95011596 -0.41988193 0.90321766 0.08463331
Ga 15.96723591 1.44223283 7.03617525 -0.00115678 1.23643113 1.20094507
Ga 3.46102236 4.57232079 6.77943415 0.33825939 0.51435901 0.10844452
Ga 15.83144377 4.74605477 6.94937343 -0.71577174 -0.05676036 1.01289883
Ga 1.51631718 1.64245934 1.81849577 0.83152923 -1.64075328 0.03100813
Ga 14.07438261 1.57972598 1.87289776 -0.84889455 1.55293083 0.74144808
Ga 1.49190105 4.73285215 1.89043981 -0.06168275 -0.12406556 0.64081283
Ga 14.05982220 4.71304872 1.76689570 -0.35077835 0.27014590 1.66454695
Ga 0.11406784 1.54941347 7.58981183 -0.18322714 -0.61329866 0.24627129
Ga 12.63232165 1.57926776 7.60980548 2.04161204 0.51622846 -0.47295131
Ga 0.12648339 4.58540486 7.52257615 0.41065339 -0.61070957 0.14657026
Ga 12.68778077 4.75794905 7.61240192 -0.31884601 -0.35619610 -0.82258730
Ga 9.63563790 1.53423371 4.01014610 -0.44261401 -0.87848950 0.15801506
Ga 22.01209251 1.58688118 3.90290067 0.09563813 -0.43079830 -2.14733020
Ga 9.59592403 4.56743224 3.88457352 -0.73462972 0.00510276 0.83003878
Ga 22.16316725 4.61062475 3.90968284 -0.92834261 -0.15403258 -1.11436087
Ga 8.03440853 1.50967552 9.69880137 -0.77552228 0.02814615 0.28856121
Ga 20.67206073 1.56074446 9.71526976 -0.98800893 0.61004061 -0.38018499
Ga 8.16580760 4.68342187 9.73750186 0.24783126 0.51215067 -3.02469452
Ga 20.65657894 4.58823699 9.82651314 -0.11919406 0.15750042 0.22191081
Ga 7.75701515 0.04129478 1.84633295 0.75686342 1.00952799 0.47700507
Ga 20.40981448 -0.02753928 1.79599441 -0.76303145 1.00020179 0.15152440
Ga 7.78829292 3.13740584 1.78524571 1.20280659 -0.64393801 -0.47426562
Ga 20.36710257 3.16423770 1.85806209 0.98502579 -0.39966630 0.47562142
Ga 6.41744397 -0.09664724 7.62349785 -0.07430197 1.31540672 -0.74819627
Ga 6.38392914 3.22143615 7.62470686 0.50917676 -1.41416119 -1.77760365
Ga 18.88984688 3.04056548 7.52032924 0.87554102 0.51057160 0.33567682
Ga 3.28566063 -0.08431792 3.89000570 0.28244785 -0.28004309 -0.15244215
Ga 15.81941518 6.16259136 3.90193693 0.30406260 -2.05172144 -0.87037666
Ga 3.38326164 3.04659137 4.07861756 -1.16940063 -1.19983408 -0.84675893
Ga 15.73642738 3.18162788 3.99239855 -1.74901615 0.92882111 0.80471934
Ga 1.94044675 0.00367887 9.77260735 -0.82902359 0.24707933 -0.28023169
Ga 14.49429582 6.34711570 9.66903850 -1.72325050 -0.65868235 -0.75872092
Ga 1.94299646 3.07558165 9.71799682 -0.77410696 -0.40342737 -0.30425924
Ga 14.32223374 3.05811992 9.67801213 -0.03971857 -0.44754950 0.86076154
O 1.90953324 6.11672159 0.57518595 -0.17823384 0.89509133 1.11042900
O 14.40536664 6.22582976 0.63728366 -0.23479737 0.91844225 -0.34688365
O 1.93789381 3.20931938 0.63153289 0.59688448 0.30330085 0.40823524
O 14.42402341 3.06854347 0.71040128 -0.09790927 0.91745337 -0.97231281
O 0.47629926 0.12676123 6.40869309 0.18479915 -1.98217590 -0.73614234
O 12.96445974 6.17484447 6.31728422 -0.86152957 1.11291967 0.95704434
O 0.60465870 3.04041660 6.37481420 0.63646140 -0.26733283 0.99959913
O 13.08245303 3.01503420 6.33119866 -0.81734716 2.03319620 0.28523312
O 9.35568209 -0.09475903 5.20568294 0.09166983 0.78581866 0.09983712
O 21.70872836 0.03577490 5.24256712 0.29123728 -0.32733960 -0.94370389
O 9.16372593 3.22156808 5.16319032 0.54352502 -0.24105804 2.09151292
O 21.81404072 3.08450372 5.12684240 0.07728139 -0.14600964 0.49977914
O 7.80836816 6.27405502 10.86920920 0.07779055 0.55228807 -1.17305618
O 20.35458955 6.17064015 10.81144396 -0.74151619 -0.12752814 0.15842898
O 7.86936500 3.13311750 11.03188555 -0.46171480 -0.71515832 0.98325171
O 20.39159680 2.94848919 10.83857634 -1.23634866 0.04308088 -1.03430207
O 8.10606704 1.59452592 0.73961359 0.80322941 0.52675534 0.30214558
O 20.71120045 1.60587749 0.61876804 -1.00759512 0.95666991 0.51191131
O 8.12692025 4.67892661 0.63680972 -0.33139753 -0.65607360 0.55199602
O 20.82632233 4.71009972 0.65978288 0.75596802 0.14539731 0.98442011
O 6.77302635 1.63403736 6.40557567 -0.37358523 0.37781656 -0.31895858
O 19.31180964 1.45886415 6.42823791 0.25370449 -0.18593784 -0.17179156
O 6.62814713 4.66464044 6.40180436 0.89106053 -0.32489053 0.33491459
O 19.41102760 4.59220918 6.38824924 -0.15075388 1.41635253 0.59165593
O 2.96532587 1.45473490 5.06945379 0.79139254 0.10357997 -0.20548297
O 15.34300299 1.59367450 5.15592410 0.13065466 -0.23729853 0.16239515
O 2.96300712 4.58167703 5.16269453 -1.49300515 0.24762902 0.95302375
O 15.54396639 4.60307033 5.10715062 -0.98875316 0.13926973 0.82856323
O 1.57234642 1.49801756 10.84733125 -1.19202503 -0.81078022 -1.08814523
O 14.11861023 1.56098556 10.88636213 -0.01854376 0.30981750 -0.28740120
O 1.46749934 4.71889286 10.87476637 0.52454371 -1.60234573 -1.83511625
O 13.94405068 4.60704291 10.81421770 -0.41792499 0.69415738 -0.62617758
O 1.28889168 6.23271033 3.23328884 -0.49007706 0.94417615 0.11946105
O 14.00859781 -0.02308925 3.28522098 0.34170603 0.29893724 -0.63610385
O 1.45618453 3.22609166 3.34155602 -0.59924420 -0.02486749 0.52105217
O 13.92985604 3.16904106 3.28503245 -1.14942883 0.64132913 -1.23774824
O 0.02981116 0.01591991 9.00520817 -0.25343520 0.77375602 0.31828606
O 12.65005728 0.06761562 8.96669702 1.07714711 0.41032193 -0.45289516
O -0.03383303 3.09165018 8.88351663 -0.56002296 0.08283656 -0.36739396
O 12.51721608 3.14961364 8.96484431 -0.08058156 -0.42062246 0.92401413
O 9.79539637 6.25723966 2.54189858 0.16984713 -1.02039316 0.50244103
O 22.18727844 6.20937128 2.59736226 -0.43711669 0.45939401 -0.96517043
O 9.78005364 3.29206165 2.46885740 0.96782558 -0.63946363 0.50178172
O 22.25983901 3.10290337 2.61167282 0.09375269 0.40780997 0.30758760
O 8.32290464 0.05327396 8.22418725 -0.78681894 -0.69071285 -0.51512694
O 20.91363602 6.18314937 8.27500465 0.60252631 -0.44379169 0.85816041
O 8.27975537 3.16931935 8.29992146 -0.16571112 1.22307296 0.36335904
O 20.99238462 3.14207434 8.31688028 0.01387430 1.29374807 1.31759587
O 7.69169443 1.47334791 3.28606071 -0.87094103 0.97788224 0.30304506
O 20.16885099 1.58698426 3.28334192 0.59016652 0.05068494 -1.54904165
O 7.67803458 4.72166041 3.20503380 -0.50158874 -0.11737664 -0.47730692
O 20.28036456 4.79750790 3.30494629 -0.94158109 0.66985913 0.32519481
O 6.28958169 1.51563894 8.91122720 -0.96376266 -0.89716334 0.23988313
O 18.85812608 1.65946363 9.00758982 -0.28703697 -0.32380910 0.02083051
O 6.31247365 4.63043410 9.04393330 -0.06241820 0.37123081 -1.21495421
O 18.95379026 4.53383794 8.97489595 1.10981848 0.26848797 1.29636934
O 3.44437512 1.60815887 2.40741813 -0.32772568 -1.93209900 0.07864012
O 16.00345808 1.60841132 2.54992449 -0.14855155 -0.19057396 0.98181057
O 3.43651956 4.62111077 2.59544810 0.57291737 -0.32675030 0.77134684
O 15.95995771 4.62433822 2.39079141 -1.34431516 -0.80795710 -0.77871645
O 2.12598726 1.54801412 8.27430662 0.59529523 -1.37491397 0.44988943
O 14.65001552 1.56723957 8.26411892 0.65579353 -0.68535558 -0.03227032
O 2.11384860 4.60407355 8.26936579 0.09082493 0.91808901 -1.11380697
O 14.50414780 4.68855536 8.34509159 -0.17854539 -0.26468425 0.38632320
O 12.06206598 1.58902038 1.44847892 -1.01823301 -1.38792770 0.08083487
O 24.61593483 1.57875304 1.45440889 -0.03302950 1.01349634 1.06759135
O 12.15200173 4.54032566 1.50490289 0.69618297 -0.33898801 -0.89812639
O 24.67753095 4.63718140 1.49055780 1.09805915 -0.43820036 -0.82324997
O 10.62859365 1.57169606 7.21077821 1.05912217 -1.50274558 -0.54249079
O 23.27915852 1.59849794 7.26469001 1.05297461 1.28539689 0.38934506
O 10.72024652 4.68929835 7.18837722 1.76517338 0.02113492 0.29262274
O 23.21590591 4.68355445 7.30627078 -0.86113362 0.20346267 0.41251079
O -0.97648659 1.54661029 4.45140153 0.70862731 0.96179791 0.73401209
O 11.49177112 1.61544336 4.27446458 -1.43688053 -0.55534237 -0.56978349
O -1.10867630 4.65568117 4.18953896 -1.23718757 0.58779652 -0.41212092
O 11.36353140 4.51512868 4.27765391 -0.07902896 0.77396970 1.90871820
O -2.45265415 1.49266197 9.97359400 1.02368188 -0.34739483 1.86169470
O 10.07097885 1.49147614 10.02189313 -0.32210062 0.31552378 0.09699717
O -2.35863056 4.73120496 10.02969307 0.60046038 -0.23036986 -1.09671831
O 10.22088684 4.63217698 10.00277237 0.40459661 -0.88737999 0.45438033
O 5.84616209 6.35911559 1.47635788 0.85005113 0.70380611 1.59916289
O 18.23596297 0.05843329 1.50369910 0.36625892 -1.04627321 0.38809228
O 5.82919480 3.13255931 1.52627514 0.95185451 -0.62634510 0.71362019
O 18.37114929 3.15640856 1.42361632 0.39393686 0.45643764 -0.70201775
O 4.45569889 6.08564317 7.21405950 0.08845631 0.19141715 -1.09106823
O 16.91122538 0.06186802 7.33584022 0.50239177 -0.76560642 -0.61587950
O 4.41681781 3.08587574 7.26092130 -0.17635217 0.42932038 0.46276908
O 16.86866793 3.03823656 7.27314382 -0.35830027 -1.03653114 -0.49581482
O 5.40163064 6.14082716 4.24009523 0.27958834 -0.82550060 -0.86180690
O 17.88161995 0.00026315 4.16170727 -0.86369159 0.01363644 -0.93601277
O 5.22819179 3.08815926 4.27053134 1.62490149 -2.09066812 0.28935811
O 17.70942954 3.13638727 4.32008391 -0.38723757 -0.20511951 -1.15328612
O 3.79414777 6.16911727 10.05301977 -0.29222394 0.21922335 -0.82242290
O 16.41959996 -0.02723728 9.97946353 0.02158200 -0.14620841 0.16297147
O 3.81161515 3.16638783 10.07874265 -1.84415530 -2.54203055 -0.37040422
O 16.47511512 3.09548514 10.05796099 -0.04213586 1.61122888 -1.56441373
159
Lattice="24.766016 0.000000 0.000000 0.000000 6.131728 0.000000 -2.762694 0.000000 11.352560" Properties=species:S:1:pos:R:3:force:R:3 Energy=-622.879179 Virial="-52.448453 0.616264 -3.560161 0.616264 -46.660227 -2.957712 -3.560161 -2.957712 -42.421110" Ga_vac_type=Ga_oct Ga_vac_tier=low Ga_coord=6 defect_vacancy pbc="T T T"
Ga 0.07126007 0.00279521 4.45929574 0.28098972 0.28054675 -0.02539020
Ga 12.40576495 6.13531371 4.50878266 0.47832503 -0.83891776 -0.01312257
Ga 0.01644622 3.00017887 4.48978951 -0.41176875 -0.66151477 0.87220269
Ga 12.38907642 3.16101512 4.48413980 0.56698859 -0.94097255 0.30865601
Ga -1.49194796 6.15860211 10.14898963 -0.45079980 -0.85604016 0.65329254
Ga 10.95559115 6.15095158 10.24436207 -0.84850318 -0.35544701 -1.16564929
Ga -1.39591719 2.97082492 10.26142540 -0.65054358 -1.35316022 1.90636569
Ga 11.02010989 3.12331391 10.18431634 0.86010507 0.44106987 -0.86925600
Ga 11.03011792 -0.06087824 0.99215634 -0.12819002 0.88937653 1.67110521
Ga 23.35205079 0.02580384 1.13752863 -1.11944375 0.80987106 0.24171251
Ga 10.95617440 2.92927508 1.20772693 0.42717940 0.25599741 0.08631005
Ga 23.35944763 3.09700311 1.08533159 -0.35889207 -0.11498218 0.20208015
Ga 9.62370231 6.12429290 6.86351344 -0.27368255 0.65059413 0.03199943
Ga 21.90437180 0.02834190 6.89795477 0.83351252 0.33104260 0.70404777
Ga 9.67855568 3.07889462 6.85018864 1.31157516 0.95365044 -0.64191651
Ga 21.91673607 3.02874988 6.82288198 0.87874264 -0.80355333 -0.05353851
Ga 6.23323852 1.59744268 4.46717613 -0.44590498 0.43279941 1.17833601
Ga 18.64269489 1.51433024 4.48832203 -0.11251735 1.17674353 -0.57584802
Ga 6.19126562 4.58954110 4.52769159 0.94618603 0.70264573 -0.71673458
Ga 18.56511791 4.57338467 4.55927916 -0.56506739 0.18289322 0.83600335
Ga 4.87558897 1.57558567 10.16479301 -0.19489605 0.29278998 0.85016646
Ga 17.32849301 1.55846541 10.19641096 -0.09639070 0.18761446 -0.74148297
Ga 4.87629768 4.51388145 10.16476027 0.28322656 0.76455406 2.56150321
Ga 17.23937761 4.62383262 10.10136564 -0.15842638 -0.81288435 1.43927403
Ga 4.80828253 1.54981815 1.14126953 -0.04542151 0.05047733 0.34220748
Ga 17.20990837 1.60983162 1.11440193 -0.93260082 -0.55220232 -0.23241548
Ga 4.76396807 4.64524376 1.17296216 0.10534979 0.36457171 0.42972802
Ga 17.18452184 4.63298952 1.18143034 1.33407750 0.23444500 1.16303803
Ga 3.43852665 1.46247178 6.87190810 -0.50992200 0.23090729 -0.74637851
Ga 15.80303255 1.51282778 6.80826800 -0.50154975 -0.21956384 0.13219648
Ga 3.40435214 4.65098855 6.86618204 -0.19442428 0.63478996 0.29908705
Ga 15.73783327 4.52289222 6.79707158 0.55132946 -0.88823368 -0.03390449
Ga 1.59498618 1.49243542 1.85096951 -0.50301358 1.51640462 -0.63388101
Ga 13.93928492 1.45495618 1.75867467 -0.37818599 -0.33127970 -0.78259719
Ga 1.52672860 4.58638253 1.76972274 -0.73077205 -0.45904299 -0.34008302
Ga 13.92972030 4.64011957 1.82844571 -1.14382054 -1.17803036 -1.03320422
Ga 0.18629535 1.52257866 7.49455130 -0.43615032 -0.36149977 -0.09839669
Ga 12.42858206 1.53932070 7.34621728 -0.20298726 0.84375979 0.33718622
Ga 0.20112785 4.68854070 7.45466532 0.44127674 -0.45415682 0.00909339
Ga 12.56808759 4.61487627 7.47761550 0.38110709 0.71793109 -0.56378743
Ga 9.40500986 1.55355623 3.84852600 0.16383849 -1.52708383 0.57663082
Ga 21.94510895 1.48240204 3.88497563 -0.33460909 1.47807850 -0.34827045
Ga 9.50470446 4.64487144 3.83457299 1.61001990 0.89850618 0.53357787
Ga 21.85931590 4.67610832 3.89727032 -0.28962707 -1.75100116 -0.83349484
Ga 8.05781455 1.43212036 9.47531564 -1.44089555 0.75627419 0.95423632
Ga 20.41619791 1.58307470 9.54608615 -1.32158691 -0.88888989 0.15482170
Ga 8.09857012 4.62763678 9.51179290 -0.47652174 0.72847385 -0.36644041
Ga 20.57112136 4.64020277 9.55028847 2.13416832 0.11454109 -0.78346841
Ga 7.69073802 0.00756964 1.78675938 -0.06706406 -0.18196804 0.88252484
Ga 20.10795967 0.08459530 1.84208465 0.88864727 0.56685127 -0.31585162
Ga 20.01231392 3.08395922 1.75657296 -0.13613573 -1.34782375 -0.38414491
Ga 6.31155736 0.04114836 7.41216105 -0.37115143 -0.39428362 0.32616418
Ga 18.69446141 0.00483302 7.40933932 -0.48580768 -0.35910790 0.24062691
Ga 6.28338143 3.04952652 7.43989335 -1.27958686 0.61822643 -0.24946964
Ga 18.73756990 3.05554406 7.45887952 0.54490265 -0.97752464 -1.56833959
Ga 3.30104838 -0.00725071 3.90772473 0.46581721 -0.43821390 0.02543251
Ga 15.65965449 6.13614352 3.90845179 0.95716664 -0.11125491 -0.89132654
Ga 3.31575875 3.16189498 3.88013755 -0.54663668 -0.39957279 0.62935300
Ga 15.72320787 3.12057715 3.94120861 -0.77881742 -0.62889710 -0.26083698
Ga 1.90773793 -0.07479435 9.57741230 0.66583558 -1.47891515 -0.41585115
Ga 14.25222620 6.07356930 9.61696727 -1.32868801 0.37499580 0.30666693
Ga 1.91201316 3.06337212 9.61030761 -1.36626750 0.64457624 0.40412754
Ga 14.30960904 3.16732289 9.56420980 1.04364693 0.59421267 -0.65335123
O 1.93117711 6.11235035 0.68476765 -1.88786658 -1.29296014 0.55313667
O 14.29932344 6.18735518 0.56086630 -0.34835179 0.62153745 0.95881972
O 1.89054489 3.08353146 0.60738292 -0.44803136 1.54737448 1.62352612
O 14.24202601 3.09227433 0.59614466 1.38109123 -1.10052228 -0.76389417
O 0.44712678 -0.04297742 6.35788450 0.18112855 0.92864701 -0.65333588
O 12.94972389 6.14210778 6.28131816 0.78995722 -0.40635211 -1.50176197
O 0.43260554 3.11134207 6.33460889 0.61140257 0.04693017 0.10795444
O 12.78776894 3.14314489 6.24587480 -0.79874353 1.26057214 -0.50683168
O 9.09854608 -0.04058553 5.02174906 1.44768964 0.15095189 0.39397788
O 21.49309645 -0.04119694 5.05198971 -0.50298408 -0.29537015 0.37182021
O 9.19546940 3.03589309 5.02317997 1.06597757 -0.35507400 -0.15698539
O 21.53792049 3.01878387 5.09044089 1.48369355 0.65795771 -0.97882927
O 7.73701666 6.18503327 10.71538352 -0.06541402 -0.78785629 -0.01948605
O 20.24978871 6.06351028 10.73965088 -0.27167119 -0.00940467 -0.37803930
O 7.70406782 3.12418586 10.73476726 0.62799965 -1.26777403 -0.71293130
O 20.17374237 3.05221718 10.73671266 1.61313344 -1.04019600 0.05099066
O 8.05656014 1.53097547 0.67154327 0.75253101 -0.67521550 -0.85509665
O 20.51839509 1.52643892 0.59409917 -0.44145922 -1.16383292 0.58211621
O 8.14712049 4.58180266 0.60988212 0.94918253 0.40502887 -0.78989084
O 20.42802432 4.63786497 0.55785907 0.56663947 -0.16943037 -0.32567242
O 6.72516276 1.52094685 6.29019101 0.75918941 -0.22053088 0.67825767
O 19.05907947 1.55951921 6.35184314 -0.60708084 -0.65259881 0.49728242
O 6.66564704 4.59959400 6.29229381 1.81701312 -0.66141503 0.86399016
O 19.02370660 4.55813086 6.24117082 -0.70044869 -0.38410543 -0.73105375
O 2.84328411 1.46846795 5.01838599 -0.17114133 -1.41632998 -1.07189037
O 15.31562455 1.49682746 5.05980544 0.29059989 -0.40210797 -0.66405125
O 2.90804006 4.61379361 4.97088710 0.98595200 0.88101849 1.90091846
O 15.29747074 4.51744348 5.10208854 -1.57764802 -0.08323154 -0.21956466
O 1.51909850 1.46928742 10.74414446 -0.31805359 -0.35311080 -1.39172460
O 13.99933053 1.50545170 10.76952769 0.20238518 -0.08400022 -0.08641692
O 1.53426373 4.60141045 10.75189614 0.37254630 0.64038503 0.32499117
O 14.00632602 4.57759757 10.74472367 -0.23821473 -0.99179682 0.71331531
O 1.47765938 6.12456286 3.16541579 -1.33433354 -0.03279212 -0.24084020
O 13.75674123 -0.00955756 3.19899889 -0.73035985 -0.37113952 0.31489582
O 1.32790315 3.05069562 3.20384034 -0.71261523 -1.37155186 0.99851157
O 13.75428362 2.96822738 3.25371848 -0.31498134 1.29543169 0.01563110
O -0.02215819 -0.03806202 8.86689508 -0.71673190 -0.09878313 0.25118755
O 12.42160106 -0.03814115 8.85555871 0.90691525 0.15927580 -0.28843990
O -0.03090691 3.08067764 8.85656812 0.13686785 0.15839600 -0.37011373
O 12.38288416 3.08145003 8.89665920 -0.41369308 1.46371339 -0.71303504
O 9.58974666 6.13722819 2.40831589 -0.66244184 -1.85622739 -0.60764502
O 22.00466677 6.14696224 2.47195054 -0.77782020 -0.24341679 0.82747384
O 9.68317610 3.08441111 2.51920360 -0.36871032 -0.70894244 0.65069962
O 21.99493079 3.05503889 2.53219096 0.30295577 1.12992230 -0.48270422
O 8.19460669 0.04880812 8.12596371 -0.53907931 -0.20445350 0.87318360
O 20.62494575 6.07945792 8.08896939 0.62110386 0.18603408 -0.26462567
O 8.20842365 2.95069212 8.11941365 0.15094172 0.45499816 -1.29203930
O 20.57223447 3.04642056 8.11019506 0.17020919 0.76543793 -0.13099891
O 7.50021485 1.52568086 3.12559604 -0.46680835 -1.10671538 0.18685589
O 19.89565695 1.53894466 3.12200629 0.83601423 -0.58912485 0.79856605
O 7.59779106 4.67947146 3.20620334 1.09117273 0.11302664 -0.62659002
O 20.03069295 4.64509178 3.24719884 0.93764434 0.10021175 0.99483648
O 6.24230400 1.52456291 8.87168101 -0.02048606 0.57029794 -0.24359609
O 18.55932414 1.57994761 8.94402597 -0.30580073 -0.48902569 -0.70445096
O 6.26925911 4.62483296 8.89533372 -1.32721521 -1.07171995 -0.30580942
O 18.55305118 4.65968119 8.87184747 0.16898436 1.07368512 0.98509290
O 3.41802862 1.52380613 2.47290836 0.53690057 1.43549967 0.23188327
O 15.83184469 1.51779480 2.46275467 -0.09984668 -0.97527334 -0.16340505
O 3.34561401 4.58738172 2.34339842 -0.22032369 -0.84636273 -0.72784245
O 15.79132193 4.55466222 2.41423659 0.85242033 -0.65219628 1.17369609
O 2.13270498 1.51353441 8.14080268 -0.34771636 -0.17244073 0.15412785
O 14.47773014 1.58382827 8.16971812 -0.51451697 -0.99359544 -1.12652576
O 1.93927178 4.61410493 8.15473560 -0.94546119 0.04000928 -0.65802344
O 14.39741520 4.53992052 8.15132477 -0.16988734 1.55252947 0.13279110
O 11.98253748 1.62490481 1.42179975 0.61068408 -0.75337147 0.79091734
O 24.35586063 1.57142361 1.48910142 -0.49989068 1.24837578 -0.30263308
O 12.01577024 4.58783092 1.44033876 0.88153044 0.36813149 -0.36733811
O 24.39704125 4.63561861 1.46782869 -0.11242712 0.82740516 -0.94788938
O 10.50727379 1.56021900 7.16247398 -0.56106342 1.19560467 0.90429745
O 23.01886357 1.56988749 7.15170890 0.40038888 -0.43825538 0.48481052
O 10.54593041 4.62301841 7.05480394 -0.92158613 -0.03495472 0.42624382
O 22.98062465 4.57463603 7.20506137 -0.20501821 0.81238080 -1.35022383
O -0.92854470 1.51974300 4.13188831 -0.49219148 1.97024283 -0.02728144
O 11.44469252 1.50141872 4.22818544 -0.08510104 0.61607818 -0.30521338
O -0.93256465 4.61486446 4.21990909 -1.11804127 0.42593484 -0.14304244
O 11.44792789 4.59319328 4.34207265 0.32964752 -1.28065810 0.16291735
O -2.36854976 1.45847895 9.88512451 0.59670311 0.28494502 -0.52482497
O 10.06131784 1.52429156 9.86836729 -0.04526090 -0.54431454 0.81034365
O -2.32814074 4.62231841 9.91168240 0.04098587 1.60088000 -0.97718635
O 9.95068010 4.61282298 9.88655794 0.67055082 -0.51685081 0.75965530
O 5.82331713 6.03950441 1.46727306 0.00383453 0.81721416 -0.53260447
O 18.24189618 0.02747042 1.49929102 0.54417936 0.79043403 -0.24893408
O 5.72356765 3.01350478 1.38289519 0.11071747 1.28843809 0.28351756
O 18.16901285 3.16053083 1.37886480 1.46043317 0.63754035 -1.82370156
O 4.31323691 6.05577797 7.10519297 -0.26384163 -1.32676043 -0.14367674
O 16.74004703 0.05744615 7.07888106 1.27316339 -0.43756572 0.76649135
O 4.40866866 3.04698602 7.17413341 -0.10872651 0.00434511 0.57583507
O 16.82005142 2.95509001 7.13249131 -1.30134965 0.74415190 -1.51459642
O 5.28583502 6.08038619 4.25216697 -0.11927264 -0.45223821 -0.53328389
O 17.61247646 0.04694125 4.22844236 -0.14231645 -0.72881605 0.11672553
O 5.14178374 3.08445476 4.30479092 0.61991910 0.55053150 -0.34855445
O 17.56782520 3.08397613 4.22034778 -1.04537288 -0.04233783 -0.76780031
O 3.83793132 6.10006265 9.91223731 -0.46445692 0.44711244 -0.57410964
O 16.25448216 -0.03991206 9.98832784 0.07375820 -0.17906801 0.82779744
O 3.78548756 3.06150785 9.93572302 -0.07079883 0.69408222 1.87701804
O 16.14943811 3.13031431 9.96042928 0.15917154 1.31527364 0.23861395
159
Lattice="24.919064 0.000000 0.000000 0.000000 6.169620 0.000000 -2.779767 0.000000 11.422716" Properties=species:S:1:pos:R:3:force:R:3 Energy=-623.720438 Virial="-54.882149 2.745641 -4.713253 2.745641 -48.355978 -3.019794 -4.713253 -3.019794 -41.181307" Ga_vac_type=Ga_oct Ga_vac_tier=low Ga_coord=6 defect_vacancy pbc="T T T"
Ga -0.01090732 0.05822236 4.68616348 -1.22835530 -0.72579120 -0.03152732
Ga 12.49905026 6.17293776 4.52167179 -0.38005164 -1.04895354 -0.62501540
Ga -0.00855523 3.14933993 4.52766088 0.00039746 0.63006205 -0.95509636
Ga 12.56500206 3.08302523 4.35394419 -0.50409512 0.29452083 0.59648484
Ga -1.33043292 6.17168354 10.30740597 0.09463427 -0.64413736 -0.04901236
Ga 11.04735806 6.25442462 10.32009485 -0.20458346 0.72376119 0.89863857
Ga -1.45512094 3.07671864 10.29113004 -1.10270666 0.54875919 0.56984004
Ga 11.16628030 3.06091507 10.20449374 -0.59906180 -0.62749248 1.02989088
Ga 11.05797326 -0.02002034 1.19440623 -1.44838493 1.45993926 -0.24703972
Ga 23.49972778 0.08599752 1.06325679 -1.23483213 0.67476980 0.34919717
Ga 11.09272006 3.14854492 1.13901451 -1.02656503 0.15719535 0.31225893
Ga 23.51159545 3.15641916 1.14408458 1.11809542 -0.25733110 -0.72582334
Ga 9.66236232 6.16090570 7.00215136 0.26403945 0.57541067 0.83952568
Ga 22.15511178 -0.00117494 6.89698479 1.09055459 0.09916526 0.91167215
Ga 9.66152246 3.17924427 6.83781942 0.33008637 -0.32611859 -0.28089404
Ga 22.11138453 3.08391920 6.93345000 -0.64987586 -1.20076742 0.73558041
Ga 6.24288151 1.60317770 4.44527348 -0.33920221 -0.05668234 0.59239488
Ga 18.73213812 1.55857422 4.65717925 0.70728141 -0.41595381 1.91950491
Ga 6.25773777 4.58902125 4.43508344 0.43329077 1.17940504 0.74467630
Ga 18.71818651 4.58416284 4.60774877 -0.68516029 0.86518575 0.88237323
Ga 4.84005311 1.59243262 10.26758712 -0.72894750 -0.02189382 -0.41623754
Ga 17.36368461 1.52877547 10.16315808 0.70954139 0.09044017 -0.66926249
Ga 4.83557388 4.66751826 10.20871504 -0.33980306 -0.55093804 -0.69310756
Ga 17.32123602 4.56215308 10.23017338 -0.60648216 -0.35904419 0.66461701
Ga 4.84830572 1.60179989 1.22066657 -0.63179439 0.82235095 1.05503396
Ga 17.29419452 1.54278957 1.16162650 -0.46305562 -0.61456409 -0.94899546
Ga 4.88530282 4.67407787 1.18478974 0.67758344 0.09898995 -1.20798462
Ga 17.30015814 4.68304178 1.18286243 -1.23542487 -0.50049572 0.99715524
Ga 3.42187984 1.56919566 6.85551099 0.46337500 0.76550085 -0.53645405
Ga 15.95175899 1.57231358 6.89065554 -0.66920998 -0.70104468 0.65598972
Ga 3.39185544 4.60111734 6.81360221 -0.19321345 -0.00908858 0.07328781
Ga 15.91933889 4.67857021 6.89358425 -1.43215587 0.08526303 0.97382832
Ga 1.57179119 1.50691326 1.77669854 0.82806428 0.26332319 0.00901740
Ga 14.01403229 1.56582245 1.86229055 0.54495643 -0.93548747 -0.58590211
Ga 1.51767871 4.62447623 1.74822144 0.20833951 0.39749988 -0.56943818
Ga 13.97574618 4.65865034 1.81305028 -0.41848748 0.27501898 0.23985931
Ga 0.17894160 1.52435733 7.46160886 0.81532161 0.25375062 0.19387443
Ga 12.60625728 1.56102228 7.49621968 -0.17422705 0.53380871 -1.85108576
Ga 0.17546843 4.60991402 7.50932640 0.24742147 1.02574031 0.93310729
Ga 12.65292347 4.58159319 7.58346463 -1.72600192 0.22036334 -0.93099854
Ga 9.49401867 1.57809705 3.90683385 -1.96108392 -1.34507338 1.44297604
Ga 22.07033965 1.48178109 3.93260801 -1.44772152 0.22124796 0.37960759
Ga 9.52091854 4.59841105 3.84047801 -0.73847838 -0.43983768 -0.39927364
Ga 21.94483197 4.60016783 3.88450039 0.55561550 0.05795174 -0.91227317
Ga 8.07888682 1.64434225 9.58271199 -0.99480825 -0.29047490 -0.33877137
Ga 8.13423348 4.58937386 9.61364415 1.01217007 -0.21348192 2.12607366
Ga 20.56556061 4.63346480 9.71051720 -0.42385012 1.98855938 -0.39392898
Ga 7.72671083 -0.08095535 1.85669681 0.11743696 -0.24241386 -0.37184858
Ga 20.29410917 -0.00340262 1.87161672 1.47337169 0.26739972 -0.31628617
Ga 7.77814697 3.10813460 1.77540304 -1.56286887 -0.17298986 -0.37145617
Ga 20.20414072 3.05012097 1.78661462 0.81880062 -1.11330058 0.87206821
Ga 6.40405389 0.08104533 7.53256751 0.72081465 -1.12616677 -0.26740269
Ga 18.81887666 -0.09851009 7.48690847 0.89491217 0.38859489 0.21360083
Ga 6.45485077 3.10402670 7.47624217 -1.11316440 -0.77311502 -0.52313516
Ga 18.87059940 3.14524313 7.48174378 1.05265279 -0.61466910 1.08258092
Ga 3.30476023 0.04703984 3.85543333 -0.51247709 -0.37077134 1.60812245
Ga 15.71342492 6.13145021 3.95521750 0.45050358 1.00437480 -0.60300955
Ga 3.32906794 3.17536073 3.92019752 -0.48747044 -0.33957697 -0.08539224
Ga 15.78276139 3.07305571 3.90861423 -0.39552861 -0.66297792 -0.12624519
Ga 1.84531601 -0.00603470 9.61914994 0.36833570 0.30437408 0.15925359
Ga 14.42359279 6.22273780 9.62185121 0.84703102 -1.02108443 0.48437918
Ga 1.95662582 3.10109147 9.64227727 -0.07623868 1.63216942 -1.46909460
Ga 14.31567871 3.10451213 9.54662569 1.28320830 0.10435203 0.08876947
O 1.88600075 6.18204972 0.71188934 0.59823693 -0.79773531 0.35020348
O 14.39624258 6.11786318 0.72794757 0.22602475 0.42424133 -0.90255124
O 1.93653601 3.02367984 0.58112317 0.44167571 -2.16995172 -0.64132807
O 14.37513797 3.12555912 0.58349948 0.32053886 0.43855489 -1.54811823
O 0.53477006 -0.06899969 6.31559873 1.19696201 0.92717280 0.30148081
O 12.92500995 6.15498283 6.28700638 -0.00817348 1.08207492 -0.19225028
O 0.46652249 3.04329991 6.35503669 -0.03237755 -0.51912791 0.23547486
O 12.97393953 3.13487055 6.25225429 0.88668493 -0.26782853 1.07112931
O 9.15535547 0.00556977 5.09154011 -0.09472956 -0.31280057 0.53438608
O 21.57146890 0.04558288 5.14654773 -0.24362565 1.74983598 1.09189526
O 9.17096871 3.12040842 5.16215219 0.42001752 0.92122410 0.10180008
O 21.63572523 3.08549786 5.11193086 0.08767886 1.53248639 1.66683380
O 7.81967754 6.23194940 10.86811393 1.98338674 -0.42319347 -1.35134789
O 20.17565618 6.11225012 10.80599203 0.81852535 -1.04915963 -0.22400562
O 7.84658669 3.03568342 10.78859945 0.53485444 -0.52609179 0.13620915
O 20.30816184 3.07144537 10.78778215 -0.56021860 -0.56354074 -0.10651500
O 8.14663313 1.45700607 0.47416212 0.01636721 -0.03547956 0.73803298
O 20.54713168 1.56461580 0.65301926 -1.56514048 -0.20555107 -0.95819690
O 8.10375111 4.60742869 0.65492952 -0.45109336 -0.70322966 -0.18414736
O 20.44887699 4.65606120 0.59814844 -0.35530336 0.06831591 1.19967314
O 6.72543442 1.62882791 6.33175147 -0.35328815 0.57890945 -0.14014813
O 19.12440926 1.47897011 6.37229859 -0.44565493 0.52861325 0.21477949
O 6.73148952 4.61515181 6.29889193 0.10134257 0.15212056 -0.59704348
O 19.17399899 4.67343903 6.22985281 0.45580209 -0.19473631 -0.65180077
O 3.01273969 1.48692414 5.15764790 -0.11494525 0.08028695 1.20531129
O 15.39268936 1.42951045 5.12963928 -0.66558308 -0.20551131 -0.50178420
O 2.96435123 4.52439075 5.05233315 0.07119963 0.18653934 0.65542912
O 15.42751005 4.64460540 5.06775678 1.13157453 -0.54925443 0.55421813
O 1.55948841 1.50019971 10.79026351 0.25229753 0.07536629 0.14172870
O 14.05049736 1.57962088 10.83351719 -0.68664359 0.86898229 -0.08622618
O 1.60741650 4.67361806 10.72228766 1.31403909 -0.38741429 -0.11318407
O 14.00738606 4.52410720 10.73021248 0.17369018 0.73150470 -0.59272509
O 1.36961986 6.20023535 3.25137754 1.05426052 0.47125949 -1.20916197
O 13.88753086 -0.01899773 3.21084388 -0.00936407 0.69347436 0.24273359
O 1.40379788 3.14351097 3.19812714 0.02456355 1.08987233 0.81428562
O 13.82931190 3.01775722 3.19744245 0.95182603 -0.49100331 -1.02457435
O -0.03239355 0.09349311 8.86884524 -1.18111335 -1.42466483 -1.05587416
O 12.48929701 -0.01179384 8.92124205 -0.36962860 0.72729078 -0.76328087
O -0.01145915 3.03747328 8.97169721 -1.57466171 -0.62633076 0.30573059
O 12.46361839 3.09715194 8.90197240 1.37376221 1.42379814 0.06495997
O 9.66974778 6.12583945 2.46367194 -0.27622356 0.06069298 0.20506497
O 22.12088488 6.14421577 2.55180319 -0.30867701 0.28445249 -0.57442767
O 9.71351893 3.01617384 2.48433883 0.77312763 0.18006100 -0.62480101
O 22.18963985 3.05426222 2.47698573 1.38477892 -0.62330621 1.64261890
O 8.34915473 -0.07215156 8.29507030 0.65731492 -0.05653138 -0.68713195
O 20.68403113 6.06173745 8.18572977 -0.29673325 -0.04834228 0.38652536
O 8.28809405 3.11083591 8.23617312 -1.36532465 0.50764074 -0.23546048
O 20.77171977 3.15470330 8.18921823 0.60967473 -0.13122596 1.49891605
O 7.64533418 1.51889034 3.23028125 -0.80000626 -1.25541910 0.28352497
O 20.03140954 1.55849644 3.21404231 -0.03617298 -0.19295515 -0.54950711
O 7.61293110 4.70168967 3.24255486 0.19842324 -0.29083140 -1.04879140
O 20.09510102 4.61837598 3.33252251 1.35922887 -0.74352993 -0.35149438
O 6.19503097 1.58175176 8.92752627 -0.92629018 0.54541793 0.03607962
O 18.61227485 1.54999856 8.94682791 0.46960642 -0.14514564 0.24723182
O 6.22915183 4.67943594 8.81798009 -0.84967083 -0.45723741 -0.53413675
O 18.73415154 4.54888723 8.93801807 -0.68239273 0.97090945 -0.82578366
O 3.43137718 1.58053847 2.49449380 0.86240325 -0.75168516 0.17719290
O 15.95563103 1.45514991 2.40748868 -0.21254885 -0.75064582 0.10591572
O 3.57995391 4.59049642 2.52915241 -0.02522122 -1.43530160 -1.00334091
O 15.83870807 4.68606517 2.47132108 1.07587464 1.25894862 0.29399034
O 2.07042038 1.49334692 8.24171815 0.66082677 -1.17930113 0.46263839
O 14.51159808 1.59304653 8.22089300 -0.22934544 0.01260150 1.64786675
O 2.10717165 4.70347710 8.30079263 -0.30565458 -0.10413812 -0.38641088
O 14.48069951 4.58617861 8.09735973 0.29030281 -0.56101925 1.47279815
O 12.11544683 1.59508504 1.39600925 0.98876869 -0.73349674 -0.21272722
O 24.44579186 1.53049735 1.53827022 0.75622122 0.46075459 -1.26823662
O 12.00419233 4.58155254 1.40902114 0.25900060 0.17745613 -0.40669645
O 24.50848321 4.62925096 1.45803669 -1.48349902 -0.20475819 0.38003982
O 10.68837277 1.61442575 7.20274891 0.14971303 -0.47300867 -0.91766471
O 23.15180573 1.52546907 7.28994507 0.21470323 -1.58235754 0.39359150
O 10.63054324 4.64638791 7.16468015 0.71190638 -0.87290939 -1.10838059
O 23.17046942 4.69284304 7.16623233 -1.06671703 -1.11351007 -1.00484161
O -0.95565113 1.51218346 4.25454943 0.91241571 0.12056424 -0.07745693
O 11.50714226 1.53949021 4.23627954 -0.63116850 0.28387468 -2.10103293
O -0.94739701 4.63856629 4.20451859 -0.06977459 -0.26460978 0.58939687
O 11.43427814 4.62547689 4.26836996 0.41030816 0.11726964 -0.20359777
O -2.30374925 1.54930104 9.88417093 0.45283151 0.92442837 1.22571510
O 10.20967435 1.51806620 9.95134762 -0.13447221 -0.70145702 0.63031388
O -2.39482176 4.62349647 9.97286543 -0.60197488 -0.08026644 -0.34435919
O 10.05071542 4.64762191 9.92683471 -0.00529470 1.90744021 -0.90848359
O 5.86928956 6.14275715 1.46797555 -1.21227530 0.12566681 -0.38405931
O 18.28314316 0.06445067 1.46343437 0.13982872 0.82814784 -1.05427836
O 5.73192170 3.07576990 1.49067919 0.27533957 0.15310417 -0.57046240
O 18.26142960 3.03108499 1.56715511 -0.89117372 0.88320261 -0.88910938
O 4.44867695 6.13300433 7.13836226 -0.56586829 -0.02642862 0.07252521
O 16.85996195 -0.00414902 7.05914646 0.31475728 1.04703958 0.35323801
O 4.42296143 3.02176751 7.16346899 -1.32544349 0.01990366 -0.96382540
O 16.94871408 3.06686742 7.15631294 -0.68882725 0.16008704 0.48508857
O 5.35316116 6.15609809 4.25334853 1.64654840 -0.50517179 -0.01998540
O 17.59164942 -0.04853261 4.35267526 0.26659490 0.21907158 -0.51548294
O 5.22585289 3.11295257 4.22192966 0.15594053 0.81045877 0.11523610
O 17.67669785 3.10845354 4.18488444 -0.13089297 -0.24896935 0.17902229
O 3.84805049 6.08179092 9.94129998 1.14457405 -0.42908276 1.01041175
O 16.26590048 0.00201562 10.06908983 1.74828199 -1.32735051 -0.14165943
O 3.83998911 3.22474009 9.97469347 -0.19879082 0.44739818 -0.27151060
O 16.30582906 3.02951933 10.01342398 0.31490379 1.19655027 0.37491432
