159
Lattice="24.812576 0.000000 0.000000 0.000000 6.143255 0.000000 -2.767888 0.000000 11.373902" Properties=species:S:1:pos:R:3:force:R:3 Energy=-629.046136 Virial="-9.617067 -1.562044 -4.388096 -34.108870 12.084439 23.744809 -21.548940 -0.337174 -20.785367" pbc="T T T"
Ga 11.03967659 -0.02323513 1.14709266 0.285120 0.257345 0.769951
Ga 6.20337551 1.49885049 4.41435027 -0.259811 0.137076 -0.998946
Ga 4.83412760 1.56847161 1.10714441 -0.663802 0.632344 0.000307
Ga 1.51568015 -0.02969627 1.75870695 0.210242 -0.215088 -1.158569
Ga 9.40395671 -0.02517900 3.92401980 -1.103968 -0.819116 0.627260
Ga 7.83832568 1.55158313 1.79172947 0.190292 -0.355031 0.030560
Ga 3.26577995 1.51180365 3.93800858 1.056791 1.371195 -0.668133
O 1.91618142 -0.02542239 0.49371168 1.122914 1.357922 -0.211120
O 9.11133326 -0.02134595 5.15215680 -0.689642 0.101427 0.440194
O 8.09850620 1.55138776 0.48396900 -1.074689 -0.759204 -0.723555
O 2.95833900 1.64694633 5.20012351 -0.077473 0.589543 0.946846
O 1.38279224 0.03527044 3.13295530 -0.028819 -0.438321 0.474375
O 9.58496505 0.03094802 2.49210731 -0.683605 -0.573191 0.658227
O 7.52332375 1.50059016 3.12809662 -0.961194 1.280468 0.329613
O 3.45052982 1.55909872 2.54914291 1.712536 -1.996932 0.557023
O -0.26889107 0.03019991 1.44757343 0.274260 -0.918694 -0.132963
O 11.30206880 -0.06032613 4.27507749 -0.322032 -1.079250 0.608248
O 5.89136952 1.51939847 1.50304872 0.503580 -1.153787 0.505369
O 5.08793641 1.56920562 4.24295407 0.233015 -1.013755 -0.604408
Ga -1.41231165 0.01275609 10.24564889 -0.346700 -1.467220 0.058653
Ga 9.64875259 -0.02323513 6.86272766 0.285120 0.257345 0.769951
Ga 4.81245151 1.49885049 10.12998527 -0.259811 0.137076 -0.998946
Ga 3.44320360 1.56847161 6.82277941 -0.663802 0.632344 0.000307
Ga 0.12475615 -0.02969627 7.47434195 0.210242 -0.215088 -1.158569
Ga 8.01303271 -0.02517900 9.63965480 -1.103968 -0.819116 0.627260
Ga 6.44740168 1.55158313 7.50736447 0.190292 -0.355031 0.030560
Ga 1.87485595 1.51180365 9.65364358 1.056791 1.371195 -0.668133
O 0.52525742 -0.02542239 6.20934668 1.122914 1.357922 -0.211120
O 7.72040926 -0.02134595 10.86779180 -0.689642 0.101427 0.440194
O 6.70758220 1.55138776 6.19960400 -1.074689 -0.759204 -0.723555
O 1.56741500 1.64694633 10.91575851 -0.077473 0.589543 0.946846
O -0.00813176 0.03527044 8.84859030 -0.028819 -0.438321 0.474375
O 8.19404105 0.03094802 8.20774231 -0.683605 -0.573191 0.658227
O 6.13239975 1.50059016 8.84373162 -0.961194 1.280468 0.329613
O 2.05960582 1.55909872 8.26477791 1.712536 -1.996932 0.557023
O -1.65981507 0.03019991 7.16320843 0.274260 -0.918694 -0.132963
O 9.91114480 -0.06032613 9.99071249 -0.322032 -1.079250 0.608248
O 4.50044552 1.51939847 7.21868372 0.503580 -1.153787 0.505369
O 3.69701241 1.56920562 9.95858907 0.233015 -1.013755 -0.604408
Ga -0.02138765 3.09987609 4.53001389 -0.346700 -1.467220 0.058653
Ga 11.03967659 3.06388487 1.14709266 0.285120 0.257345 0.769951
Ga 6.20337551 4.58597049 4.41435027 -0.259811 0.137076 -0.998946
Ga 4.83412760 4.65559161 1.10714441 -0.663802 0.632344 0.000307
Ga 1.51568015 3.05742373 1.75870695 0.210242 -0.215088 -1.158569
Ga 9.40395671 3.06194100 3.92401980 -1.103968 -0.819116 0.627260
Ga 7.83832568 4.63870313 1.79172947 0.190292 -0.355031 0.030560
Ga 3.26577995 4.59892365 3.93800858 1.056791 1.371195 -0.668133
O 1.91618142 3.06169761 0.49371168 1.122914 1.357922 -0.211120
O 9.11133326 3.06577405 5.15215680 -0.689642 0.101427 0.440194
O 8.09850620 4.63850776 0.48396900 -1.074689 -0.759204 -0.723555
O 2.95833900 4.73406633 5.20012351 -0.077473 0.589543 0.946846
O 1.38279224 3.12239044 3.13295530 -0.028819 -0.438321 0.474375
O 9.58496505 3.11806802 2.49210731 -0.683605 -0.573191 0.658227
O 7.52332375 4.58771016 3.12809662 -0.961194 1.280468 0.329613
O 3.45052982 4.64621872 2.54914291 1.712536 -1.996932 0.557023
O -0.26889107 3.11731991 1.44757343 0.274260 -0.918694 -0.132963
O 11.30206880 3.02679387 4.27507749 -0.322032 -1.079250 0.608248
O 5.89136952 4.60651847 1.50304872 0.503580 -1.153787 0.505369
O 5.08793641 4.65632562 4.24295407 0.233015 -1.013755 -0.604408
Ga -1.41231165 3.09987609 10.24564889 -0.346700 -1.467220 0.058653
Ga 9.64875259 3.06388487 6.86272766 0.285120 0.257345 0.769951
Ga 4.81245151 4.58597049 10.12998527 -0.259811 0.137076 -0.998946
Ga 3.44320360 4.65559161 6.82277941 -0.663802 0.632344 0.000307
Ga 0.12475615 3.05742373 7.47434195 0.210242 -0.215088 -1.158569
Ga 8.01303271 3.06194100 9.63965480 -1.103968 -0.819116 0.627260
Ga 6.44740168 4.63870313 7.50736447 0.190292 -0.355031 0.030560
Ga 1.87485595 4.59892365 9.65364358 1.056791 1.371195 -0.668133
O 0.52525742 3.06169761 6.20934668 1.122914 1.357922 -0.211120
O 7.72040926 3.06577405 10.86779180 -0.689642 0.101427 0.440194
O 6.70758220 4.63850776 6.19960400 -1.074689 -0.759204 -0.723555
O 1.56741500 4.73406633 10.91575851 -0.077473 0.589543 0.946846
O -0.00813176 3.12239044 8.84859030 -0.028819 -0.438321 0.474375
O 8.19404105 3.11806802 8.20774231 -0.683605 -0.573191 0.658227
O 6.13239975 4.58771016 8.84373162 -0.961194 1.280468 0.329613
O 2.05960582 4.64621872 8.26477791 1.712536 -1.996932 0.557023
O -1.65981507 3.11731991 7.16320843 0.274260 -0.918694 -0.132963
O 9.91114480 3.02679387 9.99071249 -0.322032 -1.079250 0.608248
O 4.50044552 4.60651847 7.21868372 0.503580 -1.153787 0.505369
O 3.69701241 4.65632562 9.95858907 0.233015 -1.013755 -0.604408
Ga 12.44747335 0.01275609 4.53001389 -0.346700 -1.467220 0.058653
Ga 23.50853759 -0.02323513 1.14709266 0.285120 0.257345 0.769951
Ga 18.67223651 1.49885049 4.41435027 -0.259811 0.137076 -0.998946
Ga 17.30298860 1.56847161 1.10714441 -0.663802 0.632344 0.000307
Ga 13.98454115 -0.02969627 1.75870695 0.210242 -0.215088 -1.158569
Ga 21.87281771 -0.02517900 3.92401980 -1.103968 -0.819116 0.627260
Ga 20.30718668 1.55158313 1.79172947 0.190292 -0.355031 0.030560
Ga 15.73464095 1.51180365 3.93800858 1.056791 1.371195 -0.668133
O 14.38504242 -0.02542239 0.49371168 1.122914 1.357922 -0.211120
O 21.58019426 -0.02134595 5.15215680 -0.689642 0.101427 0.440194
O 20.56736720 1.55138776 0.48396900 -1.074689 -0.759204 -0.723555
O 15.42720000 1.64694633 5.20012351 -0.077473 0.589543 0.946846
O 13.85165324 0.03527044 3.13295530 -0.028819 -0.438321 0.474375
O 22.05382605 0.03094802 2.49210731 -0.683605 -0.573191 0.658227
O 19.99218475 1.50059016 3.12809662 -0.961194 1.280468 0.329613
O 15.91939082 1.55909872 2.54914291 1.712536 -1.996932 0.557023
O 12.19996993 0.03019991 1.44757343 0.274260 -0.918694 -0.132963
O 23.77092980 -0.06032613 4.27507749 -0.322032 -1.079250 0.608248
O 18.36023052 1.51939847 1.50304872 0.503580 -1.153787 0.505369
O 17.55679741 1.56920562 4.24295407 0.233015 -1.013755 -0.604408
Ga 11.05654935 0.01275609 10.24564889 -0.346700 -1.467220 0.058653
Ga 22.11761359 -0.02323513 6.86272766 0.285120 0.257345 0.769951
Ga 17.28131251 1.49885049 10.12998527 -0.259811 0.137076 -0.998946
Ga 15.91206460 1.56847161 6.82277941 -0.663802 0.632344 0.000307
Ga 12.59361715 -0.02969627 7.47434195 0.210242 -0.215088 -1.158569
Ga 20.48189371 -0.02517900 9.63965480 -1.103968 -0.819116 0.627260
Ga 18.91626268 1.55158313 7.50736447 0.190292 -0.355031 0.030560
Ga 14.34371695 1.51180365 9.65364358 1.056791 1.371195 -0.668133
O 12.99411842 -0.02542239 6.20934668 1.122914 1.357922 -0.211120
O 20.18927026 -0.02134595 10.86779180 -0.689642 0.101427 0.440194
O 19.17644320 1.55138776 6.19960400 -1.074689 -0.759204 -0.723555
O 14.03627600 1.64694633 10.91575851 -0.077473 0.589543 0.946846
O 12.46072924 0.03527044 8.84859030 -0.028819 -0.438321 0.474375
O 20.66290205 0.03094802 8.20774231 -0.683605 -0.573191 0.658227
O 18.60126075 1.50059016 8.84373162 -0.961194 1.280468 0.329613
O 14.52846682 1.55909872 8.26477791 1.712536 -1.996932 0.557023
O 10.80904593 0.03019991 7.16320843 0.274260 -0.918694 -0.132963
O 22.38000580 -0.06032613 9.99071249 -0.322032 -1.079250 0.608248
O 16.96930652 1.51939847 7.21868372 0.503580 -1.153787 0.505369
O 16.16587341 1.56920562 9.95858907 0.233015 -1.013755 -0.604408
Ga 12.44747335 3.09987609 4.53001389 -0.346700 -1.467220 0.058653
Ga 23.50853759 3.06388487 1.14709266 0.285120 0.257345 0.769951
Ga 18.67223651 4.58597049 4.41435027 -0.259811 0.137076 -0.998946
Ga 17.30298860 4.65559161 1.10714441 -0.663802 0.632344 0.000307
Ga 13.98454115 3.05742373 1.75870695 0.210242 -0.215088 -1.158569
Ga 21.87281771 3.06194100 3.92401980 -1.103968 -0.819116 0.627260
Ga 20.30718668 4.63870313 1.79172947 0.190292 -0.355031 0.030560
Ga 15.73464095 4.59892365 3.93800858 1.056791 1.371195 -0.668133
O 14.38504242 3.06169761 0.49371168 1.122914 1.357922 -0.211120
O 21.58019426 3.06577405 5.15215680 -0.689642 0.101427 0.440194
O 20.56736720 4.63850776 0.48396900 -1.074689 -0.759204 -0.723555
O 15.42720000 4.73406633 5.20012351 -0.077473 0.589543 0.946846
O 13.85165324 3.12239044 3.13295530 -0.028819 -0.438321 0.474375
O 22.05382605 3.11806802 2.49210731 -0.683605 -0.573191 0.658227
O 19.99218475 4.58771016 3.12809662 -0.961194 1.280468 0.329613
O 15.91939082 4.64621872 2.54914291 1.712536 -1.996932 0.557023
O 12.19996993 3.11731991 1.44757343 0.274260 -0.918694 -0.132963
O 23.77092980 3.02679387 4.27507749 -0.322032 -1.079250 0.608248
O 18.36023052 4.60651847 1.50304872 0.503580 -1.153787 0.505369
O 17.55679741 4.65632562 4.24295407 0.233015 -1.013755 -0.604408
Ga 11.05654935 3.09987609 10.24564889 -0.346700 -1.467220 0.058653
Ga 22.11761359 3.06388487 6.86272766 0.285120 0.257345 0.769951
Ga 17.28131251 4.58597049 10.12998527 -0.259811 0.137076 -0.998946
Ga 15.91206460 4.65559161 6.82277941 -0.663802 0.632344 0.000307
Ga 12.59361715 3.05742373 7.47434195 0.210242 -0.215088 -1.158569
Ga 20.48189371 3.06194100 9.63965480 -1.103968 -0.819116 0.627260
Ga 18.91626268 4.63870313 7.50736447 0.190292 -0.355031 0.030560
Ga 14.34371695 4.59892365 9.65364358 1.056791 1.371195 -0.668133
O 12.99411842 3.06169761 6.20934668 1.122914 1.357922 -0.211120
O 20.18927026 3.06577405 10.86779180 -0.689642 0.101427 0.440194
O 19.17644320 4.63850776 6.19960400 -1.074689 -0.759204 -0.723555
O 14.03627600 4.73406633 10.91575851 -0.077473 0.589543 0.946846
O 12.46072924 3.12239044 8.84859030 -0.028819 -0.438321 0.474375
O 20.66290205 3.11806802 8.20774231 -0.683605 -0.573191 0.658227
O 18.60126075 4.58771016 8.84373162 -0.961194 1.280468 0.329613
O 14.52846682 4.64621872 8.26477791 1.712536 -1.996932 0.557023
O 10.80904593 3.11731991 7.16320843 0.274260 -0.918694 -0.132963
O 22.38000580 3.02679387 9.99071249 -0.322032 -1.079250 0.608248
O 16.96930652 4.60651847 7.21868372 0.503580 -1.153787 0.505369
O 16.16587341 4.65632562 9.95858907 0.233015 -1.013755 -0.604408
159
Lattice="24.910007 0.000000 0.000000 0.000000 6.167378 0.000000 -2.778756 0.000000 11.418564" Properties=species:S:1:pos:R:3:force:R:3 Energy=-629.279407 Virial="-0.219174 17.197566 -17.450076 -15.547383 -19.505503 31.862315 -19.054191 32.344292 -15.177744" pbc="T T T"
Ga 11.10396820 -0.00143304 1.23527197 -0.081274 0.548138 -0.537265
Ga 6.14588944 1.57472058 4.54007829 0.655079 -0.454390 -0.313901
Ga 4.80298541 1.54551491 1.09318347 -0.735050 -0.854368 0.213953
Ga 1.53003397 0.01428450 1.85297285 -1.445775 0.067718 0.760709
Ga 9.50607329 -0.03233974 3.89535526 0.110184 0.943597 -0.037475
Ga 7.80293897 1.55499453 1.77266668 -0.043641 1.019940 1.016377
Ga 3.31983276 1.54572758 3.95417134 0.194317 1.079607 1.147545
O 1.88393649 -0.01310649 0.52098855 0.962487 -0.041815 1.083676
O 9.09506574 0.01184481 5.18305196 -0.163740 0.543342 0.543610
O 8.13972519 1.53246100 0.48005805 -0.984138 0.059366 -0.323629
O 2.90927849 1.52813590 5.14051866 -0.482792 0.048834 -0.107038
O 1.37299075 0.01616203 3.26122681 0.676820 0.090895 0.496281
O 9.69316588 0.01030202 2.52052541 -0.040382 -0.479427 1.399879
O 7.53019336 1.54078393 3.18818858 -2.137383 0.679092 0.598612
O 3.55721042 1.53415004 2.53556514 -1.619595 0.831110 0.346603
O -0.30724916 -0.04674712 1.50728970 -0.230283 0.289421 0.204901
O 11.40156296 0.03164128 4.21133034 -0.265467 -0.908121 -0.483303
O 5.97775212 1.48577044 1.48505108 0.324318 -0.136184 -0.673830
O 5.23160282 1.50222303 4.22505393 0.223985 1.051902 -1.520768
Ga -1.35328035 -0.02580479 10.26668723 2.058197 -1.294135 1.011151
Ga 9.71304420 -0.00143304 6.95090697 -0.081274 0.548138 -0.537265
Ga 4.75496544 1.57472058 10.25571329 0.655079 -0.454390 -0.313901
Ga 3.41206141 1.54551491 6.80881847 -0.735050 -0.854368 0.213953
Ga 0.13910997 0.01428450 7.56860785 -1.445775 0.067718 0.760709
Ga 8.11514929 -0.03233974 9.61099026 0.110184 0.943597 -0.037475
Ga 6.41201497 1.55499453 7.48830168 -0.043641 1.019940 1.016377
Ga 1.92890876 1.54572758 9.66980634 0.194317 1.079607 1.147545
O 0.49301249 -0.01310649 6.23662355 0.962487 -0.041815 1.083676
O 7.70414174 0.01184481 10.89868696 -0.163740 0.543342 0.543610
O 6.74880119 1.53246100 6.19569305 -0.984138 0.059366 -0.323629
O 1.51835449 1.52813590 10.85615366 -0.482792 0.048834 -0.107038
O -0.01793325 0.01616203 8.97686181 0.676820 0.090895 0.496281
O 8.30224188 0.01030202 8.23616041 -0.040382 -0.479427 1.399879
O 6.13926936 1.54078393 8.90382358 -2.137383 0.679092 0.598612
O 2.16628642 1.53415004 8.25120014 -1.619595 0.831110 0.346603
O -1.69817316 -0.04674712 7.22292470 -0.230283 0.289421 0.204901
O 10.01063896 0.03164128 9.92696534 -0.265467 -0.908121 -0.483303
O 4.58682812 1.48577044 7.20068608 0.324318 -0.136184 -0.673830
O 3.84067882 1.50222303 9.94068893 0.223985 1.051902 -1.520768
Ga 0.03764365 3.06131521 4.55105223 2.058197 -1.294135 1.011151
Ga 11.10396820 3.08568696 1.23527197 -0.081274 0.548138 -0.537265
Ga 6.14588944 4.66184058 4.54007829 0.655079 -0.454390 -0.313901
Ga 4.80298541 4.63263491 1.09318347 -0.735050 -0.854368 0.213953
Ga 1.53003397 3.10140450 1.85297285 -1.445775 0.067718 0.760709
Ga 9.50607329 3.05478026 3.89535526 0.110184 0.943597 -0.037475
Ga 7.80293897 4.64211453 1.77266668 -0.043641 1.019940 1.016377
Ga 3.31983276 4.63284758 3.95417134 0.194317 1.079607 1.147545
O 1.88393649 3.07401351 0.52098855 0.962487 -0.041815 1.083676
O 9.09506574 3.09896481 5.18305196 -0.163740 0.543342 0.543610
O 8.13972519 4.61958100 0.48005805 -0.984138 0.059366 -0.323629
O 2.90927849 4.61525590 5.14051866 -0.482792 0.048834 -0.107038
O 1.37299075 3.10328203 3.26122681 0.676820 0.090895 0.496281
O 9.69316588 3.09742202 2.52052541 -0.040382 -0.479427 1.399879
O 7.53019336 4.62790393 3.18818858 -2.137383 0.679092 0.598612
O 3.55721042 4.62127004 2.53556514 -1.619595 0.831110 0.346603
O -0.30724916 3.04037288 1.50728970 -0.230283 0.289421 0.204901
O 11.40156296 3.11876128 4.21133034 -0.265467 -0.908121 -0.483303
O 5.97775212 4.57289044 1.48505108 0.324318 -0.136184 -0.673830
O 5.23160282 4.58934303 4.22505393 0.223985 1.051902 -1.520768
Ga -1.35328035 3.06131521 10.26668723 2.058197 -1.294135 1.011151
Ga 9.71304420 3.08568696 6.95090697 -0.081274 0.548138 -0.537265
Ga 4.75496544 4.66184058 10.25571329 0.655079 -0.454390 -0.313901
Ga 3.41206141 4.63263491 6.80881847 -0.735050 -0.854368 0.213953
Ga 0.13910997 3.10140450 7.56860785 -1.445775 0.067718 0.760709
Ga 8.11514929 3.05478026 9.61099026 0.110184 0.943597 -0.037475
Ga 6.41201497 4.64211453 7.48830168 -0.043641 1.019940 1.016377
Ga 1.92890876 4.63284758 9.66980634 0.194317 1.079607 1.147545
O 0.49301249 3.07401351 6.23662355 0.962487 -0.041815 1.083676
O 7.70414174 3.09896481 10.89868696 -0.163740 0.543342 0.543610
O 6.74880119 4.61958100 6.19569305 -0.984138 0.059366 -0.323629
O 1.51835449 4.61525590 10.85615366 -0.482792 0.048834 -0.107038
O -0.01793325 3.10328203 8.97686181 0.676820 0.090895 0.496281
O 8.30224188 3.09742202 8.23616041 -0.040382 -0.479427 1.399879
O 6.13926936 4.62790393 8.90382358 -2.137383 0.679092 0.598612
O 2.16628642 4.62127004 8.25120014 -1.619595 0.831110 0.346603
O -1.69817316 3.04037288 7.22292470 -0.230283 0.289421 0.204901
O 10.01063896 3.11876128 9.92696534 -0.265467 -0.908121 -0.483303
O 4.58682812 4.57289044 7.20068608 0.324318 -0.136184 -0.673830
O 3.84067882 4.58934303 9.94068893 0.223985 1.051902 -1.520768
Ga 12.50650465 -0.02580479 4.55105223 2.058197 -1.294135 1.011151
Ga 23.57282920 -0.00143304 1.23527197 -0.081274 0.548138 -0.537265
Ga 18.61475044 1.57472058 4.54007829 0.655079 -0.454390 -0.313901
Ga 17.27184641 1.54551491 1.09318347 -0.735050 -0.854368 0.213953
Ga 13.99889497 0.01428450 1.85297285 -1.445775 0.067718 0.760709
Ga 21.97493429 -0.03233974 3.89535526 0.110184 0.943597 -0.037475
Ga 20.27179997 1.55499453 1.77266668 -0.043641 1.019940 1.016377
Ga 15.78869376 1.54572758 3.95417134 0.194317 1.079607 1.147545
O 14.35279749 -0.01310649 0.52098855 0.962487 -0.041815 1.083676
O 21.56392674 0.01184481 5.18305196 -0.163740 0.543342 0.543610
O 20.60858619 1.53246100 0.48005805 -0.984138 0.059366 -0.323629
O 15.37813949 1.52813590 5.14051866 -0.482792 0.048834 -0.107038
O 13.84185175 0.01616203 3.26122681 0.676820 0.090895 0.496281
O 22.16202688 0.01030202 2.52052541 -0.040382 -0.479427 1.399879
O 19.99905436 1.54078393 3.18818858 -2.137383 0.679092 0.598612
O 16.02607142 1.53415004 2.53556514 -1.619595 0.831110 0.346603
O 12.16161184 -0.04674712 1.50728970 -0.230283 0.289421 0.204901
O 23.87042396 0.03164128 4.21133034 -0.265467 -0.908121 -0.483303
O 18.44661312 1.48577044 1.48505108 0.324318 -0.136184 -0.673830
O 17.70046382 1.50222303 4.22505393 0.223985 1.051902 -1.520768
Ga 11.11558065 -0.02580479 10.26668723 2.058197 -1.294135 1.011151
Ga 22.18190520 -0.00143304 6.95090697 -0.081274 0.548138 -0.537265
Ga 17.22382644 1.57472058 10.25571329 0.655079 -0.454390 -0.313901
Ga 15.88092241 1.54551491 6.80881847 -0.735050 -0.854368 0.213953
Ga 12.60797097 0.01428450 7.56860785 -1.445775 0.067718 0.760709
Ga 20.58401029 -0.03233974 9.61099026 0.110184 0.943597 -0.037475
Ga 18.88087597 1.55499453 7.48830168 -0.043641 1.019940 1.016377
Ga 14.39776976 1.54572758 9.66980634 0.194317 1.079607 1.147545
O 12.96187349 -0.01310649 6.23662355 0.962487 -0.041815 1.083676
O 20.17300274 0.01184481 10.89868696 -0.163740 0.543342 0.543610
O 19.21766219 1.53246100 6.19569305 -0.984138 0.059366 -0.323629
O 13.98721549 1.52813590 10.85615366 -0.482792 0.048834 -0.107038
O 12.45092775 0.01616203 8.97686181 0.676820 0.090895 0.496281
O 20.77110288 0.01030202 8.23616041 -0.040382 -0.479427 1.399879
O 18.60813036 1.54078393 8.90382358 -2.137383 0.679092 0.598612
O 14.63514742 1.53415004 8.25120014 -1.619595 0.831110 0.346603
O 10.77068784 -0.04674712 7.22292470 -0.230283 0.289421 0.204901
O 22.47949996 0.03164128 9.92696534 -0.265467 -0.908121 -0.483303
O 17.05568912 1.48577044 7.20068608 0.324318 -0.136184 -0.673830
O 16.30953982 1.50222303 9.94068893 0.223985 1.051902 -1.520768
Ga 12.50650465 3.06131521 4.55105223 2.058197 -1.294135 1.011151
Ga 23.57282920 3.08568696 1.23527197 -0.081274 0.548138 -0.537265
Ga 18.61475044 4.66184058 4.54007829 0.655079 -0.454390 -0.313901
Ga 17.27184641 4.63263491 1.09318347 -0.735050 -0.854368 0.213953
Ga 13.99889497 3.10140450 1.85297285 -1.445775 0.067718 0.760709
Ga 21.97493429 3.05478026 3.89535526 0.110184 0.943597 -0.037475
Ga 20.27179997 4.64211453 1.77266668 -0.043641 1.019940 1.016377
Ga 15.78869376 4.63284758 3.95417134 0.194317 1.079607 1.147545
O 14.35279749 3.07401351 0.52098855 0.962487 -0.041815 1.083676
O 21.56392674 3.09896481 5.18305196 -0.163740 0.543342 0.543610
O 20.60858619 4.61958100 0.48005805 -0.984138 0.059366 -0.323629
O 15.37813949 4.61525590 5.14051866 -0.482792 0.048834 -0.107038
O 13.84185175 3.10328203 3.26122681 0.676820 0.090895 0.496281
O 22.16202688 3.09742202 2.52052541 -0.040382 -0.479427 1.399879
O 19.99905436 4.62790393 3.18818858 -2.137383 0.679092 0.598612
O 16.02607142 4.62127004 2.53556514 -1.619595 0.831110 0.346603
O 12.16161184 3.04037288 1.50728970 -0.230283 0.289421 0.204901
O 23.87042396 3.11876128 4.21133034 -0.265467 -0.908121 -0.483303
O 18.44661312 4.57289044 1.48505108 0.324318 -0.136184 -0.673830
O 17.70046382 4.58934303 4.22505393 0.223985 1.051902 -1.520768
Ga 11.11558065 3.06131521 10.26668723 2.058197 -1.294135 1.011151
Ga 22.18190520 3.08568696 6.95090697 -0.081274 0.548138 -0.537265
Ga 17.22382644 4.66184058 10.25571329 0.655079 -0.454390 -0.313901
Ga 15.88092241 4.63263491 6.80881847 -0.735050 -0.854368 0.213953
Ga 12.60797097 3.10140450 7.56860785 -1.445775 0.067718 0.760709
Ga 20.58401029 3.05478026 9.61099026 0.110184 0.943597 -0.037475
Ga 18.88087597 4.64211453 7.48830168 -0.043641 1.019940 1.016377
Ga 14.39776976 4.63284758 9.66980634 0.194317 1.079607 1.147545
O 12.96187349 3.07401351 6.23662355 0.962487 -0.041815 1.083676
O 20.17300274 3.09896481 10.89868696 -0.163740 0.543342 0.543610
O 19.21766219 4.61958100 6.19569305 -0.984138 0.059366 -0.323629
O 13.98721549 4.61525590 10.85615366 -0.482792 0.048834 -0.107038
O 12.45092775 3.10328203 8.97686181 0.676820 0.090895 0.496281
O 20.77110288 3.09742202 8.23616041 -0.040382 -0.479427 1.399879
O 18.60813036 4.62790393 8.90382358 -2.137383 0.679092 0.598612
O 14.63514742 4.62127004 8.25120014 -1.619595 0.831110 0.346603
O 10.77068784 3.04037288 7.22292470 -0.230283 0.289421 0.204901
O 22.47949996 3.11876128 9.92696534 -0.265467 -0.908121 -0.483303
O 17.05568912 4.57289044 7.20068608 0.324318 -0.136184 -0.673830
O 16.30953982 4.58934303 9.94068893 0.223985 1.051902 -1.520768
159
Lattice="24.479642 0.000000 0.000000 0.000000 6.060825 0.000000 -2.730748 0.000000 11.221288" Properties=species:S:1:pos:R:3:force:R:3 Energy=-629.306852 Virial="6.110946 -3.512363 -4.366348 19.014587 34.529876 -0.461622 26.406355 16.995396 15.922317" pbc="T T T"
Ga 10.83704710 0.02596347 1.10351102 0.229450 1.112084 0.719548
Ga 6.16414100 1.47861872 4.48304050 0.604224 0.040898 -0.342622
Ga 4.72532139 1.49967578 1.11700547 -0.664466 -0.172421 -0.957658
Ga 1.49796516 0.02224487 1.80461941 0.838428 -0.439902 -0.167163
Ga 9.38326941 0.05455546 3.94934606 0.625769 1.084388 0.599572
Ga 7.61916609 1.50697169 1.70526333 0.056438 -0.602943 0.616343
Ga 3.28992980 1.56718223 3.81309370 -0.709590 -0.304749 -0.857905
O 1.90369070 0.04868283 0.53645242 -1.078452 -0.004049 0.989917
O 9.02935743 0.00699332 5.03456945 0.018656 0.074190 1.069519
O 8.04086973 1.56821058 0.55678093 0.823739 2.005705 1.109929
O 2.83737071 1.48515918 5.03802652 -0.896429 0.710756 -0.860582
O 1.38640894 0.05073558 3.14771878 -0.315281 -0.249498 0.726312
O 9.55645802 -0.03470564 2.48573968 1.722018 -0.742140 -0.311468
O 7.42072577 1.48433513 3.16588627 -0.710338 0.754866 0.188630
O 3.38934204 1.56358163 2.50142361 -0.374122 -0.859438 -1.246255
O -0.19119951 0.00375062 1.38006922 -0.276779 0.262911 0.708363
O 11.17364165 -0.03852063 4.21340630 -0.385776 0.912153 0.537476
O 5.82101260 1.50971548 1.43136014 -0.329288 0.486749 -0.512528
O 5.08472668 1.49710787 4.20540109 1.235176 -0.250178 1.057852
Ga -1.29988204 0.03494358 10.17421934 0.731840 -0.735522 -1.358561
Ga 9.44612310 0.02596347 6.81914602 0.229450 1.112084 0.719548
Ga 4.77321700 1.47861872 10.19867550 0.604224 0.040898 -0.342622
Ga 3.33439739 1.49967578 6.83264047 -0.664466 -0.172421 -0.957658
Ga 0.10704116 0.02224487 7.52025441 0.838428 -0.439902 -0.167163
Ga 7.99234541 0.05455546 9.66498106 0.625769 1.084388 0.599572
Ga 6.22824209 1.50697169 7.42089833 0.056438 -0.602943 0.616343
Ga 1.89900580 1.56718223 9.52872870 -0.709590 -0.304749 -0.857905
O 0.51276670 0.04868283 6.25208742 -1.078452 -0.004049 0.989917
O 7.63843343 0.00699332 10.75020445 0.018656 0.074190 1.069519
O 6.64994573 1.56821058 6.27241593 0.823739 2.005705 1.109929
O 1.44644671 1.48515918 10.75366152 -0.896429 0.710756 -0.860582
O -0.00451506 0.05073558 8.86335378 -0.315281 -0.249498 0.726312
O 8.16553402 -0.03470564 8.20137468 1.722018 -0.742140 -0.311468
O 6.02980177 1.48433513 8.88152127 -0.710338 0.754866 0.188630
O 1.99841804 1.56358163 8.21705861 -0.374122 -0.859438 -1.246255
O -1.58212351 0.00375062 7.09570422 -0.276779 0.262911 0.708363
O 9.78271765 -0.03852063 9.92904130 -0.385776 0.912153 0.537476
O 4.43008860 1.50971548 7.14699514 -0.329288 0.486749 -0.512528
O 3.69380268 1.49710787 9.92103609 1.235176 -0.250178 1.057852
Ga 0.09104196 3.12206358 4.45858434 0.731840 -0.735522 -1.358561
Ga 10.83704710 3.11308347 1.10351102 0.229450 1.112084 0.719548
Ga 6.16414100 4.56573872 4.48304050 0.604224 0.040898 -0.342622
Ga 4.72532139 4.58679578 1.11700547 -0.664466 -0.172421 -0.957658
Ga 1.49796516 3.10936487 1.80461941 0.838428 -0.439902 -0.167163
Ga 9.38326941 3.14167546 3.94934606 0.625769 1.084388 0.599572
Ga 7.61916609 4.59409169 1.70526333 0.056438 -0.602943 0.616343
Ga 3.28992980 4.65430223 3.81309370 -0.709590 -0.304749 -0.857905
O 1.90369070 3.13580283 0.53645242 -1.078452 -0.004049 0.989917
O 9.02935743 3.09411332 5.03456945 0.018656 0.074190 1.069519
O 8.04086973 4.65533058 0.55678093 0.823739 2.005705 1.109929
O 2.83737071 4.57227918 5.03802652 -0.896429 0.710756 -0.860582
O 1.38640894 3.13785558 3.14771878 -0.315281 -0.249498 0.726312
O 9.55645802 3.05241436 2.48573968 1.722018 -0.742140 -0.311468
O 7.42072577 4.57145513 3.16588627 -0.710338 0.754866 0.188630
O 3.38934204 4.65070163 2.50142361 -0.374122 -0.859438 -1.246255
O -0.19119951 3.09087062 1.38006922 -0.276779 0.262911 0.708363
O 11.17364165 3.04859937 4.21340630 -0.385776 0.912153 0.537476
O 5.82101260 4.59683548 1.43136014 -0.329288 0.486749 -0.512528
O 5.08472668 4.58422787 4.20540109 1.235176 -0.250178 1.057852
Ga -1.29988204 3.12206358 10.17421934 0.731840 -0.735522 -1.358561
Ga 9.44612310 3.11308347 6.81914602 0.229450 1.112084 0.719548
Ga 4.77321700 4.56573872 10.19867550 0.604224 0.040898 -0.342622
Ga 3.33439739 4.58679578 6.83264047 -0.664466 -0.172421 -0.957658
Ga 0.10704116 3.10936487 7.52025441 0.838428 -0.439902 -0.167163
Ga 7.99234541 3.14167546 9.66498106 0.625769 1.084388 0.599572
Ga 6.22824209 4.59409169 7.42089833 0.056438 -0.602943 0.616343
Ga 1.89900580 4.65430223 9.52872870 -0.709590 -0.304749 -0.857905
O 0.51276670 3.13580283 6.25208742 -1.078452 -0.004049 0.989917
O 7.63843343 3.09411332 10.75020445 0.018656 0.074190 1.069519
O 6.64994573 4.65533058 6.27241593 0.823739 2.005705 1.109929
O 1.44644671 4.57227918 10.75366152 -0.896429 0.710756 -0.860582
O -0.00451506 3.13785558 8.86335378 -0.315281 -0.249498 0.726312
O 8.16553402 3.05241436 8.20137468 1.722018 -0.742140 -0.311468
O 6.02980177 4.57145513 8.88152127 -0.710338 0.754866 0.188630
O 1.99841804 4.65070163 8.21705861 -0.374122 -0.859438 -1.246255
O -1.58212351 3.09087062 7.09570422 -0.276779 0.262911 0.708363
O 9.78271765 3.04859937 9.92904130 -0.385776 0.912153 0.537476
O 4.43008860 4.59683548 7.14699514 -0.329288 0.486749 -0.512528
O 3.69380268 4.58422787 9.92103609 1.235176 -0.250178 1.057852
Ga 12.55990296 0.03494358 4.45858434 0.731840 -0.735522 -1.358561
Ga 23.30590810 0.02596347 1.10351102 0.229450 1.112084 0.719548
Ga 18.63300200 1.47861872 4.48304050 0.604224 0.040898 -0.342622
Ga 17.19418239 1.49967578 1.11700547 -0.664466 -0.172421 -0.957658
Ga 13.96682616 0.02224487 1.80461941 0.838428 -0.439902 -0.167163
Ga 21.85213041 0.05455546 3.94934606 0.625769 1.084388 0.599572
Ga 20.08802709 1.50697169 1.70526333 0.056438 -0.602943 0.616343
Ga 15.75879080 1.56718223 3.81309370 -0.709590 -0.304749 -0.857905
O 14.37255170 0.04868283 0.53645242 -1.078452 -0.004049 0.989917
O 21.49821843 0.00699332 5.03456945 0.018656 0.074190 1.069519
O 20.50973073 1.56821058 0.55678093 0.823739 2.005705 1.109929
O 15.30623171 1.48515918 5.03802652 -0.896429 0.710756 -0.860582
O 13.85526994 0.05073558 3.14771878 -0.315281 -0.249498 0.726312
O 22.02531902 -0.03470564 2.48573968 1.722018 -0.742140 -0.311468
O 19.88958677 1.48433513 3.16588627 -0.710338 0.754866 0.188630
O 15.85820304 1.56358163 2.50142361 -0.374122 -0.859438 -1.246255
O 12.27766149 0.00375062 1.38006922 -0.276779 0.262911 0.708363
O 23.64250265 -0.03852063 4.21340630 -0.385776 0.912153 0.537476
O 18.28987360 1.50971548 1.43136014 -0.329288 0.486749 -0.512528
O 17.55358768 1.49710787 4.20540109 1.235176 -0.250178 1.057852
Ga 11.16897896 0.03494358 10.17421934 0.731840 -0.735522 -1.358561
Ga 21.91498410 0.02596347 6.81914602 0.229450 1.112084 0.719548
Ga 17.24207800 1.47861872 10.19867550 0.604224 0.040898 -0.342622
Ga 15.80325839 1.49967578 6.83264047 -0.664466 -0.172421 -0.957658
Ga 12.57590216 0.02224487 7.52025441 0.838428 -0.439902 -0.167163
Ga 20.46120641 0.05455546 9.66498106 0.625769 1.084388 0.599572
Ga 18.69710309 1.50697169 7.42089833 0.056438 -0.602943 0.616343
Ga 14.36786680 1.56718223 9.52872870 -0.709590 -0.304749 -0.857905
O 12.98162770 0.04868283 6.25208742 -1.078452 -0.004049 0.989917
O 20.10729443 0.00699332 10.75020445 0.018656 0.074190 1.069519
O 19.11880673 1.56821058 6.27241593 0.823739 2.005705 1.109929
O 13.91530771 1.48515918 10.75366152 -0.896429 0.710756 -0.860582
O 12.46434594 0.05073558 8.86335378 -0.315281 -0.249498 0.726312
O 20.63439502 -0.03470564 8.20137468 1.722018 -0.742140 -0.311468
O 18.49866277 1.48433513 8.88152127 -0.710338 0.754866 0.188630
O 14.46727904 1.56358163 8.21705861 -0.374122 -0.859438 -1.246255
O 10.88673749 0.00375062 7.09570422 -0.276779 0.262911 0.708363
O 22.25157865 -0.03852063 9.92904130 -0.385776 0.912153 0.537476
O 16.89894960 1.50971548 7.14699514 -0.329288 0.486749 -0.512528
O 16.16266368 1.49710787 9.92103609 1.235176 -0.250178 1.057852
Ga 12.55990296 3.12206358 4.45858434 0.731840 -0.735522 -1.358561
Ga 23.30590810 3.11308347 1.10351102 0.229450 1.112084 0.719548
Ga 18.63300200 4.56573872 4.48304050 0.604224 0.040898 -0.342622
Ga 17.19418239 4.58679578 1.11700547 -0.664466 -0.172421 -0.957658
Ga 13.96682616 3.10936487 1.80461941 0.838428 -0.439902 -0.167163
Ga 21.85213041 3.14167546 3.94934606 0.625769 1.084388 0.599572
Ga 20.08802709 4.59409169 1.70526333 0.056438 -0.602943 0.616343
Ga 15.75879080 4.65430223 3.81309370 -0.709590 -0.304749 -0.857905
O 14.37255170 3.13580283 0.53645242 -1.078452 -0.004049 0.989917
O 21.49821843 3.09411332 5.03456945 0.018656 0.074190 1.069519
O 20.50973073 4.65533058 0.55678093 0.823739 2.005705 1.109929
O 15.30623171 4.57227918 5.03802652 -0.896429 0.710756 -0.860582
O 13.85526994 3.13785558 3.14771878 -0.315281 -0.249498 0.726312
O 22.02531902 3.05241436 2.48573968 1.722018 -0.742140 -0.311468
O 19.88958677 4.57145513 3.16588627 -0.710338 0.754866 0.188630
O 15.85820304 4.65070163 2.50142361 -0.374122 -0.859438 -1.246255
O 12.27766149 3.09087062 1.38006922 -0.276779 0.262911 0.708363
O 23.64250265 3.04859937 4.21340630 -0.385776 0.912153 0.537476
O 18.28987360 4.59683548 1.43136014 -0.329288 0.486749 -0.512528
O 17.55358768 4.58422787 4.20540109 1.235176 -0.250178 1.057852
Ga 11.16897896 3.12206358 10.17421934 0.731840 -0.735522 -1.358561
Ga 21.91498410 3.11308347 6.81914602 0.229450 1.112084 0.719548
Ga 17.24207800 4.56573872 10.19867550 0.604224 0.040898 -0.342622
Ga 15.80325839 4.58679578 6.83264047 -0.664466 -0.172421 -0.957658
Ga 12.57590216 3.10936487 7.52025441 0.838428 -0.439902 -0.167163
Ga 20.46120641 3.14167546 9.66498106 0.625769 1.084388 0.599572
Ga 18.69710309 4.59409169 7.42089833 0.056438 -0.602943 0.616343
Ga 14.36786680 4.65430223 9.52872870 -0.709590 -0.304749 -0.857905
O 12.98162770 3.13580283 6.25208742 -1.078452 -0.004049 0.989917
O 20.10729443 3.09411332 10.75020445 0.018656 0.074190 1.069519
O 19.11880673 4.65533058 6.27241593 0.823739 2.005705 1.109929
O 13.91530771 4.57227918 10.75366152 -0.896429 0.710756 -0.860582
O 12.46434594 3.13785558 8.86335378 -0.315281 -0.249498 0.726312
O 20.63439502 3.05241436 8.20137468 1.722018 -0.742140 -0.311468
O 18.49866277 4.57145513 8.88152127 -0.710338 0.754866 0.188630
O 14.46727904 4.65070163 8.21705861 -0.374122 -0.859438 -1.246255
O 10.88673749 3.09087062 7.09570422 -0.276779 0.262911 0.708363
O 22.25157865 3.04859937 9.92904130 -0.385776 0.912153 0.537476
O 16.89894960 4.59683548 7.14699514 -0.329288 0.486749 -0.512528
O 16.16266368 4.58422787 9.92103609 1.235176 -0.250178 1.057852
159
Lattice="24.823107 0.000000 0.000000 0.000000 6.145863 0.000000 -2.769062 0.000000 11.378730" Properties=species:S:1:pos:R:3:force:R:3 Energy=-628.497324 Virial="8.134201 13.974819 -14.114729 -31.686643 13.253623 -36.489969 2.510689 -7.582899 1.388908" pbc="T T T"
Ga 10.95409489 0.00692724 1.18400793 -0.237071 0.580882 -0.209976
Ga 6.19351905 1.54261466 4.52309854 -0.797193 -0.665656 0.739835
Ga 4.75242964 1.55077715 1.19102661 0.686465 0.419171 -0.442887
Ga 1.57677462 0.04215208 1.73249232 -0.736321 0.305531 -0.490487
Ga 9.45605622 0.02060141 3.92231776 -1.003334 -1.062228 0.162588
Ga 7.75983147 1.69057492 1.81043472 -0.874612 -0.716378 -0.047299
Ga 3.33321486 1.57462573 3.92782198 -0.117776 0.480213 -0.218475
O 1.89273764 0.03035877 0.50388765 0.235759 1.451544 0.546851
O 9.11220064 -0.01941454 5.15783973 0.529621 0.896037 0.338527
O 8.20371174 1.46177505 0.56225107 0.715157 0.445635 0.818730
O 2.85138776 1.51758838 5.19812279 -0.283659 0.683500 -0.404474
O 1.37720111 -0.04310979 3.14605343 1.203299 -0.738780 1.002704
O 9.67957580 -0.02921467 2.52335819 0.429473 0.171534 -1.023710
O 7.58222977 1.51040164 3.26042334 0.791679 0.497365 0.475252
O 3.47197166 1.45545995 2.52215802 1.008396 -1.604775 0.179114
O -0.33126513 0.03409733 1.42477716 -0.751008 0.113700 -0.076278
O 11.32722601 0.02019949 4.26751764 1.060812 1.250883 0.565857
O 5.85297046 1.52308561 1.43748017 0.215049 -0.074870 0.933173
O 5.09990630 1.60708383 4.24908670 -0.609518 -2.145212 -0.159646
Ga -1.38568725 0.03425595 10.24496894 -0.378886 1.156630 -1.931070
Ga 9.56317089 0.00692724 6.89964293 -0.237071 0.580882 -0.209976
Ga 4.80259505 1.54261466 10.23873354 -0.797193 -0.665656 0.739835
Ga 3.36150564 1.55077715 6.90666161 0.686465 0.419171 -0.442887
Ga 0.18585062 0.04215208 7.44812732 -0.736321 0.305531 -0.490487
Ga 8.06513222 0.02060141 9.63795276 -1.003334 -1.062228 0.162588
Ga 6.36890747 1.69057492 7.52606972 -0.874612 -0.716378 -0.047299
Ga 1.94229086 1.57462573 9.64345698 -0.117776 0.480213 -0.218475
O 0.50181364 0.03035877 6.21952265 0.235759 1.451544 0.546851
O 7.72127664 -0.01941454 10.87347473 0.529621 0.896037 0.338527
O 6.81278774 1.46177505 6.27788607 0.715157 0.445635 0.818730
O 1.46046376 1.51758838 10.91375779 -0.283659 0.683500 -0.404474
O -0.01372289 -0.04310979 8.86168843 1.203299 -0.738780 1.002704
O 8.28865180 -0.02921467 8.23899319 0.429473 0.171534 -1.023710
O 6.19130577 1.51040164 8.97605834 0.791679 0.497365 0.475252
O 2.08104766 1.45545995 8.23779302 1.008396 -1.604775 0.179114
O -1.72218913 0.03409733 7.14041216 -0.751008 0.113700 -0.076278
O 9.93630201 0.02019949 9.98315264 1.060812 1.250883 0.565857
O 4.46204646 1.52308561 7.15311517 0.215049 -0.074870 0.933173
O 3.70898230 1.60708383 9.96472170 -0.609518 -2.145212 -0.159646
Ga 0.00523675 3.12137595 4.52933394 -0.378886 1.156630 -1.931070
Ga 10.95409489 3.09404724 1.18400793 -0.237071 0.580882 -0.209976
Ga 6.19351905 4.62973466 4.52309854 -0.797193 -0.665656 0.739835
Ga 4.75242964 4.63789715 1.19102661 0.686465 0.419171 -0.442887
Ga 1.57677462 3.12927208 1.73249232 -0.736321 0.305531 -0.490487
Ga 9.45605622 3.10772141 3.92231776 -1.003334 -1.062228 0.162588
Ga 7.75983147 4.77769492 1.81043472 -0.874612 -0.716378 -0.047299
Ga 3.33321486 4.66174573 3.92782198 -0.117776 0.480213 -0.218475
O 1.89273764 3.11747877 0.50388765 0.235759 1.451544 0.546851
O 9.11220064 3.06770546 5.15783973 0.529621 0.896037 0.338527
O 8.20371174 4.54889505 0.56225107 0.715157 0.445635 0.818730
O 2.85138776 4.60470838 5.19812279 -0.283659 0.683500 -0.404474
O 1.37720111 3.04401021 3.14605343 1.203299 -0.738780 1.002704
O 9.67957580 3.05790533 2.52335819 0.429473 0.171534 -1.023710
O 7.58222977 4.59752164 3.26042334 0.791679 0.497365 0.475252
O 3.47197166 4.54257995 2.52215802 1.008396 -1.604775 0.179114
O -0.33126513 3.12121733 1.42477716 -0.751008 0.113700 -0.076278
O 11.32722601 3.10731949 4.26751764 1.060812 1.250883 0.565857
O 5.85297046 4.61020561 1.43748017 0.215049 -0.074870 0.933173
O 5.09990630 4.69420383 4.24908670 -0.609518 -2.145212 -0.159646
Ga -1.38568725 3.12137595 10.24496894 -0.378886 1.156630 -1.931070
Ga 9.56317089 3.09404724 6.89964293 -0.237071 0.580882 -0.209976
Ga 4.80259505 4.62973466 10.23873354 -0.797193 -0.665656 0.739835
Ga 3.36150564 4.63789715 6.90666161 0.686465 0.419171 -0.442887
Ga 0.18585062 3.12927208 7.44812732 -0.736321 0.305531 -0.490487
Ga 8.06513222 3.10772141 9.63795276 -1.003334 -1.062228 0.162588
Ga 6.36890747 4.77769492 7.52606972 -0.874612 -0.716378 -0.047299
Ga 1.94229086 4.66174573 9.64345698 -0.117776 0.480213 -0.218475
O 0.50181364 3.11747877 6.21952265 0.235759 1.451544 0.546851
O 7.72127664 3.06770546 10.87347473 0.529621 0.896037 0.338527
O 6.81278774 4.54889505 6.27788607 0.715157 0.445635 0.818730
O 1.46046376 4.60470838 10.91375779 -0.283659 0.683500 -0.404474
O -0.01372289 3.04401021 8.86168843 1.203299 -0.738780 1.002704
O 8.28865180 3.05790533 8.23899319 0.429473 0.171534 -1.023710
O 6.19130577 4.59752164 8.97605834 0.791679 0.497365 0.475252
O 2.08104766 4.54257995 8.23779302 1.008396 -1.604775 0.179114
O -1.72218913 3.12121733 7.14041216 -0.751008 0.113700 -0.076278
O 9.93630201 3.10731949 9.98315264 1.060812 1.250883 0.565857
O 4.46204646 4.61020561 7.15311517 0.215049 -0.074870 0.933173
O 3.70898230 4.69420383 9.96472170 -0.609518 -2.145212 -0.159646
Ga 12.47409775 0.03425595 4.52933394 -0.378886 1.156630 -1.931070
Ga 23.42295589 0.00692724 1.18400793 -0.237071 0.580882 -0.209976
Ga 18.66238005 1.54261466 4.52309854 -0.797193 -0.665656 0.739835
Ga 17.22129064 1.55077715 1.19102661 0.686465 0.419171 -0.442887
Ga 14.04563562 0.04215208 1.73249232 -0.736321 0.305531 -0.490487
Ga 21.92491722 0.02060141 3.92231776 -1.003334 -1.062228 0.162588
Ga 20.22869247 1.69057492 1.81043472 -0.874612 -0.716378 -0.047299
Ga 15.80207586 1.57462573 3.92782198 -0.117776 0.480213 -0.218475
O 14.36159864 0.03035877 0.50388765 0.235759 1.451544 0.546851
O 21.58106164 -0.01941454 5.15783973 0.529621 0.896037 0.338527
O 20.67257274 1.46177505 0.56225107 0.715157 0.445635 0.818730
O 15.32024876 1.51758838 5.19812279 -0.283659 0.683500 -0.404474
O 13.84606211 -0.04310979 3.14605343 1.203299 -0.738780 1.002704
O 22.14843680 -0.02921467 2.52335819 0.429473 0.171534 -1.023710
O 20.05109077 1.51040164 3.26042334 0.791679 0.497365 0.475252
O 15.94083266 1.45545995 2.52215802 1.008396 -1.604775 0.179114
O 12.13759587 0.03409733 1.42477716 -0.751008 0.113700 -0.076278
O 23.79608701 0.02019949 4.26751764 1.060812 1.250883 0.565857
O 18.32183146 1.52308561 1.43748017 0.215049 -0.074870 0.933173
O 17.56876730 1.60708383 4.24908670 -0.609518 -2.145212 -0.159646
Ga 11.08317375 0.03425595 10.24496894 -0.378886 1.156630 -1.931070
Ga 22.03203189 0.00692724 6.89964293 -0.237071 0.580882 -0.209976
Ga 17.27145605 1.54261466 10.23873354 -0.797193 -0.665656 0.739835
Ga 15.83036664 1.55077715 6.90666161 0.686465 0.419171 -0.442887
Ga 12.65471162 0.04215208 7.44812732 -0.736321 0.305531 -0.490487
Ga 20.53399322 0.02060141 9.63795276 -1.003334 -1.062228 0.162588
Ga 18.83776847 1.69057492 7.52606972 -0.874612 -0.716378 -0.047299
Ga 14.41115186 1.57462573 9.64345698 -0.117776 0.480213 -0.218475
O 12.97067464 0.03035877 6.21952265 0.235759 1.451544 0.546851
O 20.19013764 -0.01941454 10.87347473 0.529621 0.896037 0.338527
O 19.28164874 1.46177505 6.27788607 0.715157 0.445635 0.818730
O 13.92932476 1.51758838 10.91375779 -0.283659 0.683500 -0.404474
O 12.45513811 -0.04310979 8.86168843 1.203299 -0.738780 1.002704
O 20.75751280 -0.02921467 8.23899319 0.429473 0.171534 -1.023710
O 18.66016677 1.51040164 8.97605834 0.791679 0.497365 0.475252
O 14.54990866 1.45545995 8.23779302 1.008396 -1.604775 0.179114
O 10.74667187 0.03409733 7.14041216 -0.751008 0.113700 -0.076278
O 22.40516301 0.02019949 9.98315264 1.060812 1.250883 0.565857
O 16.93090746 1.52308561 7.15311517 0.215049 -0.074870 0.933173
O 16.17784330 1.60708383 9.96472170 -0.609518 -2.145212 -0.159646
Ga 12.47409775 3.12137595 4.52933394 -0.378886 1.156630 -1.931070
Ga 23.42295589 3.09404724 1.18400793 -0.237071 0.580882 -0.209976
Ga 18.66238005 4.62973466 4.52309854 -0.797193 -0.665656 0.739835
Ga 17.22129064 4.63789715 1.19102661 0.686465 0.419171 -0.442887
Ga 14.04563562 3.12927208 1.73249232 -0.736321 0.305531 -0.490487
Ga 21.92491722 3.10772141 3.92231776 -1.003334 -1.062228 0.162588
Ga 20.22869247 4.77769492 1.81043472 -0.874612 -0.716378 -0.047299
Ga 15.80207586 4.66174573 3.92782198 -0.117776 0.480213 -0.218475
O 14.36159864 3.11747877 0.50388765 0.235759 1.451544 0.546851
O 21.58106164 3.06770546 5.15783973 0.529621 0.896037 0.338527
O 20.67257274 4.54889505 0.56225107 0.715157 0.445635 0.818730
O 15.32024876 4.60470838 5.19812279 -0.283659 0.683500 -0.404474
O 13.84606211 3.04401021 3.14605343 1.203299 -0.738780 1.002704
O 22.14843680 3.05790533 2.52335819 0.429473 0.171534 -1.023710
O 20.05109077 4.59752164 3.26042334 0.791679 0.497365 0.475252
O 15.94083266 4.54257995 2.52215802 1.008396 -1.604775 0.179114
O 12.13759587 3.12121733 1.42477716 -0.751008 0.113700 -0.076278
O 23.79608701 3.10731949 4.26751764 1.060812 1.250883 0.565857
O 18.32183146 4.61020561 1.43748017 0.215049 -0.074870 0.933173
O 17.56876730 4.69420383 4.24908670 -0.609518 -2.145212 -0.159646
Ga 11.08317375 3.12137595 10.24496894 -0.378886 1.156630 -1.931070
Ga 22.03203189 3.09404724 6.89964293 -0.237071 0.580882 -0.209976
Ga 17.27145605 4.62973466 10.23873354 -0.797193 -0.665656 0.739835
Ga 15.83036664 4.63789715 6.90666161 0.686465 0.419171 -0.442887
Ga 12.65471162 3.12927208 7.44812732 -0.736321 0.305531 -0.490487
Ga 20.53399322 3.10772141 9.63795276 -1.003334 -1.062228 0.162588
Ga 18.83776847 4.77769492 7.52606972 -0.874612 -0.716378 -0.047299
Ga 14.41115186 4.66174573 9.64345698 -0.117776 0.480213 -0.218475
O 12.97067464 3.11747877 6.21952265 0.235759 1.451544 0.546851
O 20.19013764 3.06770546 10.87347473 0.529621 0.896037 0.338527
O 19.28164874 4.54889505 6.27788607 0.715157 0.445635 0.818730
O 13.92932476 4.60470838 10.91375779 -0.283659 0.683500 -0.404474
O 12.45513811 3.04401021 8.86168843 1.203299 -0.738780 1.002704
O 20.75751280 3.05790533 8.23899319 0.429473 0.171534 -1.023710
O 18.66016677 4.59752164 8.97605834 0.791679 0.497365 0.475252
O 14.54990866 4.54257995 8.23779302 1.008396 -1.604775 0.179114
O 10.74667187 3.12121733 7.14041216 -0.751008 0.113700 -0.076278
O 22.40516301 3.10731949 9.98315264 1.060812 1.250883 0.565857
O 16.93090746 4.61020561 7.15311517 0.215049 -0.074870 0.933173
O 16.17784330 4.69420383 9.96472170 -0.609518 -2.145212 -0.159646
159
Lattice="25.097521 0.000000 0.000000 0.000000 6.213804 0.000000 -2.799674 0.000000 11.504519" Properties=species:S:1:pos:R:3:force:R:3 Energy=-629.251548 Virial="-33.736337 -29.338297 -25.771092 -7.785319 12.359768 -53.960264 -22.627851 20.414827 11.086380" pbc="T T T"
Ga 11.19931920 -0.02922966 1.13031702 -0.027529 -0.326701 -0.162829
Ga 6.28823658 1.62833120 4.56996869 0.677297 0.269118 0.548036
Ga 4.81388733 1.50165327 1.17730907 0.617138 -0.301595 -0.681940
Ga 1.47060611 -0.05200771 1.86908334 0.569179 0.076166 -0.090749
Ga 9.65144924 -0.00513649 3.92627296 -1.681780 -0.013149 -0.811129
Ga 7.82712551 1.64737085 1.82355966 0.116132 1.111384 0.711662
Ga 3.36052763 1.54535267 3.94733542 -0.076442 -0.160617 -0.109962
O 1.95229815 0.00504379 0.46481769 1.598933 1.559638 -0.923079
O 9.27373324 -0.02460535 5.29600013 1.431174 -0.688203 -0.831631
O 8.22826617 1.55628987 0.55828586 0.453661 1.008557 -1.048104
O 2.94379112 1.53399366 5.21985135 0.022135 -0.635950 0.263974
O 1.42522577 -0.01858119 3.18487137 -0.996411 0.840656 -0.505063
O 9.74487756 0.03808044 2.60060135 0.179246 0.735470 1.869391
O 7.67868729 1.57670354 3.18457282 -1.340666 0.335609 0.934024
O 3.51978671 1.57552045 2.51409422 0.677970 0.372689 0.765323
O -0.37966997 -0.04882280 1.44581094 0.282859 -0.510277 0.477640
O 11.50356385 0.06211439 4.26210042 0.389307 0.374170 -1.170485
O 5.94989986 1.56391589 1.47306491 -1.686056 -0.634589 0.033614
O 5.21994415 1.53252345 4.31764686 -0.807544 0.502649 0.305036
Ga -1.35247946 0.06605404 10.23330811 1.065989 0.615514 -1.222117
Ga 9.80839520 -0.02922966 6.84595202 -0.027529 -0.326701 -0.162829
Ga 4.89731258 1.62833120 10.28560369 0.677297 0.269118 0.548036
Ga 3.42296333 1.50165327 6.89294407 0.617138 -0.301595 -0.681940
Ga 0.07968211 -0.05200771 7.58471834 0.569179 0.076166 -0.090749
Ga 8.26052524 -0.00513649 9.64190796 -1.681780 -0.013149 -0.811129
Ga 6.43620151 1.64737085 7.53919466 0.116132 1.111384 0.711662
Ga 1.96960363 1.54535267 9.66297042 -0.076442 -0.160617 -0.109962
O 0.56137415 0.00504379 6.18045269 1.598933 1.559638 -0.923079
O 7.88280924 -0.02460535 11.01163513 1.431174 -0.688203 -0.831631
O 6.83734217 1.55628987 6.27392086 0.453661 1.008557 -1.048104
O 1.55286712 1.53399366 10.93548635 0.022135 -0.635950 0.263974
O 0.03430177 -0.01858119 8.90050637 -0.996411 0.840656 -0.505063
O 8.35395356 0.03808044 8.31623635 0.179246 0.735470 1.869391
O 6.28776329 1.57670354 8.90020782 -1.340666 0.335609 0.934024
O 2.12886271 1.57552045 8.22972922 0.677970 0.372689 0.765323
O -1.77059397 -0.04882280 7.16144594 0.282859 -0.510277 0.477640
O 10.11263985 0.06211439 9.97773542 0.389307 0.374170 -1.170485
O 4.55897586 1.56391589 7.18869991 -1.686056 -0.634589 0.033614
O 3.82902015 1.53252345 10.03328186 -0.807544 0.502649 0.305036
Ga 0.03844454 3.15317404 4.51767311 1.065989 0.615514 -1.222117
Ga 11.19931920 3.05789034 1.13031702 -0.027529 -0.326701 -0.162829
Ga 6.28823658 4.71545120 4.56996869 0.677297 0.269118 0.548036
Ga 4.81388733 4.58877327 1.17730907 0.617138 -0.301595 -0.681940
Ga 1.47060611 3.03511229 1.86908334 0.569179 0.076166 -0.090749
Ga 9.65144924 3.08198351 3.92627296 -1.681780 -0.013149 -0.811129
Ga 7.82712551 4.73449085 1.82355966 0.116132 1.111384 0.711662
Ga 3.36052763 4.63247267 3.94733542 -0.076442 -0.160617 -0.109962
O 1.95229815 3.09216379 0.46481769 1.598933 1.559638 -0.923079
O 9.27373324 3.06251465 5.29600013 1.431174 -0.688203 -0.831631
O 8.22826617 4.64340987 0.55828586 0.453661 1.008557 -1.048104
O 2.94379112 4.62111366 5.21985135 0.022135 -0.635950 0.263974
O 1.42522577 3.06853881 3.18487137 -0.996411 0.840656 -0.505063
O 9.74487756 3.12520044 2.60060135 0.179246 0.735470 1.869391
O 7.67868729 4.66382354 3.18457282 -1.340666 0.335609 0.934024
O 3.51978671 4.66264045 2.51409422 0.677970 0.372689 0.765323
O -0.37966997 3.03829720 1.44581094 0.282859 -0.510277 0.477640
O 11.50356385 3.14923439 4.26210042 0.389307 0.374170 -1.170485
O 5.94989986 4.65103589 1.47306491 -1.686056 -0.634589 0.033614
O 5.21994415 4.61964345 4.31764686 -0.807544 0.502649 0.305036
Ga -1.35247946 3.15317404 10.23330811 1.065989 0.615514 -1.222117
Ga 9.80839520 3.05789034 6.84595202 -0.027529 -0.326701 -0.162829
Ga 4.89731258 4.71545120 10.28560369 0.677297 0.269118 0.548036
Ga 3.42296333 4.58877327 6.89294407 0.617138 -0.301595 -0.681940
Ga 0.07968211 3.03511229 7.58471834 0.569179 0.076166 -0.090749
Ga 8.26052524 3.08198351 9.64190796 -1.681780 -0.013149 -0.811129
Ga 6.43620151 4.73449085 7.53919466 0.116132 1.111384 0.711662
Ga 1.96960363 4.63247267 9.66297042 -0.076442 -0.160617 -0.109962
O 0.56137415 3.09216379 6.18045269 1.598933 1.559638 -0.923079
O 7.88280924 3.06251465 11.01163513 1.431174 -0.688203 -0.831631
O 6.83734217 4.64340987 6.27392086 0.453661 1.008557 -1.048104
O 1.55286712 4.62111366 10.93548635 0.022135 -0.635950 0.263974
O 0.03430177 3.06853881 8.90050637 -0.996411 0.840656 -0.505063
O 8.35395356 3.12520044 8.31623635 0.179246 0.735470 1.869391
O 6.28776329 4.66382354 8.90020782 -1.340666 0.335609 0.934024
O 2.12886271 4.66264045 8.22972922 0.677970 0.372689 0.765323
O -1.77059397 3.03829720 7.16144594 0.282859 -0.510277 0.477640
O 10.11263985 3.14923439 9.97773542 0.389307 0.374170 -1.170485
O 4.55897586 4.65103589 7.18869991 -1.686056 -0.634589 0.033614
O 3.82902015 4.61964345 10.03328186 -0.807544 0.502649 0.305036
Ga 12.50730554 0.06605404 4.51767311 1.065989 0.615514 -1.222117
Ga 23.66818020 -0.02922966 1.13031702 -0.027529 -0.326701 -0.162829
Ga 18.75709758 1.62833120 4.56996869 0.677297 0.269118 0.548036
Ga 17.28274833 1.50165327 1.17730907 0.617138 -0.301595 -0.681940
Ga 13.93946711 -0.05200771 1.86908334 0.569179 0.076166 -0.090749
Ga 22.12031024 -0.00513649 3.92627296 -1.681780 -0.013149 -0.811129
Ga 20.29598651 1.64737085 1.82355966 0.116132 1.111384 0.711662
Ga 15.82938863 1.54535267 3.94733542 -0.076442 -0.160617 -0.109962
O 14.42115915 0.00504379 0.46481769 1.598933 1.559638 -0.923079
O 21.74259424 -0.02460535 5.29600013 1.431174 -0.688203 -0.831631
O 20.69712717 1.55628987 0.55828586 0.453661 1.008557 -1.048104
O 15.41265212 1.53399366 5.21985135 0.022135 -0.635950 0.263974
O 13.89408677 -0.01858119 3.18487137 -0.996411 0.840656 -0.505063
O 22.21373856 0.03808044 2.60060135 0.179246 0.735470 1.869391
O 20.14754829 1.57670354 3.18457282 -1.340666 0.335609 0.934024
O 15.98864771 1.57552045 2.51409422 0.677970 0.372689 0.765323
O 12.08919103 -0.04882280 1.44581094 0.282859 -0.510277 0.477640
O 23.97242485 0.06211439 4.26210042 0.389307 0.374170 -1.170485
O 18.41876086 1.56391589 1.47306491 -1.686056 -0.634589 0.033614
O 17.68880515 1.53252345 4.31764686 -0.807544 0.502649 0.305036
Ga 11.11638154 0.06605404 10.23330811 1.065989 0.615514 -1.222117
Ga 22.27725620 -0.02922966 6.84595202 -0.027529 -0.326701 -0.162829
Ga 17.36617358 1.62833120 10.28560369 0.677297 0.269118 0.548036
Ga 15.89182433 1.50165327 6.89294407 0.617138 -0.301595 -0.681940
Ga 12.54854311 -0.05200771 7.58471834 0.569179 0.076166 -0.090749
Ga 20.72938624 -0.00513649 9.64190796 -1.681780 -0.013149 -0.811129
Ga 18.90506251 1.64737085 7.53919466 0.116132 1.111384 0.711662
Ga 14.43846463 1.54535267 9.66297042 -0.076442 -0.160617 -0.109962
O 13.03023515 0.00504379 6.18045269 1.598933 1.559638 -0.923079
O 20.35167024 -0.02460535 11.01163513 1.431174 -0.688203 -0.831631
O 19.30620317 1.55628987 6.27392086 0.453661 1.008557 -1.048104
O 14.02172812 1.53399366 10.93548635 0.022135 -0.635950 0.263974
O 12.50316277 -0.01858119 8.90050637 -0.996411 0.840656 -0.505063
O 20.82281456 0.03808044 8.31623635 0.179246 0.735470 1.869391
O 18.75662429 1.57670354 8.90020782 -1.340666 0.335609 0.934024
O 14.59772371 1.57552045 8.22972922 0.677970 0.372689 0.765323
O 10.69826703 -0.04882280 7.16144594 0.282859 -0.510277 0.477640
O 22.58150085 0.06211439 9.97773542 0.389307 0.374170 -1.170485
O 17.02783686 1.56391589 7.18869991 -1.686056 -0.634589 0.033614
O 16.29788115 1.53252345 10.03328186 -0.807544 0.502649 0.305036
Ga 12.50730554 3.15317404 4.51767311 1.065989 0.615514 -1.222117
Ga 23.66818020 3.05789034 1.13031702 -0.027529 -0.326701 -0.162829
Ga 18.75709758 4.71545120 4.56996869 0.677297 0.269118 0.548036
Ga 17.28274833 4.58877327 1.17730907 0.617138 -0.301595 -0.681940
Ga 13.93946711 3.03511229 1.86908334 0.569179 0.076166 -0.090749
Ga 22.12031024 3.08198351 3.92627296 -1.681780 -0.013149 -0.811129
Ga 20.29598651 4.73449085 1.82355966 0.116132 1.111384 0.711662
Ga 15.82938863 4.63247267 3.94733542 -0.076442 -0.160617 -0.109962
O 14.42115915 3.09216379 0.46481769 1.598933 1.559638 -0.923079
O 21.74259424 3.06251465 5.29600013 1.431174 -0.688203 -0.831631
O 20.69712717 4.64340987 0.55828586 0.453661 1.008557 -1.048104
O 15.41265212 4.62111366 5.21985135 0.022135 -0.635950 0.263974
O 13.89408677 3.06853881 3.18487137 -0.996411 0.840656 -0.505063
O 22.21373856 3.12520044 2.60060135 0.179246 0.735470 1.869391
O 20.14754829 4.66382354 3.18457282 -1.340666 0.335609 0.934024
O 15.98864771 4.66264045 2.51409422 0.677970 0.372689 0.765323
O 12.08919103 3.03829720 1.44581094 0.282859 -0.510277 0.477640
O 23.97242485 3.14923439 4.26210042 0.389307 0.374170 -1.170485
O 18.41876086 4.65103589 1.47306491 -1.686056 -0.634589 0.033614
O 17.68880515 4.61964345 4.31764686 -0.807544 0.502649 0.305036
Ga 11.11638154 3.15317404 10.23330811 1.065989 0.615514 -1.222117
Ga 22.27725620 3.05789034 6.84595202 -0.027529 -0.326701 -0.162829
Ga 17.36617358 4.71545120 10.28560369 0.677297 0.269118 0.548036
Ga 15.89182433 4.58877327 6.89294407 0.617138 -0.301595 -0.681940
Ga 12.54854311 3.03511229 7.58471834 0.569179 0.076166 -0.090749
Ga 20.72938624 3.08198351 9.64190796 -1.681780 -0.013149 -0.811129
Ga 18.90506251 4.73449085 7.53919466 0.116132 1.111384 0.711662
Ga 14.43846463 4.63247267 9.66297042 -0.076442 -0.160617 -0.109962
O 13.03023515 3.09216379 6.18045269 1.598933 1.559638 -0.923079
O 20.35167024 3.06251465 11.01163513 1.431174 -0.688203 -0.831631
O 19.30620317 4.64340987 6.27392086 0.453661 1.008557 -1.048104
O 14.02172812 4.62111366 10.93548635 0.022135 -0.635950 0.263974
O 12.50316277 3.06853881 8.90050637 -0.996411 0.840656 -0.505063
O 20.82281456 3.12520044 8.31623635 0.179246 0.735470 1.869391
O 18.75662429 4.66382354 8.90020782 -1.340666 0.335609 0.934024
O 14.59772371 4.66264045 8.22972922 0.677970 0.372689 0.765323
O 10.69826703 3.03829720 7.16144594 0.282859 -0.510277 0.477640
O 22.58150085 3.14923439 9.97773542 0.389307 0.374170 -1.170485
O 17.02783686 4.65103589 7.18869991 -1.686056 -0.634589 0.033614
O 16.29788115 4.61964345 10.03328186 -0.807544 0.502649 0.305036
159
Lattice="25.332261 0.000000 0.000000 0.000000 6.271922 0.000000 -2.825859 0.000000 11.612122" Properties=species:S:1:pos:R:3:force:R:3 Energy=-630.242619 Virial="-2.920064 20.728756 -12.327876 9.266430 5.971898 -0.730037 -5.346849 -6.300528 12.953881" pbc="T T T"
Ga 11.25343543 -0.03272883 1.27626012 0.043845 -0.937985 -0.604596
Ga 6.31639489 1.51941301 4.65982146 0.549439 0.095182 0.400707
Ga 4.92823118 1.59294535 1.21769845 -1.685760 -0.771063 -2.010906
Ga 1.56441579 -0.03589017 1.82729725 -0.389391 -0.500211 -0.164768
Ga 9.66120812 0.03900479 3.97591430 1.143344 -0.029348 -0.538544
Ga 7.86495127 1.55512512 1.84078232 0.837525 0.092717 0.608388
Ga 3.33268012 1.53509174 3.99154408 0.044788 -0.986186 0.394700
O 1.95422823 -0.02027773 0.52692858 0.408880 -1.469846 -0.717425
O 9.31805269 -0.05792337 5.20399299 0.362477 -0.015430 1.052459
O 8.24875729 1.55944267 0.55820641 0.612588 -0.245137 0.321526
O 3.03471945 1.60228694 5.25389400 -0.685976 -1.516645 0.486538
O 1.40206469 -0.04010117 3.23904154 0.362369 -0.257945 -0.149531
O 9.83882857 0.01290874 2.53319035 0.402112 0.931761 0.606330
O 7.75666469 1.62929011 3.23543166 -0.248210 -0.040275 0.544070
O 3.53337789 1.59558631 2.55023077 1.359572 0.458716 -0.231830
O -0.30208169 0.00050370 1.49025927 -1.383682 -0.803434 0.678856
O 11.53332525 0.00098041 4.33962936 0.337790 -1.342556 0.548565
O 6.08006484 1.60635139 1.57247953 0.793085 -0.091002 0.513063
O 5.20048726 1.60287338 4.32704311 1.822349 0.235781 1.081678
Ga -1.35438624 -0.00520572 10.33301187 -0.210623 1.147940 1.034909
Ga 9.86251143 -0.03272883 6.99189512 0.043845 -0.937985 -0.604596
Ga 4.92547089 1.51941301 10.37545646 0.549439 0.095182 0.400707
Ga 3.53730718 1.59294535 6.93333345 -1.685760 -0.771063 -2.010906
Ga 0.17349179 -0.03589017 7.54293225 -0.389391 -0.500211 -0.164768
Ga 8.27028412 0.03900479 9.69154930 1.143344 -0.029348 -0.538544
Ga 6.47402727 1.55512512 7.55641732 0.837525 0.092717 0.608388
Ga 1.94175612 1.53509174 9.70717908 0.044788 -0.986186 0.394700
O 0.56330423 -0.02027773 6.24256358 0.408880 -1.469846 -0.717425
O 7.92712869 -0.05792337 10.91962799 0.362477 -0.015430 1.052459
O 6.85783329 1.55944267 6.27384141 0.612588 -0.245137 0.321526
O 1.64379545 1.60228694 10.96952900 -0.685976 -1.516645 0.486538
O 0.01114069 -0.04010117 8.95467654 0.362369 -0.257945 -0.149531
O 8.44790457 0.01290874 8.24882535 0.402112 0.931761 0.606330
O 6.36574069 1.62929011 8.95106666 -0.248210 -0.040275 0.544070
O 2.14245389 1.59558631 8.26586577 1.359572 0.458716 -0.231830
O -1.69300569 0.00050370 7.20589427 -1.383682 -0.803434 0.678856
O 10.14240125 0.00098041 10.05526436 0.337790 -1.342556 0.548565
O 4.68914084 1.60635139 7.28811453 0.793085 -0.091002 0.513063
O 3.80956326 1.60287338 10.04267811 1.822349 0.235781 1.081678
Ga 0.03653776 3.08191428 4.61737687 -0.210623 1.147940 1.034909
Ga 11.25343543 3.05439117 1.27626012 0.043845 -0.937985 -0.604596
Ga 6.31639489 4.60653301 4.65982146 0.549439 0.095182 0.400707
Ga 4.92823118 4.68006535 1.21769845 -1.685760 -0.771063 -2.010906
Ga 1.56441579 3.05122983 1.82729725 -0.389391 -0.500211 -0.164768
Ga 9.66120812 3.12612479 3.97591430 1.143344 -0.029348 -0.538544
Ga 7.86495127 4.64224512 1.84078232 0.837525 0.092717 0.608388
Ga 3.33268012 4.62221174 3.99154408 0.044788 -0.986186 0.394700
O 1.95422823 3.06684227 0.52692858 0.408880 -1.469846 -0.717425
O 9.31805269 3.02919663 5.20399299 0.362477 -0.015430 1.052459
O 8.24875729 4.64656267 0.55820641 0.612588 -0.245137 0.321526
O 3.03471945 4.68940694 5.25389400 -0.685976 -1.516645 0.486538
O 1.40206469 3.04701883 3.23904154 0.362369 -0.257945 -0.149531
O 9.83882857 3.10002874 2.53319035 0.402112 0.931761 0.606330
O 7.75666469 4.71641011 3.23543166 -0.248210 -0.040275 0.544070
O 3.53337789 4.68270631 2.55023077 1.359572 0.458716 -0.231830
O -0.30208169 3.08762370 1.49025927 -1.383682 -0.803434 0.678856
O 11.53332525 3.08810041 4.33962936 0.337790 -1.342556 0.548565
O 6.08006484 4.69347139 1.57247953 0.793085 -0.091002 0.513063
O 5.20048726 4.68999338 4.32704311 1.822349 0.235781 1.081678
Ga -1.35438624 3.08191428 10.33301187 -0.210623 1.147940 1.034909
Ga 9.86251143 3.05439117 6.99189512 0.043845 -0.937985 -0.604596
Ga 4.92547089 4.60653301 10.37545646 0.549439 0.095182 0.400707
Ga 3.53730718 4.68006535 6.93333345 -1.685760 -0.771063 -2.010906
Ga 0.17349179 3.05122983 7.54293225 -0.389391 -0.500211 -0.164768
Ga 8.27028412 3.12612479 9.69154930 1.143344 -0.029348 -0.538544
Ga 6.47402727 4.64224512 7.55641732 0.837525 0.092717 0.608388
Ga 1.94175612 4.62221174 9.70717908 0.044788 -0.986186 0.394700
O 0.56330423 3.06684227 6.24256358 0.408880 -1.469846 -0.717425
O 7.92712869 3.02919663 10.91962799 0.362477 -0.015430 1.052459
O 6.85783329 4.64656267 6.27384141 0.612588 -0.245137 0.321526
O 1.64379545 4.68940694 10.96952900 -0.685976 -1.516645 0.486538
O 0.01114069 3.04701883 8.95467654 0.362369 -0.257945 -0.149531
O 8.44790457 3.10002874 8.24882535 0.402112 0.931761 0.606330
O 6.36574069 4.71641011 8.95106666 -0.248210 -0.040275 0.544070
O 2.14245389 4.68270631 8.26586577 1.359572 0.458716 -0.231830
O -1.69300569 3.08762370 7.20589427 -1.383682 -0.803434 0.678856
O 10.14240125 3.08810041 10.05526436 0.337790 -1.342556 0.548565
O 4.68914084 4.69347139 7.28811453 0.793085 -0.091002 0.513063
O 3.80956326 4.68999338 10.04267811 1.822349 0.235781 1.081678
Ga 12.50539876 -0.00520572 4.61737687 -0.210623 1.147940 1.034909
Ga 23.72229643 -0.03272883 1.27626012 0.043845 -0.937985 -0.604596
Ga 18.78525589 1.51941301 4.65982146 0.549439 0.095182 0.400707
Ga 17.39709218 1.59294535 1.21769845 -1.685760 -0.771063 -2.010906
Ga 14.03327679 -0.03589017 1.82729725 -0.389391 -0.500211 -0.164768
Ga 22.13006912 0.03900479 3.97591430 1.143344 -0.029348 -0.538544
Ga 20.33381227 1.55512512 1.84078232 0.837525 0.092717 0.608388
Ga 15.80154112 1.53509174 3.99154408 0.044788 -0.986186 0.394700
O 14.42308923 -0.02027773 0.52692858 0.408880 -1.469846 -0.717425
O 21.78691369 -0.05792337 5.20399299 0.362477 -0.015430 1.052459
O 20.71761829 1.55944267 0.55820641 0.612588 -0.245137 0.321526
O 15.50358045 1.60228694 5.25389400 -0.685976 -1.516645 0.486538
O 13.87092569 -0.04010117 3.23904154 0.362369 -0.257945 -0.149531
O 22.30768957 0.01290874 2.53319035 0.402112 0.931761 0.606330
O 20.22552569 1.62929011 3.23543166 -0.248210 -0.040275 0.544070
O 16.00223889 1.59558631 2.55023077 1.359572 0.458716 -0.231830
O 12.16677931 0.00050370 1.49025927 -1.383682 -0.803434 0.678856
O 24.00218625 0.00098041 4.33962936 0.337790 -1.342556 0.548565
O 18.54892584 1.60635139 1.57247953 0.793085 -0.091002 0.513063
O 17.66934826 1.60287338 4.32704311 1.822349 0.235781 1.081678
Ga 11.11447476 -0.00520572 10.33301187 -0.210623 1.147940 1.034909
Ga 22.33137243 -0.03272883 6.99189512 0.043845 -0.937985 -0.604596
Ga 17.39433189 1.51941301 10.37545646 0.549439 0.095182 0.400707
Ga 16.00616818 1.59294535 6.93333345 -1.685760 -0.771063 -2.010906
Ga 12.64235279 -0.03589017 7.54293225 -0.389391 -0.500211 -0.164768
Ga 20.73914512 0.03900479 9.69154930 1.143344 -0.029348 -0.538544
Ga 18.94288827 1.55512512 7.55641732 0.837525 0.092717 0.608388
Ga 14.41061712 1.53509174 9.70717908 0.044788 -0.986186 0.394700
O 13.03216523 -0.02027773 6.24256358 0.408880 -1.469846 -0.717425
O 20.39598969 -0.05792337 10.91962799 0.362477 -0.015430 1.052459
O 19.32669429 1.55944267 6.27384141 0.612588 -0.245137 0.321526
O 14.11265645 1.60228694 10.96952900 -0.685976 -1.516645 0.486538
O 12.48000169 -0.04010117 8.95467654 0.362369 -0.257945 -0.149531
O 20.91676557 0.01290874 8.24882535 0.402112 0.931761 0.606330
O 18.83460169 1.62929011 8.95106666 -0.248210 -0.040275 0.544070
O 14.61131489 1.59558631 8.26586577 1.359572 0.458716 -0.231830
O 10.77585531 0.00050370 7.20589427 -1.383682 -0.803434 0.678856
O 22.61126225 0.00098041 10.05526436 0.337790 -1.342556 0.548565
O 17.15800184 1.60635139 7.28811453 0.793085 -0.091002 0.513063
O 16.27842426 1.60287338 10.04267811 1.822349 0.235781 1.081678
Ga 12.50539876 3.08191428 4.61737687 -0.210623 1.147940 1.034909
Ga 23.72229643 3.05439117 1.27626012 0.043845 -0.937985 -0.604596
Ga 18.78525589 4.60653301 4.65982146 0.549439 0.095182 0.400707
Ga 17.39709218 4.68006535 1.21769845 -1.685760 -0.771063 -2.010906
Ga 14.03327679 3.05122983 1.82729725 -0.389391 -0.500211 -0.164768
Ga 22.13006912 3.12612479 3.97591430 1.143344 -0.029348 -0.538544
Ga 20.33381227 4.64224512 1.84078232 0.837525 0.092717 0.608388
Ga 15.80154112 4.62221174 3.99154408 0.044788 -0.986186 0.394700
O 14.42308923 3.06684227 0.52692858 0.408880 -1.469846 -0.717425
O 21.78691369 3.02919663 5.20399299 0.362477 -0.015430 1.052459
O 20.71761829 4.64656267 0.55820641 0.612588 -0.245137 0.321526
O 15.50358045 4.68940694 5.25389400 -0.685976 -1.516645 0.486538
O 13.87092569 3.04701883 3.23904154 0.362369 -0.257945 -0.149531
O 22.30768957 3.10002874 2.53319035 0.402112 0.931761 0.606330
O 20.22552569 4.71641011 3.23543166 -0.248210 -0.040275 0.544070
O 16.00223889 4.68270631 2.55023077 1.359572 0.458716 -0.231830
O 12.16677931 3.08762370 1.49025927 -1.383682 -0.803434 0.678856
O 24.00218625 3.08810041 4.33962936 0.337790 -1.342556 0.548565
O 18.54892584 4.69347139 1.57247953 0.793085 -0.091002 0.513063
O 17.66934826 4.68999338 4.32704311 1.822349 0.235781 1.081678
Ga 11.11447476 3.08191428 10.33301187 -0.210623 1.147940 1.034909
Ga 22.33137243 3.05439117 6.99189512 0.043845 -0.937985 -0.604596
Ga 17.39433189 4.60653301 10.37545646 0.549439 0.095182 0.400707
Ga 16.00616818 4.68006535 6.93333345 -1.685760 -0.771063 -2.010906
Ga 12.64235279 3.05122983 7.54293225 -0.389391 -0.500211 -0.164768
Ga 20.73914512 3.12612479 9.69154930 1.143344 -0.029348 -0.538544
Ga 18.94288827 4.64224512 7.55641732 0.837525 0.092717 0.608388
Ga 14.41061712 4.62221174 9.70717908 0.044788 -0.986186 0.394700
O 13.03216523 3.06684227 6.24256358 0.408880 -1.469846 -0.717425
O 20.39598969 3.02919663 10.91962799 0.362477 -0.015430 1.052459
O 19.32669429 4.64656267 6.27384141 0.612588 -0.245137 0.321526
O 14.11265645 4.68940694 10.96952900 -0.685976 -1.516645 0.486538
O 12.48000169 3.04701883 8.95467654 0.362369 -0.257945 -0.149531
O 20.91676557 3.10002874 8.24882535 0.402112 0.931761 0.606330
O 18.83460169 4.71641011 8.95106666 -0.248210 -0.040275 0.544070
O 14.61131489 4.68270631 8.26586577 1.359572 0.458716 -0.231830
O 10.77585531 3.08762370 7.20589427 -1.383682 -0.803434 0.678856
O 22.61126225 3.08810041 10.05526436 0.337790 -1.342556 0.548565
O 17.15800184 4.69347139 7.28811453 0.793085 -0.091002 0.513063
O 16.27842426 4.68999338 10.04267811 1.822349 0.235781 1.081678
159
Lattice="24.484302 0.000000 0.000000 0.000000 6.061979 0.000000 -2.731268 0.000000 11.223424" Properties=species:S:1:pos:R:3:force:R:3 Energy=-628.796905 Virial="-3.714924 -40.755448 -0.776153 10.649757 8.007278 -17.492333 -0.206431 -9.473570 -6.312812" pbc="T T T"
Ga 10.88509450 -0.00630896 1.09844301 -0.526800 0.461188 0.053740
Ga 6.18516081 1.44308952 4.38255891 -1.858573 1.243765 0.240028
Ga 4.74715861 1.53834867 1.19146628 -0.816369 0.745636 0.739618
Ga 1.54220133 0.05906635 1.79121026 0.252314 -0.091037 0.837316
Ga 9.35870156 -0.00294444 3.83722311 1.333998 0.546228 0.087219
Ga 7.64541758 1.47160093 1.77683743 0.201123 0.101100 -1.328501
Ga 3.23946133 1.52652017 3.85966088 1.171468 -0.444122 0.496160
O 1.78125214 -0.03605175 0.52315613 0.159873 -0.403151 0.780225
O 8.99495423 0.01037557 5.09630515 0.757284 0.837577 1.164717
O 8.06106773 1.52799311 0.51498033 0.913739 -2.024995 0.459784
O 2.81213301 1.46075116 5.10563089 1.275744 0.005051 -0.071393
O 1.39828575 0.06165484 3.09821953 -0.640195 1.053368 0.109719
O 9.50849389 0.00969335 2.56227320 1.226209 -0.082370 -0.017097
O 7.48153801 1.57754528 3.13813417 0.145599 0.266186 0.201851
O 3.44570260 1.55655796 2.48702077 -0.622717 0.073703 0.291863
O -0.34144894 -0.01076378 1.49616064 1.154895 -0.621040 0.223480
O 11.21226296 -0.01734601 4.16142132 -0.047010 0.251927 1.148318
O 5.75120616 1.57326832 1.47204137 -0.889166 1.057249 -0.110138
O 5.05059215 1.52350015 4.08827903 0.622804 0.656210 -0.414884
Ga -1.37257918 0.03905237 10.11658819 -0.992651 0.672986 -1.101246
Ga 9.49417050 -0.00630896 6.81407801 -0.526800 0.461188 0.053740
Ga 4.79423681 1.44308952 10.09819391 -1.858573 1.243765 0.240028
Ga 3.35623461 1.53834867 6.90710128 -0.816369 0.745636 0.739618
Ga 0.15127733 0.05906635 7.50684526 0.252314 -0.091037 0.837316
Ga 7.96777756 -0.00294444 9.55285811 1.333998 0.546228 0.087219
Ga 6.25449358 1.47160093 7.49247243 0.201123 0.101100 -1.328501
Ga 1.84853733 1.52652017 9.57529588 1.171468 -0.444122 0.496160
O 0.39032814 -0.03605175 6.23879113 0.159873 -0.403151 0.780225
O 7.60403023 0.01037557 10.81194015 0.757284 0.837577 1.164717
O 6.67014373 1.52799311 6.23061533 0.913739 -2.024995 0.459784
O 1.42120901 1.46075116 10.82126589 1.275744 0.005051 -0.071393
O 0.00736175 0.06165484 8.81385453 -0.640195 1.053368 0.109719
O 8.11756989 0.00969335 8.27790820 1.226209 -0.082370 -0.017097
O 6.09061401 1.57754528 8.85376917 0.145599 0.266186 0.201851
O 2.05477860 1.55655796 8.20265577 -0.622717 0.073703 0.291863
O -1.73237294 -0.01076378 7.21179564 1.154895 -0.621040 0.223480
O 9.82133896 -0.01734601 9.87705632 -0.047010 0.251927 1.148318
O 4.36028216 1.57326832 7.18767637 -0.889166 1.057249 -0.110138
O 3.65966815 1.52350015 9.80391403 0.622804 0.656210 -0.414884
Ga 0.01834482 3.12617237 4.40095319 -0.992651 0.672986 -1.101246
Ga 10.88509450 3.08081104 1.09844301 -0.526800 0.461188 0.053740
Ga 6.18516081 4.53020952 4.38255891 -1.858573 1.243765 0.240028
Ga 4.74715861 4.62546867 1.19146628 -0.816369 0.745636 0.739618
Ga 1.54220133 3.14618635 1.79121026 0.252314 -0.091037 0.837316
Ga 9.35870156 3.08417556 3.83722311 1.333998 0.546228 0.087219
Ga 7.64541758 4.55872093 1.77683743 0.201123 0.101100 -1.328501
Ga 3.23946133 4.61364017 3.85966088 1.171468 -0.444122 0.496160
O 1.78125214 3.05106825 0.52315613 0.159873 -0.403151 0.780225
O 8.99495423 3.09749557 5.09630515 0.757284 0.837577 1.164717
O 8.06106773 4.61511311 0.51498033 0.913739 -2.024995 0.459784
O 2.81213301 4.54787116 5.10563089 1.275744 0.005051 -0.071393
O 1.39828575 3.14877484 3.09821953 -0.640195 1.053368 0.109719
O 9.50849389 3.09681335 2.56227320 1.226209 -0.082370 -0.017097
O 7.48153801 4.66466528 3.13813417 0.145599 0.266186 0.201851
O 3.44570260 4.64367796 2.48702077 -0.622717 0.073703 0.291863
O -0.34144894 3.07635622 1.49616064 1.154895 -0.621040 0.223480
O 11.21226296 3.06977399 4.16142132 -0.047010 0.251927 1.148318
O 5.75120616 4.66038832 1.47204137 -0.889166 1.057249 -0.110138
O 5.05059215 4.61062015 4.08827903 0.622804 0.656210 -0.414884
Ga -1.37257918 3.12617237 10.11658819 -0.992651 0.672986 -1.101246
Ga 9.49417050 3.08081104 6.81407801 -0.526800 0.461188 0.053740
Ga 4.79423681 4.53020952 10.09819391 -1.858573 1.243765 0.240028
Ga 3.35623461 4.62546867 6.90710128 -0.816369 0.745636 0.739618
Ga 0.15127733 3.14618635 7.50684526 0.252314 -0.091037 0.837316
Ga 7.96777756 3.08417556 9.55285811 1.333998 0.546228 0.087219
Ga 6.25449358 4.55872093 7.49247243 0.201123 0.101100 -1.328501
Ga 1.84853733 4.61364017 9.57529588 1.171468 -0.444122 0.496160
O 0.39032814 3.05106825 6.23879113 0.159873 -0.403151 0.780225
O 7.60403023 3.09749557 10.81194015 0.757284 0.837577 1.164717
O 6.67014373 4.61511311 6.23061533 0.913739 -2.024995 0.459784
O 1.42120901 4.54787116 10.82126589 1.275744 0.005051 -0.071393
O 0.00736175 3.14877484 8.81385453 -0.640195 1.053368 0.109719
O 8.11756989 3.09681335 8.27790820 1.226209 -0.082370 -0.017097
O 6.09061401 4.66466528 8.85376917 0.145599 0.266186 0.201851
O 2.05477860 4.64367796 8.20265577 -0.622717 0.073703 0.291863
O -1.73237294 3.07635622 7.21179564 1.154895 -0.621040 0.223480
O 9.82133896 3.06977399 9.87705632 -0.047010 0.251927 1.148318
O 4.36028216 4.66038832 7.18767637 -0.889166 1.057249 -0.110138
O 3.65966815 4.61062015 9.80391403 0.622804 0.656210 -0.414884
Ga 12.48720582 0.03905237 4.40095319 -0.992651 0.672986 -1.101246
Ga 23.35395550 -0.00630896 1.09844301 -0.526800 0.461188 0.053740
Ga 18.65402181 1.44308952 4.38255891 -1.858573 1.243765 0.240028
Ga 17.21601961 1.53834867 1.19146628 -0.816369 0.745636 0.739618
Ga 14.01106233 0.05906635 1.79121026 0.252314 -0.091037 0.837316
Ga 21.82756256 -0.00294444 3.83722311 1.333998 0.546228 0.087219
Ga 20.11427858 1.47160093 1.77683743 0.201123 0.101100 -1.328501
Ga 15.70832233 1.52652017 3.85966088 1.171468 -0.444122 0.496160
O 14.25011314 -0.03605175 0.52315613 0.159873 -0.403151 0.780225
O 21.46381523 0.01037557 5.09630515 0.757284 0.837577 1.164717
O 20.52992873 1.52799311 0.51498033 0.913739 -2.024995 0.459784
O 15.28099401 1.46075116 5.10563089 1.275744 0.005051 -0.071393
O 13.86714675 0.06165484 3.09821953 -0.640195 1.053368 0.109719
O 21.97735489 0.00969335 2.56227320 1.226209 -0.082370 -0.017097
O 19.95039901 1.57754528 3.13813417 0.145599 0.266186 0.201851
O 15.91456360 1.55655796 2.48702077 -0.622717 0.073703 0.291863
O 12.12741206 -0.01076378 1.49616064 1.154895 -0.621040 0.223480
O 23.68112396 -0.01734601 4.16142132 -0.047010 0.251927 1.148318
O 18.22006716 1.57326832 1.47204137 -0.889166 1.057249 -0.110138
O 17.51945315 1.52350015 4.08827903 0.622804 0.656210 -0.414884
Ga 11.09628182 0.03905237 10.11658819 -0.992651 0.672986 -1.101246
Ga 21.96303150 -0.00630896 6.81407801 -0.526800 0.461188 0.053740
Ga 17.26309781 1.44308952 10.09819391 -1.858573 1.243765 0.240028
Ga 15.82509561 1.53834867 6.90710128 -0.816369 0.745636 0.739618
Ga 12.62013833 0.05906635 7.50684526 0.252314 -0.091037 0.837316
Ga 20.43663856 -0.00294444 9.55285811 1.333998 0.546228 0.087219
Ga 18.72335458 1.47160093 7.49247243 0.201123 0.101100 -1.328501
Ga 14.31739833 1.52652017 9.57529588 1.171468 -0.444122 0.496160
O 12.85918914 -0.03605175 6.23879113 0.159873 -0.403151 0.780225
O 20.07289123 0.01037557 10.81194015 0.757284 0.837577 1.164717
O 19.13900473 1.52799311 6.23061533 0.913739 -2.024995 0.459784
O 13.89007001 1.46075116 10.82126589 1.275744 0.005051 -0.071393
O 12.47622275 0.06165484 8.81385453 -0.640195 1.053368 0.109719
O 20.58643089 0.00969335 8.27790820 1.226209 -0.082370 -0.017097
O 18.55947501 1.57754528 8.85376917 0.145599 0.266186 0.201851
O 14.52363960 1.55655796 8.20265577 -0.622717 0.073703 0.291863
O 10.73648806 -0.01076378 7.21179564 1.154895 -0.621040 0.223480
O 22.29019996 -0.01734601 9.87705632 -0.047010 0.251927 1.148318
O 16.82914316 1.57326832 7.18767637 -0.889166 1.057249 -0.110138
O 16.12852915 1.52350015 9.80391403 0.622804 0.656210 -0.414884
Ga 12.48720582 3.12617237 4.40095319 -0.992651 0.672986 -1.101246
Ga 23.35395550 3.08081104 1.09844301 -0.526800 0.461188 0.053740
Ga 18.65402181 4.53020952 4.38255891 -1.858573 1.243765 0.240028
Ga 17.21601961 4.62546867 1.19146628 -0.816369 0.745636 0.739618
Ga 14.01106233 3.14618635 1.79121026 0.252314 -0.091037 0.837316
Ga 21.82756256 3.08417556 3.83722311 1.333998 0.546228 0.087219
Ga 20.11427858 4.55872093 1.77683743 0.201123 0.101100 -1.328501
Ga 15.70832233 4.61364017 3.85966088 1.171468 -0.444122 0.496160
O 14.25011314 3.05106825 0.52315613 0.159873 -0.403151 0.780225
O 21.46381523 3.09749557 5.09630515 0.757284 0.837577 1.164717
O 20.52992873 4.61511311 0.51498033 0.913739 -2.024995 0.459784
O 15.28099401 4.54787116 5.10563089 1.275744 0.005051 -0.071393
O 13.86714675 3.14877484 3.09821953 -0.640195 1.053368 0.109719
O 21.97735489 3.09681335 2.56227320 1.226209 -0.082370 -0.017097
O 19.95039901 4.66466528 3.13813417 0.145599 0.266186 0.201851
O 15.91456360 4.64367796 2.48702077 -0.622717 0.073703 0.291863
O 12.12741206 3.07635622 1.49616064 1.154895 -0.621040 0.223480
O 23.68112396 3.06977399 4.16142132 -0.047010 0.251927 1.148318
O 18.22006716 4.66038832 1.47204137 -0.889166 1.057249 -0.110138
O 17.51945315 4.61062015 4.08827903 0.622804 0.656210 -0.414884
Ga 11.09628182 3.12617237 10.11658819 -0.992651 0.672986 -1.101246
Ga 21.96303150 3.08081104 6.81407801 -0.526800 0.461188 0.053740
Ga 17.26309781 4.53020952 10.09819391 -1.858573 1.243765 0.240028
Ga 15.82509561 4.62546867 6.90710128 -0.816369 0.745636 0.739618
Ga 12.62013833 3.14618635 7.50684526 0.252314 -0.091037 0.837316
Ga 20.43663856 3.08417556 9.55285811 1.333998 0.546228 0.087219
Ga 18.72335458 4.55872093 7.49247243 0.201123 0.101100 -1.328501
Ga 14.31739833 4.61364017 9.57529588 1.171468 -0.444122 0.496160
O 12.85918914 3.05106825 6.23879113 0.159873 -0.403151 0.780225
O 20.07289123 3.09749557 10.81194015 0.757284 0.837577 1.164717
O 19.13900473 4.61511311 6.23061533 0.913739 -2.024995 0.459784
O 13.89007001 4.54787116 10.82126589 1.275744 0.005051 -0.071393
O 12.47622275 3.14877484 8.81385453 -0.640195 1.053368 0.109719
O 20.58643089 3.09681335 8.27790820 1.226209 -0.082370 -0.017097
O 18.55947501 4.66466528 8.85376917 0.145599 0.266186 0.201851
O 14.52363960 4.64367796 8.20265577 -0.622717 0.073703 0.291863
O 10.73648806 3.07635622 7.21179564 1.154895 -0.621040 0.223480
O 22.29019996 3.06977399 9.87705632 -0.047010 0.251927 1.148318
O 16.82914316 4.66038832 7.18767637 -0.889166 1.057249 -0.110138
O 16.12852915 4.61062015 9.80391403 0.622804 0.656210 -0.414884
159
Lattice="25.220669 0.000000 0.000000 0.000000 6.244294 0.000000 -2.813411 0.000000 11.560970" Properties=species:S:1:pos:R:3:force:R:3 Energy=-629.088318 Virial="-17.805235 -20.967381 28.812842 19.550888 11.353372 -7.605794 7.727555 3.707698 9.808542" pbc="T T T"
Ga 11.17793942 0.01536262 1.18600345 0.259894 -0.324987 -1.393949
Ga 6.24593619 1.55750862 4.54099526 -0.493935 0.892848 0.619185
Ga 4.90178164 1.57573735 1.14971605 0.055921 0.783004 -0.958373
Ga 1.53745740 -0.04236854 1.81372180 -0.480376 -0.352616 -1.409903
Ga 9.68382223 -0.03942904 3.98441818 -0.492011 0.828872 0.939537
Ga 7.84196937 1.52935850 1.81194775 -0.871360 0.793906 -0.558459
Ga 3.29903924 1.53892745 3.91634120 1.091757 0.353770 0.413655
O 2.01445314 0.00141054 0.51537691 0.730981 -0.385457 -0.473583
O 9.27632367 -0.00449312 5.22828057 -0.987527 -1.910729 -0.790850
O 8.26559840 1.59137373 0.52214588 0.660675 0.416515 0.331626
O 2.93956414 1.55007135 5.14504251 0.477283 -0.092721 -0.549606
O 1.33603809 0.05467497 3.29130916 -1.083155 1.629035 -0.014497
O 9.79702144 0.02306228 2.56742484 0.012634 -0.292081 0.488528
O 7.82496857 1.60585641 3.22039375 -2.043388 -0.973932 -0.831972
O 3.46359365 1.49681556 2.56311337 -0.887916 -0.700399 0.309501
O -0.33992922 -0.05689015 1.45394176 0.281559 -0.038715 -0.683454
O 11.47004188 0.06748567 4.33594620 0.204848 -0.364586 0.416862
O 5.99517249 1.62027118 1.48289941 -0.386592 -0.721027 1.606062
O 5.17368584 1.62199838 4.32223701 0.688131 0.759430 0.263642
Ga -1.30231210 -0.05520406 10.24067374 0.466244 0.863241 -0.080349
Ga 9.78701542 0.01536262 6.90163845 0.259894 -0.324987 -1.393949
Ga 4.85501219 1.55750862 10.25663026 -0.493935 0.892848 0.619185
Ga 3.51085764 1.57573735 6.86535105 0.055921 0.783004 -0.958373
Ga 0.14653340 -0.04236854 7.52935680 -0.480376 -0.352616 -1.409903
Ga 8.29289823 -0.03942904 9.70005318 -0.492011 0.828872 0.939537
Ga 6.45104537 1.52935850 7.52758275 -0.871360 0.793906 -0.558459
Ga 1.90811524 1.53892745 9.63197620 1.091757 0.353770 0.413655
O 0.62352914 0.00141054 6.23101191 0.730981 -0.385457 -0.473583
O 7.88539967 -0.00449312 10.94391557 -0.987527 -1.910729 -0.790850
O 6.87467440 1.59137373 6.23778088 0.660675 0.416515 0.331626
O 1.54864014 1.55007135 10.86067751 0.477283 -0.092721 -0.549606
O -0.05488591 0.05467497 9.00694416 -1.083155 1.629035 -0.014497
O 8.40609744 0.02306228 8.28305984 0.012634 -0.292081 0.488528
O 6.43404457 1.60585641 8.93602875 -2.043388 -0.973932 -0.831972
O 2.07266965 1.49681556 8.27874837 -0.887916 -0.700399 0.309501
O -1.73085322 -0.05689015 7.16957676 0.281559 -0.038715 -0.683454
O 10.07911788 0.06748567 10.05158120 0.204848 -0.364586 0.416862
O 4.60424849 1.62027118 7.19853441 -0.386592 -0.721027 1.606062
O 3.78276184 1.62199838 10.03787201 0.688131 0.759430 0.263642
Ga 0.08861190 3.03191594 4.52503874 0.466244 0.863241 -0.080349
Ga 11.17793942 3.10248262 1.18600345 0.259894 -0.324987 -1.393949
Ga 6.24593619 4.64462862 4.54099526 -0.493935 0.892848 0.619185
Ga 4.90178164 4.66285735 1.14971605 0.055921 0.783004 -0.958373
Ga 1.53745740 3.04475146 1.81372180 -0.480376 -0.352616 -1.409903
Ga 9.68382223 3.04769096 3.98441818 -0.492011 0.828872 0.939537
Ga 7.84196937 4.61647850 1.81194775 -0.871360 0.793906 -0.558459
Ga 3.29903924 4.62604745 3.91634120 1.091757 0.353770 0.413655
O 2.01445314 3.08853054 0.51537691 0.730981 -0.385457 -0.473583
O 9.27632367 3.08262688 5.22828057 -0.987527 -1.910729 -0.790850
O 8.26559840 4.67849373 0.52214588 0.660675 0.416515 0.331626
O 2.93956414 4.63719135 5.14504251 0.477283 -0.092721 -0.549606
O 1.33603809 3.14179497 3.29130916 -1.083155 1.629035 -0.014497
O 9.79702144 3.11018228 2.56742484 0.012634 -0.292081 0.488528
O 7.82496857 4.69297641 3.22039375 -2.043388 -0.973932 -0.831972
O 3.46359365 4.58393556 2.56311337 -0.887916 -0.700399 0.309501
O -0.33992922 3.03022985 1.45394176 0.281559 -0.038715 -0.683454
O 11.47004188 3.15460567 4.33594620 0.204848 -0.364586 0.416862
O 5.99517249 4.70739118 1.48289941 -0.386592 -0.721027 1.606062
O 5.17368584 4.70911838 4.32223701 0.688131 0.759430 0.263642
Ga -1.30231210 3.03191594 10.24067374 0.466244 0.863241 -0.080349
Ga 9.78701542 3.10248262 6.90163845 0.259894 -0.324987 -1.393949
Ga 4.85501219 4.64462862 10.25663026 -0.493935 0.892848 0.619185
Ga 3.51085764 4.66285735 6.86535105 0.055921 0.783004 -0.958373
Ga 0.14653340 3.04475146 7.52935680 -0.480376 -0.352616 -1.409903
Ga 8.29289823 3.04769096 9.70005318 -0.492011 0.828872 0.939537
Ga 6.45104537 4.61647850 7.52758275 -0.871360 0.793906 -0.558459
Ga 1.90811524 4.62604745 9.63197620 1.091757 0.353770 0.413655
O 0.62352914 3.08853054 6.23101191 0.730981 -0.385457 -0.473583
O 7.88539967 3.08262688 10.94391557 -0.987527 -1.910729 -0.790850
O 6.87467440 4.67849373 6.23778088 0.660675 0.416515 0.331626
O 1.54864014 4.63719135 10.86067751 0.477283 -0.092721 -0.549606
O -0.05488591 3.14179497 9.00694416 -1.083155 1.629035 -0.014497
O 8.40609744 3.11018228 8.28305984 0.012634 -0.292081 0.488528
O 6.43404457 4.69297641 8.93602875 -2.043388 -0.973932 -0.831972
O 2.07266965 4.58393556 8.27874837 -0.887916 -0.700399 0.309501
O -1.73085322 3.03022985 7.16957676 0.281559 -0.038715 -0.683454
O 10.07911788 3.15460567 10.05158120 0.204848 -0.364586 0.416862
O 4.60424849 4.70739118 7.19853441 -0.386592 -0.721027 1.606062
O 3.78276184 4.70911838 10.03787201 0.688131 0.759430 0.263642
Ga 12.55747290 -0.05520406 4.52503874 0.466244 0.863241 -0.080349
Ga 23.64680042 0.01536262 1.18600345 0.259894 -0.324987 -1.393949
Ga 18.71479719 1.55750862 4.54099526 -0.493935 0.892848 0.619185
Ga 17.37064264 1.57573735 1.14971605 0.055921 0.783004 -0.958373
Ga 14.00631840 -0.04236854 1.81372180 -0.480376 -0.352616 -1.409903
Ga 22.15268323 -0.03942904 3.98441818 -0.492011 0.828872 0.939537
Ga 20.31083037 1.52935850 1.81194775 -0.871360 0.793906 -0.558459
Ga 15.76790024 1.53892745 3.91634120 1.091757 0.353770 0.413655
O 14.48331414 0.00141054 0.51537691 0.730981 -0.385457 -0.473583
O 21.74518467 -0.00449312 5.22828057 -0.987527 -1.910729 -0.790850
O 20.73445940 1.59137373 0.52214588 0.660675 0.416515 0.331626
O 15.40842514 1.55007135 5.14504251 0.477283 -0.092721 -0.549606
O 13.80489909 0.05467497 3.29130916 -1.083155 1.629035 -0.014497
O 22.26588244 0.02306228 2.56742484 0.012634 -0.292081 0.488528
O 20.29382957 1.60585641 3.22039375 -2.043388 -0.973932 -0.831972
O 15.93245465 1.49681556 2.56311337 -0.887916 -0.700399 0.309501
O 12.12893178 -0.05689015 1.45394176 0.281559 -0.038715 -0.683454
O 23.93890288 0.06748567 4.33594620 0.204848 -0.364586 0.416862
O 18.46403349 1.62027118 1.48289941 -0.386592 -0.721027 1.606062
O 17.64254684 1.62199838 4.32223701 0.688131 0.759430 0.263642
Ga 11.16654890 -0.05520406 10.24067374 0.466244 0.863241 -0.080349
Ga 22.25587642 0.01536262 6.90163845 0.259894 -0.324987 -1.393949
Ga 17.32387319 1.55750862 10.25663026 -0.493935 0.892848 0.619185
Ga 15.97971864 1.57573735 6.86535105 0.055921 0.783004 -0.958373
Ga 12.61539440 -0.04236854 7.52935680 -0.480376 -0.352616 -1.409903
Ga 20.76175923 -0.03942904 9.70005318 -0.492011 0.828872 0.939537
Ga 18.91990637 1.52935850 7.52758275 -0.871360 0.793906 -0.558459
Ga 14.37697624 1.53892745 9.63197620 1.091757 0.353770 0.413655
O 13.09239014 0.00141054 6.23101191 0.730981 -0.385457 -0.473583
O 20.35426067 -0.00449312 10.94391557 -0.987527 -1.910729 -0.790850
O 19.34353540 1.59137373 6.23778088 0.660675 0.416515 0.331626
O 14.01750114 1.55007135 10.86067751 0.477283 -0.092721 -0.549606
O 12.41397509 0.05467497 9.00694416 -1.083155 1.629035 -0.014497
O 20.87495844 0.02306228 8.28305984 0.012634 -0.292081 0.488528
O 18.90290557 1.60585641 8.93602875 -2.043388 -0.973932 -0.831972
O 14.54153065 1.49681556 8.27874837 -0.887916 -0.700399 0.309501
O 10.73800778 -0.05689015 7.16957676 0.281559 -0.038715 -0.683454
O 22.54797888 0.06748567 10.05158120 0.204848 -0.364586 0.416862
O 17.07310949 1.62027118 7.19853441 -0.386592 -0.721027 1.606062
O 16.25162284 1.62199838 10.03787201 0.688131 0.759430 0.263642
Ga 12.55747290 3.03191594 4.52503874 0.466244 0.863241 -0.080349
Ga 23.64680042 3.10248262 1.18600345 0.259894 -0.324987 -1.393949
Ga 18.71479719 4.64462862 4.54099526 -0.493935 0.892848 0.619185
Ga 17.37064264 4.66285735 1.14971605 0.055921 0.783004 -0.958373
Ga 14.00631840 3.04475146 1.81372180 -0.480376 -0.352616 -1.409903
Ga 22.15268323 3.04769096 3.98441818 -0.492011 0.828872 0.939537
Ga 20.31083037 4.61647850 1.81194775 -0.871360 0.793906 -0.558459
Ga 15.76790024 4.62604745 3.91634120 1.091757 0.353770 0.413655
O 14.48331414 3.08853054 0.51537691 0.730981 -0.385457 -0.473583
O 21.74518467 3.08262688 5.22828057 -0.987527 -1.910729 -0.790850
O 20.73445940 4.67849373 0.52214588 0.660675 0.416515 0.331626
O 15.40842514 4.63719135 5.14504251 0.477283 -0.092721 -0.549606
O 13.80489909 3.14179497 3.29130916 -1.083155 1.629035 -0.014497
O 22.26588244 3.11018228 2.56742484 0.012634 -0.292081 0.488528
O 20.29382957 4.69297641 3.22039375 -2.043388 -0.973932 -0.831972
O 15.93245465 4.58393556 2.56311337 -0.887916 -0.700399 0.309501
O 12.12893178 3.03022985 1.45394176 0.281559 -0.038715 -0.683454
O 23.93890288 3.15460567 4.33594620 0.204848 -0.364586 0.416862
O 18.46403349 4.70739118 1.48289941 -0.386592 -0.721027 1.606062
O 17.64254684 4.70911838 4.32223701 0.688131 0.759430 0.263642
Ga 11.16654890 3.03191594 10.24067374 0.466244 0.863241 -0.080349
Ga 22.25587642 3.10248262 6.90163845 0.259894 -0.324987 -1.393949
Ga 17.32387319 4.64462862 10.25663026 -0.493935 0.892848 0.619185
Ga 15.97971864 4.66285735 6.86535105 0.055921 0.783004 -0.958373
Ga 12.61539440 3.04475146 7.52935680 -0.480376 -0.352616 -1.409903
Ga 20.76175923 3.04769096 9.70005318 -0.492011 0.828872 0.939537
Ga 18.91990637 4.61647850 7.52758275 -0.871360 0.793906 -0.558459
Ga 14.37697624 4.62604745 9.63197620 1.091757 0.353770 0.413655
O 13.09239014 3.08853054 6.23101191 0.730981 -0.385457 -0.473583
O 20.35426067 3.08262688 10.94391557 -0.987527 -1.910729 -0.790850
O 19.34353540 4.67849373 6.23778088 0.660675 0.416515 0.331626
O 14.01750114 4.63719135 10.86067751 0.477283 -0.092721 -0.549606
O 12.41397509 3.14179497 9.00694416 -1.083155 1.629035 -0.014497
O 20.87495844 3.11018228 8.28305984 0.012634 -0.292081 0.488528
O 18.90290557 4.69297641 8.93602875 -2.043388 -0.973932 -0.831972
O 14.54153065 4.58393556 8.27874837 -0.887916 -0.700399 0.309501
O 10.73800778 3.03022985 7.16957676 0.281559 -0.038715 -0.683454
O 22.54797888 3.15460567 10.05158120 0.204848 -0.364586 0.416862
O 17.07310949 4.70739118 7.19853441 -0.386592 -0.721027 1.606062
O 16.25162284 4.70911838 10.03787201 0.688131 0.759430 0.263642
159
Lattice="24.869553 0.000000 0.000000 0.000000 6.157362 0.000000 -2.774243 0.000000 11.400020" Properties=species:S:1:pos:R:3:force:R:3 Energy=-629.077648 Virial="-5.177258 -13.484850 -4.364029 17.648603 -14.677705 -0.106385 -6.479219 -17.922725 0.096313" pbc="T T T"
Ga 10.97212761 -0.07655110 1.20843314 0.159931 -0.092475 -0.820070
Ga 6.24163566 1.54443512 4.51477197 0.539509 -0.164702 -0.686793
Ga 4.79758640 1.52101610 1.14574204 0.691784 1.181533 0.850076
Ga 1.52104536 -0.01653805 1.75780047 0.757974 0.305676 0.968030
Ga 9.48952561 -0.10011038 3.93645250 0.726180 -0.599327 0.062580
Ga 7.76932035 1.53594414 1.80043680 0.528023 0.370847 -0.591216
Ga 3.30488703 1.51038042 3.88776360 0.685552 0.591581 0.746923
O 1.93004612 0.00830014 0.61753413 -1.577048 1.206017 0.334228
O 9.20352518 0.03732049 5.13373993 -0.917550 -1.324226 -0.453764
O 8.10371962 1.49925863 0.54699160 0.362359 -0.167654 -0.991188
O 2.81171405 1.52099573 5.15194067 0.845510 0.120090 -1.321013
O 1.31623031 0.03190945 3.13503994 0.330436 0.180808 0.760856
O 9.68116192 0.11135110 2.45496481 0.185498 0.016072 -0.189315
O 7.58864833 1.52304209 3.15652686 0.694815 0.590703 1.316450
O 3.48347381 1.58359366 2.55027056 -0.664994 0.686414 -0.097667
O -0.33429753 0.09735392 1.38839343 0.466618 -1.528523 0.733684
O 11.31171295 0.00678917 4.24438323 1.141809 1.999166 -0.003369
O 5.93154525 1.60254586 1.45440912 -0.084933 -0.624035 0.992839
O 5.14017984 1.51555985 4.26434062 -0.022004 -1.387493 0.724821
Ga -1.38330620 -0.02673608 10.30069316 0.158841 0.061607 -0.977428
Ga 9.58120361 -0.07655110 6.92406814 0.159931 -0.092475 -0.820070
Ga 4.85071166 1.54443512 10.23040697 0.539509 -0.164702 -0.686793
Ga 3.40666240 1.52101610 6.86137704 0.691784 1.181533 0.850076
Ga 0.13012136 -0.01653805 7.47343547 0.757974 0.305676 0.968030
Ga 8.09860161 -0.10011038 9.65208750 0.726180 -0.599327 0.062580
Ga 6.37839635 1.53594414 7.51607180 0.528023 0.370847 -0.591216
Ga 1.91396303 1.51038042 9.60339860 0.685552 0.591581 0.746923
O 0.53912212 0.00830014 6.33316913 -1.577048 1.206017 0.334228
O 7.81260118 0.03732049 10.84937493 -0.917550 -1.324226 -0.453764
O 6.71279562 1.49925863 6.26262660 0.362359 -0.167654 -0.991188
O 1.42079005 1.52099573 10.86757567 0.845510 0.120090 -1.321013
O -0.07469369 0.03190945 8.85067494 0.330436 0.180808 0.760856
O 8.29023792 0.11135110 8.17059981 0.185498 0.016072 -0.189315
O 6.19772433 1.52304209 8.87216186 0.694815 0.590703 1.316450
O 2.09254981 1.58359366 8.26590556 -0.664994 0.686414 -0.097667
O -1.72522153 0.09735392 7.10402843 0.466618 -1.528523 0.733684
O 9.92078895 0.00678917 9.96001823 1.141809 1.999166 -0.003369
O 4.54062125 1.60254586 7.17004412 -0.084933 -0.624035 0.992839
O 3.74925584 1.51555985 9.97997562 -0.022004 -1.387493 0.724821
Ga 0.00761780 3.06038392 4.58505816 0.158841 0.061607 -0.977428
Ga 10.97212761 3.01056890 1.20843314 0.159931 -0.092475 -0.820070
Ga 6.24163566 4.63155512 4.51477197 0.539509 -0.164702 -0.686793
Ga 4.79758640 4.60813610 1.14574204 0.691784 1.181533 0.850076
Ga 1.52104536 3.07058195 1.75780047 0.757974 0.305676 0.968030
Ga 9.48952561 2.98700962 3.93645250 0.726180 -0.599327 0.062580
Ga 7.76932035 4.62306414 1.80043680 0.528023 0.370847 -0.591216
Ga 3.30488703 4.59750042 3.88776360 0.685552 0.591581 0.746923
O 1.93004612 3.09542014 0.61753413 -1.577048 1.206017 0.334228
O 9.20352518 3.12444049 5.13373993 -0.917550 -1.324226 -0.453764
O 8.10371962 4.58637863 0.54699160 0.362359 -0.167654 -0.991188
O 2.81171405 4.60811573 5.15194067 0.845510 0.120090 -1.321013
O 1.31623031 3.11902945 3.13503994 0.330436 0.180808 0.760856
O 9.68116192 3.19847110 2.45496481 0.185498 0.016072 -0.189315
O 7.58864833 4.61016209 3.15652686 0.694815 0.590703 1.316450
O 3.48347381 4.67071366 2.55027056 -0.664994 0.686414 -0.097667
O -0.33429753 3.18447392 1.38839343 0.466618 -1.528523 0.733684
O 11.31171295 3.09390917 4.24438323 1.141809 1.999166 -0.003369
O 5.93154525 4.68966586 1.45440912 -0.084933 -0.624035 0.992839
O 5.14017984 4.60267985 4.26434062 -0.022004 -1.387493 0.724821
Ga -1.38330620 3.06038392 10.30069316 0.158841 0.061607 -0.977428
Ga 9.58120361 3.01056890 6.92406814 0.159931 -0.092475 -0.820070
Ga 4.85071166 4.63155512 10.23040697 0.539509 -0.164702 -0.686793
Ga 3.40666240 4.60813610 6.86137704 0.691784 1.181533 0.850076
Ga 0.13012136 3.07058195 7.47343547 0.757974 0.305676 0.968030
Ga 8.09860161 2.98700962 9.65208750 0.726180 -0.599327 0.062580
Ga 6.37839635 4.62306414 7.51607180 0.528023 0.370847 -0.591216
Ga 1.91396303 4.59750042 9.60339860 0.685552 0.591581 0.746923
O 0.53912212 3.09542014 6.33316913 -1.577048 1.206017 0.334228
O 7.81260118 3.12444049 10.84937493 -0.917550 -1.324226 -0.453764
O 6.71279562 4.58637863 6.26262660 0.362359 -0.167654 -0.991188
O 1.42079005 4.60811573 10.86757567 0.845510 0.120090 -1.321013
O -0.07469369 3.11902945 8.85067494 0.330436 0.180808 0.760856
O 8.29023792 3.19847110 8.17059981 0.185498 0.016072 -0.189315
O 6.19772433 4.61016209 8.87216186 0.694815 0.590703 1.316450
O 2.09254981 4.67071366 8.26590556 -0.664994 0.686414 -0.097667
O -1.72522153 3.18447392 7.10402843 0.466618 -1.528523 0.733684
O 9.92078895 3.09390917 9.96001823 1.141809 1.999166 -0.003369
O 4.54062125 4.68966586 7.17004412 -0.084933 -0.624035 0.992839
O 3.74925584 4.60267985 9.97997562 -0.022004 -1.387493 0.724821
Ga 12.47647880 -0.02673608 4.58505816 0.158841 0.061607 -0.977428
Ga 23.44098861 -0.07655110 1.20843314 0.159931 -0.092475 -0.820070
Ga 18.71049666 1.54443512 4.51477197 0.539509 -0.164702 -0.686793
Ga 17.26644740 1.52101610 1.14574204 0.691784 1.181533 0.850076
Ga 13.98990636 -0.01653805 1.75780047 0.757974 0.305676 0.968030
Ga 21.95838661 -0.10011038 3.93645250 0.726180 -0.599327 0.062580
Ga 20.23818135 1.53594414 1.80043680 0.528023 0.370847 -0.591216
Ga 15.77374803 1.51038042 3.88776360 0.685552 0.591581 0.746923
O 14.39890712 0.00830014 0.61753413 -1.577048 1.206017 0.334228
O 21.67238618 0.03732049 5.13373993 -0.917550 -1.324226 -0.453764
O 20.57258062 1.49925863 0.54699160 0.362359 -0.167654 -0.991188
O 15.28057505 1.52099573 5.15194067 0.845510 0.120090 -1.321013
O 13.78509131 0.03190945 3.13503994 0.330436 0.180808 0.760856
O 22.15002292 0.11135110 2.45496481 0.185498 0.016072 -0.189315
O 20.05750933 1.52304209 3.15652686 0.694815 0.590703 1.316450
O 15.95233481 1.58359366 2.55027056 -0.664994 0.686414 -0.097667
O 12.13456347 0.09735392 1.38839343 0.466618 -1.528523 0.733684
O 23.78057395 0.00678917 4.24438323 1.141809 1.999166 -0.003369
O 18.40040625 1.60254586 1.45440912 -0.084933 -0.624035 0.992839
O 17.60904084 1.51555985 4.26434062 -0.022004 -1.387493 0.724821
Ga 11.08555480 -0.02673608 10.30069316 0.158841 0.061607 -0.977428
Ga 22.05006461 -0.07655110 6.92406814 0.159931 -0.092475 -0.820070
Ga 17.31957266 1.54443512 10.23040697 0.539509 -0.164702 -0.686793
Ga 15.87552340 1.52101610 6.86137704 0.691784 1.181533 0.850076
Ga 12.59898236 -0.01653805 7.47343547 0.757974 0.305676 0.968030
Ga 20.56746261 -0.10011038 9.65208750 0.726180 -0.599327 0.062580
Ga 18.84725735 1.53594414 7.51607180 0.528023 0.370847 -0.591216
Ga 14.38282403 1.51038042 9.60339860 0.685552 0.591581 0.746923
O 13.00798312 0.00830014 6.33316913 -1.577048 1.206017 0.334228
O 20.28146218 0.03732049 10.84937493 -0.917550 -1.324226 -0.453764
O 19.18165662 1.49925863 6.26262660 0.362359 -0.167654 -0.991188
O 13.88965105 1.52099573 10.86757567 0.845510 0.120090 -1.321013
O 12.39416731 0.03190945 8.85067494 0.330436 0.180808 0.760856
O 20.75909892 0.11135110 8.17059981 0.185498 0.016072 -0.189315
O 18.66658533 1.52304209 8.87216186 0.694815 0.590703 1.316450
O 14.56141081 1.58359366 8.26590556 -0.664994 0.686414 -0.097667
O 10.74363947 0.09735392 7.10402843 0.466618 -1.528523 0.733684
O 22.38964995 0.00678917 9.96001823 1.141809 1.999166 -0.003369
O 17.00948225 1.60254586 7.17004412 -0.084933 -0.624035 0.992839
O 16.21811684 1.51555985 9.97997562 -0.022004 -1.387493 0.724821
Ga 12.47647880 3.06038392 4.58505816 0.158841 0.061607 -0.977428
Ga 23.44098861 3.01056890 1.20843314 0.159931 -0.092475 -0.820070
Ga 18.71049666 4.63155512 4.51477197 0.539509 -0.164702 -0.686793
Ga 17.26644740 4.60813610 1.14574204 0.691784 1.181533 0.850076
Ga 13.98990636 3.07058195 1.75780047 0.757974 0.305676 0.968030
Ga 21.95838661 2.98700962 3.93645250 0.726180 -0.599327 0.062580
Ga 20.23818135 4.62306414 1.80043680 0.528023 0.370847 -0.591216
Ga 15.77374803 4.59750042 3.88776360 0.685552 0.591581 0.746923
O 14.39890712 3.09542014 0.61753413 -1.577048 1.206017 0.334228
O 21.67238618 3.12444049 5.13373993 -0.917550 -1.324226 -0.453764
O 20.57258062 4.58637863 0.54699160 0.362359 -0.167654 -0.991188
O 15.28057505 4.60811573 5.15194067 0.845510 0.120090 -1.321013
O 13.78509131 3.11902945 3.13503994 0.330436 0.180808 0.760856
O 22.15002292 3.19847110 2.45496481 0.185498 0.016072 -0.189315
O 20.05750933 4.61016209 3.15652686 0.694815 0.590703 1.316450
O 15.95233481 4.67071366 2.55027056 -0.664994 0.686414 -0.097667
O 12.13456347 3.18447392 1.38839343 0.466618 -1.528523 0.733684
O 23.78057395 3.09390917 4.24438323 1.141809 1.999166 -0.003369
O 18.40040625 4.68966586 1.45440912 -0.084933 -0.624035 0.992839
O 17.60904084 4.60267985 4.26434062 -0.022004 -1.387493 0.724821
Ga 11.08555480 3.06038392 10.30069316 0.158841 0.061607 -0.977428
Ga 22.05006461 3.01056890 6.92406814 0.159931 -0.092475 -0.820070
Ga 17.31957266 4.63155512 10.23040697 0.539509 -0.164702 -0.686793
Ga 15.87552340 4.60813610 6.86137704 0.691784 1.181533 0.850076
Ga 12.59898236 3.07058195 7.47343547 0.757974 0.305676 0.968030
Ga 20.56746261 2.98700962 9.65208750 0.726180 -0.599327 0.062580
Ga 18.84725735 4.62306414 7.51607180 0.528023 0.370847 -0.591216
Ga 14.38282403 4.59750042 9.60339860 0.685552 0.591581 0.746923
O 13.00798312 3.09542014 6.33316913 -1.577048 1.206017 0.334228
O 20.28146218 3.12444049 10.84937493 -0.917550 -1.324226 -0.453764
O 19.18165662 4.58637863 6.26262660 0.362359 -0.167654 -0.991188
O 13.88965105 4.60811573 10.86757567 0.845510 0.120090 -1.321013
O 12.39416731 3.11902945 8.85067494 0.330436 0.180808 0.760856
O 20.75909892 3.19847110 8.17059981 0.185498 0.016072 -0.189315
O 18.66658533 4.61016209 8.87216186 0.694815 0.590703 1.316450
O 14.56141081 4.67071366 8.26590556 -0.664994 0.686414 -0.097667
O 10.74363947 3.18447392 7.10402843 0.466618 -1.528523 0.733684
O 22.38964995 3.09390917 9.96001823 1.141809 1.999166 -0.003369
O 17.00948225 4.68966586 7.17004412 -0.084933 -0.624035 0.992839
O 16.21811684 4.60267985 9.97997562 -0.022004 -1.387493 0.724821
159
Lattice="24.602217 0.000000 0.000000 0.000000 6.091173 0.000000 -2.744422 0.000000 11.277475" Properties=species:S:1:pos:R:3:force:R:3 Energy=-628.687585 Virial="-6.377363 -39.572881 -5.310994 34.875572 4.637609 12.545760 -4.690701 12.577663 -2.298513" pbc="T T T"
Ga 10.98902128 0.03484499 1.14515546 -0.494800 0.098038 -0.032089
Ga 6.22149384 1.50647030 4.39901682 0.611608 0.572003 -0.016856
Ga 4.71512834 1.44796163 1.14413586 1.110213 1.025026 -0.215441
Ga 1.52054377 0.06705749 1.78476912 0.102669 0.809323 -1.164770
Ga 9.40032601 0.03317622 3.77860077 0.353471 -1.094887 0.272842
Ga 7.67978606 1.55362792 1.71254857 0.500400 -1.001819 -1.518754
Ga 3.30428575 1.53633317 3.85043467 -0.727649 -0.888795 0.743892
O 1.91370481 0.09082771 0.53731635 0.781088 -1.283878 -0.183687
O 9.05043236 -0.01837444 5.07470273 -0.196270 0.462469 -0.209760
O 8.07216141 1.48854996 0.53290435 0.215440 -0.363357 0.313490
O 2.87084279 1.54195250 5.12204299 1.470370 0.492777 -1.452619
O 1.40389926 -0.02040066 3.13562060 -1.030820 -0.483607 1.148668
O 9.52734886 -0.01777173 2.50741463 -1.009738 -0.496142 -0.248627
O 7.54323166 1.48590670 3.18119983 0.155386 0.059107 -0.488175
O 3.47017047 1.53933071 2.56739444 0.287878 0.950224 -0.000191
O -0.33303301 -0.04978619 1.37236860 -1.347720 1.124277 0.887049
O 11.29082029 0.02617463 4.19299740 0.691086 0.684838 -0.896702
O 5.85967076 1.47777375 1.54134749 1.808271 -0.436610 0.326857
O 5.08559390 1.52716910 4.22425146 -1.241438 -0.514528 -0.379424
Ga -1.35225410 -0.01683938 10.20776780 -0.844253 0.242448 -0.676168
Ga 9.59809728 0.03484499 6.86079046 -0.494800 0.098038 -0.032089
Ga 4.83056984 1.50647030 10.11465182 0.611608 0.572003 -0.016856
Ga 3.32420434 1.44796163 6.85977086 1.110213 1.025026 -0.215441
Ga 0.12961977 0.06705749 7.50040412 0.102669 0.809323 -1.164770
Ga 8.00940201 0.03317622 9.49423577 0.353471 -1.094887 0.272842
Ga 6.28886206 1.55362792 7.42818357 0.500400 -1.001819 -1.518754
Ga 1.91336175 1.53633317 9.56606967 -0.727649 -0.888795 0.743892
O 0.52278081 0.09082771 6.25295135 0.781088 -1.283878 -0.183687
O 7.65950836 -0.01837444 10.79033773 -0.196270 0.462469 -0.209760
O 6.68123741 1.48854996 6.24853935 0.215440 -0.363357 0.313490
O 1.47991879 1.54195250 10.83767799 1.470370 0.492777 -1.452619
O 0.01297526 -0.02040066 8.85125560 -1.030820 -0.483607 1.148668
O 8.13642486 -0.01777173 8.22304963 -1.009738 -0.496142 -0.248627
O 6.15230766 1.48590670 8.89683483 0.155386 0.059107 -0.488175
O 2.07924647 1.53933071 8.28302944 0.287878 0.950224 -0.000191
O -1.72395701 -0.04978619 7.08800360 -1.347720 1.124277 0.887049
O 9.89989629 0.02617463 9.90863240 0.691086 0.684838 -0.896702
O 4.46874676 1.47777375 7.25698249 1.808271 -0.436610 0.326857
O 3.69466990 1.52716910 9.93988646 -1.241438 -0.514528 -0.379424
Ga 0.03866990 3.07028062 4.49213280 -0.844253 0.242448 -0.676168
Ga 10.98902128 3.12196499 1.14515546 -0.494800 0.098038 -0.032089
Ga 6.22149384 4.59359030 4.39901682 0.611608 0.572003 -0.016856
Ga 4.71512834 4.53508163 1.14413586 1.110213 1.025026 -0.215441
Ga 1.52054377 3.15417749 1.78476912 0.102669 0.809323 -1.164770
Ga 9.40032601 3.12029622 3.77860077 0.353471 -1.094887 0.272842
Ga 7.67978606 4.64074792 1.71254857 0.500400 -1.001819 -1.518754
Ga 3.30428575 4.62345317 3.85043467 -0.727649 -0.888795 0.743892
O 1.91370481 3.17794771 0.53731635 0.781088 -1.283878 -0.183687
O 9.05043236 3.06874556 5.07470273 -0.196270 0.462469 -0.209760
O 8.07216141 4.57566996 0.53290435 0.215440 -0.363357 0.313490
O 2.87084279 4.62907250 5.12204299 1.470370 0.492777 -1.452619
O 1.40389926 3.06671934 3.13562060 -1.030820 -0.483607 1.148668
O 9.52734886 3.06934827 2.50741463 -1.009738 -0.496142 -0.248627
O 7.54323166 4.57302670 3.18119983 0.155386 0.059107 -0.488175
O 3.47017047 4.62645071 2.56739444 0.287878 0.950224 -0.000191
O -0.33303301 3.03733381 1.37236860 -1.347720 1.124277 0.887049
O 11.29082029 3.11329463 4.19299740 0.691086 0.684838 -0.896702
O 5.85967076 4.56489375 1.54134749 1.808271 -0.436610 0.326857
O 5.08559390 4.61428910 4.22425146 -1.241438 -0.514528 -0.379424
Ga -1.35225410 3.07028062 10.20776780 -0.844253 0.242448 -0.676168
Ga 9.59809728 3.12196499 6.86079046 -0.494800 0.098038 -0.032089
Ga 4.83056984 4.59359030 10.11465182 0.611608 0.572003 -0.016856
Ga 3.32420434 4.53508163 6.85977086 1.110213 1.025026 -0.215441
Ga 0.12961977 3.15417749 7.50040412 0.102669 0.809323 -1.164770
Ga 8.00940201 3.12029622 9.49423577 0.353471 -1.094887 0.272842
Ga 6.28886206 4.64074792 7.42818357 0.500400 -1.001819 -1.518754
Ga 1.91336175 4.62345317 9.56606967 -0.727649 -0.888795 0.743892
O 0.52278081 3.17794771 6.25295135 0.781088 -1.283878 -0.183687
O 7.65950836 3.06874556 10.79033773 -0.196270 0.462469 -0.209760
O 6.68123741 4.57566996 6.24853935 0.215440 -0.363357 0.313490
O 1.47991879 4.62907250 10.83767799 1.470370 0.492777 -1.452619
O 0.01297526 3.06671934 8.85125560 -1.030820 -0.483607 1.148668
O 8.13642486 3.06934827 8.22304963 -1.009738 -0.496142 -0.248627
O 6.15230766 4.57302670 8.89683483 0.155386 0.059107 -0.488175
O 2.07924647 4.62645071 8.28302944 0.287878 0.950224 -0.000191
O -1.72395701 3.03733381 7.08800360 -1.347720 1.124277 0.887049
O 9.89989629 3.11329463 9.90863240 0.691086 0.684838 -0.896702
O 4.46874676 4.56489375 7.25698249 1.808271 -0.436610 0.326857
O 3.69466990 4.61428910 9.93988646 -1.241438 -0.514528 -0.379424
Ga 12.50753090 -0.01683938 4.49213280 -0.844253 0.242448 -0.676168
Ga 23.45788228 0.03484499 1.14515546 -0.494800 0.098038 -0.032089
Ga 18.69035484 1.50647030 4.39901682 0.611608 0.572003 -0.016856
Ga 17.18398934 1.44796163 1.14413586 1.110213 1.025026 -0.215441
Ga 13.98940477 0.06705749 1.78476912 0.102669 0.809323 -1.164770
Ga 21.86918701 0.03317622 3.77860077 0.353471 -1.094887 0.272842
Ga 20.14864706 1.55362792 1.71254857 0.500400 -1.001819 -1.518754
Ga 15.77314675 1.53633317 3.85043467 -0.727649 -0.888795 0.743892
O 14.38256581 0.09082771 0.53731635 0.781088 -1.283878 -0.183687
O 21.51929336 -0.01837444 5.07470273 -0.196270 0.462469 -0.209760
O 20.54102241 1.48854996 0.53290435 0.215440 -0.363357 0.313490
O 15.33970379 1.54195250 5.12204299 1.470370 0.492777 -1.452619
O 13.87276026 -0.02040066 3.13562060 -1.030820 -0.483607 1.148668
O 21.99620986 -0.01777173 2.50741463 -1.009738 -0.496142 -0.248627
O 20.01209266 1.48590670 3.18119983 0.155386 0.059107 -0.488175
O 15.93903147 1.53933071 2.56739444 0.287878 0.950224 -0.000191
O 12.13582799 -0.04978619 1.37236860 -1.347720 1.124277 0.887049
O 23.75968129 0.02617463 4.19299740 0.691086 0.684838 -0.896702
O 18.32853176 1.47777375 1.54134749 1.808271 -0.436610 0.326857
O 17.55445490 1.52716910 4.22425146 -1.241438 -0.514528 -0.379424
Ga 11.11660690 -0.01683938 10.20776780 -0.844253 0.242448 -0.676168
Ga 22.06695828 0.03484499 6.86079046 -0.494800 0.098038 -0.032089
Ga 17.29943084 1.50647030 10.11465182 0.611608 0.572003 -0.016856
Ga 15.79306534 1.44796163 6.85977086 1.110213 1.025026 -0.215441
Ga 12.59848077 0.06705749 7.50040412 0.102669 0.809323 -1.164770
Ga 20.47826301 0.03317622 9.49423577 0.353471 -1.094887 0.272842
Ga 18.75772306 1.55362792 7.42818357 0.500400 -1.001819 -1.518754
Ga 14.38222275 1.53633317 9.56606967 -0.727649 -0.888795 0.743892
O 12.99164181 0.09082771 6.25295135 0.781088 -1.283878 -0.183687
O 20.12836936 -0.01837444 10.79033773 -0.196270 0.462469 -0.209760
O 19.15009841 1.48854996 6.24853935 0.215440 -0.363357 0.313490
O 13.94877979 1.54195250 10.83767799 1.470370 0.492777 -1.452619
O 12.48183626 -0.02040066 8.85125560 -1.030820 -0.483607 1.148668
O 20.60528586 -0.01777173 8.22304963 -1.009738 -0.496142 -0.248627
O 18.62116866 1.48590670 8.89683483 0.155386 0.059107 -0.488175
O 14.54810747 1.53933071 8.28302944 0.287878 0.950224 -0.000191
O 10.74490399 -0.04978619 7.08800360 -1.347720 1.124277 0.887049
O 22.36875729 0.02617463 9.90863240 0.691086 0.684838 -0.896702
O 16.93760776 1.47777375 7.25698249 1.808271 -0.436610 0.326857
O 16.16353090 1.52716910 9.93988646 -1.241438 -0.514528 -0.379424
Ga 12.50753090 3.07028062 4.49213280 -0.844253 0.242448 -0.676168
Ga 23.45788228 3.12196499 1.14515546 -0.494800 0.098038 -0.032089
Ga 18.69035484 4.59359030 4.39901682 0.611608 0.572003 -0.016856
Ga 17.18398934 4.53508163 1.14413586 1.110213 1.025026 -0.215441
Ga 13.98940477 3.15417749 1.78476912 0.102669 0.809323 -1.164770
Ga 21.86918701 3.12029622 3.77860077 0.353471 -1.094887 0.272842
Ga 20.14864706 4.64074792 1.71254857 0.500400 -1.001819 -1.518754
Ga 15.77314675 4.62345317 3.85043467 -0.727649 -0.888795 0.743892
O 14.38256581 3.17794771 0.53731635 0.781088 -1.283878 -0.183687
O 21.51929336 3.06874556 5.07470273 -0.196270 0.462469 -0.209760
O 20.54102241 4.57566996 0.53290435 0.215440 -0.363357 0.313490
O 15.33970379 4.62907250 5.12204299 1.470370 0.492777 -1.452619
O 13.87276026 3.06671934 3.13562060 -1.030820 -0.483607 1.148668
O 21.99620986 3.06934827 2.50741463 -1.009738 -0.496142 -0.248627
O 20.01209266 4.57302670 3.18119983 0.155386 0.059107 -0.488175
O 15.93903147 4.62645071 2.56739444 0.287878 0.950224 -0.000191
O 12.13582799 3.03733381 1.37236860 -1.347720 1.124277 0.887049
O 23.75968129 3.11329463 4.19299740 0.691086 0.684838 -0.896702
O 18.32853176 4.56489375 1.54134749 1.808271 -0.436610 0.326857
O 17.55445490 4.61428910 4.22425146 -1.241438 -0.514528 -0.379424
Ga 11.11660690 3.07028062 10.20776780 -0.844253 0.242448 -0.676168
Ga 22.06695828 3.12196499 6.86079046 -0.494800 0.098038 -0.032089
Ga 17.29943084 4.59359030 10.11465182 0.611608 0.572003 -0.016856
Ga 15.79306534 4.53508163 6.85977086 1.110213 1.025026 -0.215441
Ga 12.59848077 3.15417749 7.50040412 0.102669 0.809323 -1.164770
Ga 20.47826301 3.12029622 9.49423577 0.353471 -1.094887 0.272842
Ga 18.75772306 4.64074792 7.42818357 0.500400 -1.001819 -1.518754
Ga 14.38222275 4.62345317 9.56606967 -0.727649 -0.888795 0.743892
O 12.99164181 3.17794771 6.25295135 0.781088 -1.283878 -0.183687
O 20.12836936 3.06874556 10.79033773 -0.196270 0.462469 -0.209760
O 19.15009841 4.57566996 6.24853935 0.215440 -0.363357 0.313490
O 13.94877979 4.62907250 10.83767799 1.470370 0.492777 -1.452619
O 12.48183626 3.06671934 8.85125560 -1.030820 -0.483607 1.148668
O 20.60528586 3.06934827 8.22304963 -1.009738 -0.496142 -0.248627
O 18.62116866 4.57302670 8.89683483 0.155386 0.059107 -0.488175
O 14.54810747 4.62645071 8.28302944 0.287878 0.950224 -0.000191
O 10.74490399 3.03733381 7.08800360 -1.347720 1.124277 0.887049
O 22.36875729 3.11329463 9.90863240 0.691086 0.684838 -0.896702
O 16.93760776 4.56489375 7.25698249 1.808271 -0.436610 0.326857
O 16.16353090 4.61428910 9.93988646 -1.241438 -0.514528 -0.379424
159
Lattice="25.133884 0.000000 0.000000 0.000000 6.222807 0.000000 -2.803730 0.000000 11.521188" Properties=species:S:1:pos:R:3:force:R:3 Energy=-628.610788 Virial="-26.754498 11.876347 11.254525 -0.917574 4.656961 0.626340 -6.469209 -11.413963 -3.429099" pbc="T T T"
Ga 11.09609972 -0.05365781 1.25869878 -0.792398 -0.241673 -1.827005
Ga 6.31421209 1.55970551 4.57375961 -0.311727 0.555561 -0.167695
Ga 4.88946259 1.65724934 1.20418376 0.024314 -1.014929 -0.308084
Ga 1.52912741 -0.00533603 1.85281910 1.154349 -0.101913 1.876873
Ga 9.58911351 0.03408986 3.85778564 -0.524196 0.716887 0.700997
Ga 7.82692694 1.58082729 1.86078426 1.261529 0.626317 -0.878450
Ga 3.29621533 1.49559109 3.94018573 1.118276 0.316031 -0.822778
O 1.88418598 -0.00596147 0.54123005 -1.259682 1.212684 -0.425390
O 9.18310788 0.03217756 5.21280963 -0.348524 0.099035 -1.140349
O 8.25589237 1.48190548 0.50080850 -0.252401 -0.582834 -0.919681
O 2.97306921 1.52373727 5.21251676 -0.563645 -0.251531 0.289081
O 1.39186778 0.00633024 3.18730868 -0.384526 -0.169654 -0.224684
O 9.77920807 -0.03130175 2.57315426 0.832005 -1.742351 0.912475
O 7.67071729 1.56190316 3.31720840 -0.140160 -0.626374 -0.925127
O 3.44548119 1.61124498 2.43980899 -1.097795 1.135930 -0.590955
O -0.39174465 -0.04962560 1.42761147 0.500311 -0.120097 0.334306
O 11.48183408 0.01159369 4.27568892 -0.856054 -0.415473 0.339348
O 5.96886553 1.57681228 1.50804156 0.710361 0.367727 1.153849
O 5.13715421 1.54122605 4.28309818 0.143994 0.255364 -0.386298
Ga -1.35886304 0.01768467 10.30301348 -0.640097 0.661857 -1.209878
Ga 9.70517572 -0.05365781 6.97433378 -0.792398 -0.241673 -1.827005
Ga 4.92328809 1.55970551 10.28939461 -0.311727 0.555561 -0.167695
Ga 3.49853859 1.65724934 6.91981876 0.024314 -1.014929 -0.308084
Ga 0.13820341 -0.00533603 7.56845410 1.154349 -0.101913 1.876873
Ga 8.19818951 0.03408986 9.57342064 -0.524196 0.716887 0.700997
Ga 6.43600294 1.58082729 7.57641926 1.261529 0.626317 -0.878450
Ga 1.90529133 1.49559109 9.65582073 1.118276 0.316031 -0.822778
O 0.49326198 -0.00596147 6.25686505 -1.259682 1.212684 -0.425390
O 7.79218388 0.03217756 10.92844463 -0.348524 0.099035 -1.140349
O 6.86496837 1.48190548 6.21644350 -0.252401 -0.582834 -0.919681
O 1.58214521 1.52373727 10.92815176 -0.563645 -0.251531 0.289081
O 0.00094378 0.00633024 8.90294368 -0.384526 -0.169654 -0.224684
O 8.38828407 -0.03130175 8.28878926 0.832005 -1.742351 0.912475
O 6.27979329 1.56190316 9.03284340 -0.140160 -0.626374 -0.925127
O 2.05455719 1.61124498 8.15544399 -1.097795 1.135930 -0.590955
O -1.78266865 -0.04962560 7.14324647 0.500311 -0.120097 0.334306
O 10.09091008 0.01159369 9.99132392 -0.856054 -0.415473 0.339348
O 4.57794153 1.57681228 7.22367656 0.710361 0.367727 1.153849
O 3.74623021 1.54122605 9.99873318 0.143994 0.255364 -0.386298
Ga 0.03206096 3.10480467 4.58737848 -0.640097 0.661857 -1.209878
Ga 11.09609972 3.03346219 1.25869878 -0.792398 -0.241673 -1.827005
Ga 6.31421209 4.64682551 4.57375961 -0.311727 0.555561 -0.167695
Ga 4.88946259 4.74436934 1.20418376 0.024314 -1.014929 -0.308084
Ga 1.52912741 3.08178397 1.85281910 1.154349 -0.101913 1.876873
Ga 9.58911351 3.12120986 3.85778564 -0.524196 0.716887 0.700997
Ga 7.82692694 4.66794729 1.86078426 1.261529 0.626317 -0.878450
Ga 3.29621533 4.58271109 3.94018573 1.118276 0.316031 -0.822778
O 1.88418598 3.08115853 0.54123005 -1.259682 1.212684 -0.425390
O 9.18310788 3.11929756 5.21280963 -0.348524 0.099035 -1.140349
O 8.25589237 4.56902548 0.50080850 -0.252401 -0.582834 -0.919681
O 2.97306921 4.61085727 5.21251676 -0.563645 -0.251531 0.289081
O 1.39186778 3.09345024 3.18730868 -0.384526 -0.169654 -0.224684
O 9.77920807 3.05581825 2.57315426 0.832005 -1.742351 0.912475
O 7.67071729 4.64902316 3.31720840 -0.140160 -0.626374 -0.925127
O 3.44548119 4.69836498 2.43980899 -1.097795 1.135930 -0.590955
O -0.39174465 3.03749440 1.42761147 0.500311 -0.120097 0.334306
O 11.48183408 3.09871369 4.27568892 -0.856054 -0.415473 0.339348
O 5.96886553 4.66393228 1.50804156 0.710361 0.367727 1.153849
O 5.13715421 4.62834605 4.28309818 0.143994 0.255364 -0.386298
Ga -1.35886304 3.10480467 10.30301348 -0.640097 0.661857 -1.209878
Ga 9.70517572 3.03346219 6.97433378 -0.792398 -0.241673 -1.827005
Ga 4.92328809 4.64682551 10.28939461 -0.311727 0.555561 -0.167695
Ga 3.49853859 4.74436934 6.91981876 0.024314 -1.014929 -0.308084
Ga 0.13820341 3.08178397 7.56845410 1.154349 -0.101913 1.876873
Ga 8.19818951 3.12120986 9.57342064 -0.524196 0.716887 0.700997
Ga 6.43600294 4.66794729 7.57641926 1.261529 0.626317 -0.878450
Ga 1.90529133 4.58271109 9.65582073 1.118276 0.316031 -0.822778
O 0.49326198 3.08115853 6.25686505 -1.259682 1.212684 -0.425390
O 7.79218388 3.11929756 10.92844463 -0.348524 0.099035 -1.140349
O 6.86496837 4.56902548 6.21644350 -0.252401 -0.582834 -0.919681
O 1.58214521 4.61085727 10.92815176 -0.563645 -0.251531 0.289081
O 0.00094378 3.09345024 8.90294368 -0.384526 -0.169654 -0.224684
O 8.38828407 3.05581825 8.28878926 0.832005 -1.742351 0.912475
O 6.27979329 4.64902316 9.03284340 -0.140160 -0.626374 -0.925127
O 2.05455719 4.69836498 8.15544399 -1.097795 1.135930 -0.590955
O -1.78266865 3.03749440 7.14324647 0.500311 -0.120097 0.334306
O 10.09091008 3.09871369 9.99132392 -0.856054 -0.415473 0.339348
O 4.57794153 4.66393228 7.22367656 0.710361 0.367727 1.153849
O 3.74623021 4.62834605 9.99873318 0.143994 0.255364 -0.386298
Ga 12.50092196 0.01768467 4.58737848 -0.640097 0.661857 -1.209878
Ga 23.56496072 -0.05365781 1.25869878 -0.792398 -0.241673 -1.827005
Ga 18.78307309 1.55970551 4.57375961 -0.311727 0.555561 -0.167695
Ga 17.35832359 1.65724934 1.20418376 0.024314 -1.014929 -0.308084
Ga 13.99798841 -0.00533603 1.85281910 1.154349 -0.101913 1.876873
Ga 22.05797451 0.03408986 3.85778564 -0.524196 0.716887 0.700997
Ga 20.29578794 1.58082729 1.86078426 1.261529 0.626317 -0.878450
Ga 15.76507633 1.49559109 3.94018573 1.118276 0.316031 -0.822778
O 14.35304698 -0.00596147 0.54123005 -1.259682 1.212684 -0.425390
O 21.65196888 0.03217756 5.21280963 -0.348524 0.099035 -1.140349
O 20.72475337 1.48190548 0.50080850 -0.252401 -0.582834 -0.919681
O 15.44193021 1.52373727 5.21251676 -0.563645 -0.251531 0.289081
O 13.86072878 0.00633024 3.18730868 -0.384526 -0.169654 -0.224684
O 22.24806907 -0.03130175 2.57315426 0.832005 -1.742351 0.912475
O 20.13957829 1.56190316 3.31720840 -0.140160 -0.626374 -0.925127
O 15.91434219 1.61124498 2.43980899 -1.097795 1.135930 -0.590955
O 12.07711635 -0.04962560 1.42761147 0.500311 -0.120097 0.334306
O 23.95069508 0.01159369 4.27568892 -0.856054 -0.415473 0.339348
O 18.43772653 1.57681228 1.50804156 0.710361 0.367727 1.153849
O 17.60601521 1.54122605 4.28309818 0.143994 0.255364 -0.386298
Ga 11.10999796 0.01768467 10.30301348 -0.640097 0.661857 -1.209878
Ga 22.17403672 -0.05365781 6.97433378 -0.792398 -0.241673 -1.827005
Ga 17.39214909 1.55970551 10.28939461 -0.311727 0.555561 -0.167695
Ga 15.96739959 1.65724934 6.91981876 0.024314 -1.014929 -0.308084
Ga 12.60706441 -0.00533603 7.56845410 1.154349 -0.101913 1.876873
Ga 20.66705051 0.03408986 9.57342064 -0.524196 0.716887 0.700997
Ga 18.90486394 1.58082729 7.57641926 1.261529 0.626317 -0.878450
Ga 14.37415233 1.49559109 9.65582073 1.118276 0.316031 -0.822778
O 12.96212298 -0.00596147 6.25686505 -1.259682 1.212684 -0.425390
O 20.26104488 0.03217756 10.92844463 -0.348524 0.099035 -1.140349
O 19.33382937 1.48190548 6.21644350 -0.252401 -0.582834 -0.919681
O 14.05100621 1.52373727 10.92815176 -0.563645 -0.251531 0.289081
O 12.46980478 0.00633024 8.90294368 -0.384526 -0.169654 -0.224684
O 20.85714507 -0.03130175 8.28878926 0.832005 -1.742351 0.912475
O 18.74865429 1.56190316 9.03284340 -0.140160 -0.626374 -0.925127
O 14.52341819 1.61124498 8.15544399 -1.097795 1.135930 -0.590955
O 10.68619235 -0.04962560 7.14324647 0.500311 -0.120097 0.334306
O 22.55977108 0.01159369 9.99132392 -0.856054 -0.415473 0.339348
O 17.04680253 1.57681228 7.22367656 0.710361 0.367727 1.153849
O 16.21509121 1.54122605 9.99873318 0.143994 0.255364 -0.386298
Ga 12.50092196 3.10480467 4.58737848 -0.640097 0.661857 -1.209878
Ga 23.56496072 3.03346219 1.25869878 -0.792398 -0.241673 -1.827005
Ga 18.78307309 4.64682551 4.57375961 -0.311727 0.555561 -0.167695
Ga 17.35832359 4.74436934 1.20418376 0.024314 -1.014929 -0.308084
Ga 13.99798841 3.08178397 1.85281910 1.154349 -0.101913 1.876873
Ga 22.05797451 3.12120986 3.85778564 -0.524196 0.716887 0.700997
Ga 20.29578794 4.66794729 1.86078426 1.261529 0.626317 -0.878450
Ga 15.76507633 4.58271109 3.94018573 1.118276 0.316031 -0.822778
O 14.35304698 3.08115853 0.54123005 -1.259682 1.212684 -0.425390
O 21.65196888 3.11929756 5.21280963 -0.348524 0.099035 -1.140349
O 20.72475337 4.56902548 0.50080850 -0.252401 -0.582834 -0.919681
O 15.44193021 4.61085727 5.21251676 -0.563645 -0.251531 0.289081
O 13.86072878 3.09345024 3.18730868 -0.384526 -0.169654 -0.224684
O 22.24806907 3.05581825 2.57315426 0.832005 -1.742351 0.912475
O 20.13957829 4.64902316 3.31720840 -0.140160 -0.626374 -0.925127
O 15.91434219 4.69836498 2.43980899 -1.097795 1.135930 -0.590955
O 12.07711635 3.03749440 1.42761147 0.500311 -0.120097 0.334306
O 23.95069508 3.09871369 4.27568892 -0.856054 -0.415473 0.339348
O 18.43772653 4.66393228 1.50804156 0.710361 0.367727 1.153849
O 17.60601521 4.62834605 4.28309818 0.143994 0.255364 -0.386298
Ga 11.10999796 3.10480467 10.30301348 -0.640097 0.661857 -1.209878
Ga 22.17403672 3.03346219 6.97433378 -0.792398 -0.241673 -1.827005
Ga 17.39214909 4.64682551 10.28939461 -0.311727 0.555561 -0.167695
Ga 15.96739959 4.74436934 6.91981876 0.024314 -1.014929 -0.308084
Ga 12.60706441 3.08178397 7.56845410 1.154349 -0.101913 1.876873
Ga 20.66705051 3.12120986 9.57342064 -0.524196 0.716887 0.700997
Ga 18.90486394 4.66794729 7.57641926 1.261529 0.626317 -0.878450
Ga 14.37415233 4.58271109 9.65582073 1.118276 0.316031 -0.822778
O 12.96212298 3.08115853 6.25686505 -1.259682 1.212684 -0.425390
O 20.26104488 3.11929756 10.92844463 -0.348524 0.099035 -1.140349
O 19.33382937 4.56902548 6.21644350 -0.252401 -0.582834 -0.919681
O 14.05100621 4.61085727 10.92815176 -0.563645 -0.251531 0.289081
O 12.46980478 3.09345024 8.90294368 -0.384526 -0.169654 -0.224684
O 20.85714507 3.05581825 8.28878926 0.832005 -1.742351 0.912475
O 18.74865429 4.64902316 9.03284340 -0.140160 -0.626374 -0.925127
O 14.52341819 4.69836498 8.15544399 -1.097795 1.135930 -0.590955
O 10.68619235 3.03749440 7.14324647 0.500311 -0.120097 0.334306
O 22.55977108 3.09871369 9.99132392 -0.856054 -0.415473 0.339348
O 17.04680253 4.66393228 7.22367656 0.710361 0.367727 1.153849
O 16.21509121 4.62834605 9.99873318 0.143994 0.255364 -0.386298
159
Lattice="24.594732 0.000000 0.000000 0.000000 6.089320 0.000000 -2.743587 0.000000 11.274045" Properties=species:S:1:pos:R:3:force:R:3 Energy=-627.795926 Virial="9.427303 -15.686771 6.923272 15.931257 -4.192707 10.471611 -18.011062 -1.648457 0.102265" pbc="T T T"
Ga 10.85752528 -0.02098081 1.17741903 -0.486452 -0.274622 0.890571
Ga 6.12268204 1.55084997 4.46956568 0.062433 -1.570180 0.890685
Ga 4.73901222 1.55076843 1.17561458 -0.026635 -1.493683 -0.211231
Ga 1.50490602 0.04637319 1.72791049 -0.709111 0.786276 0.060699
Ga 9.43086496 0.02372405 3.85348787 -1.066953 -0.030056 -0.708085
Ga 7.68107327 1.47228549 1.80811411 0.718628 0.851170 -1.216342
Ga 3.25014817 1.50142112 3.90783009 -0.105865 0.147171 2.139712
O 1.85964529 -0.05633845 0.46761528 0.418520 0.110548 1.126176
O 9.06199357 -0.05121717 5.17733407 -0.253359 -0.567841 0.736488
O 7.95322514 1.59018829 0.53832114 -1.132130 0.057253 0.144178
O 2.88520136 1.50053327 5.12310775 -0.567273 0.305872 0.705179
O 1.36047780 0.04413208 3.15002748 -0.440545 -0.152174 0.660189
O 9.56960109 -0.01454449 2.48928656 -0.016145 2.250062 -0.297009
O 7.52297854 1.45392330 3.09153095 -0.901577 0.949840 0.170275
O 3.44463630 1.52916465 2.48420505 -1.026025 0.498395 -0.349816
O -0.30125219 0.01390327 1.42148787 0.436993 -0.588307 0.149826
O 11.19642956 0.00783381 4.15480958 0.270605 -0.333522 0.592166
O 5.86302286 1.45422669 1.48424448 1.071113 -0.277932 1.151250
O 5.09778335 1.53257123 4.23325213 -0.679461 1.448562 -0.192217
Ga -1.33061201 0.05086220 10.22368058 -0.270003 -0.155771 -0.154066
Ga 9.46660128 -0.02098081 6.89305403 -0.486452 -0.274622 0.890571
Ga 4.73175804 1.55084997 10.18520068 0.062433 -1.570180 0.890685
Ga 3.34808822 1.55076843 6.89124958 -0.026635 -1.493683 -0.211231
Ga 0.11398202 0.04637319 7.44354549 -0.709111 0.786276 0.060699
Ga 8.03994096 0.02372405 9.56912287 -1.066953 -0.030056 -0.708085
Ga 6.29014927 1.47228549 7.52374911 0.718628 0.851170 -1.216342
Ga 1.85922417 1.50142112 9.62346509 -0.105865 0.147171 2.139712
O 0.46872129 -0.05633845 6.18325028 0.418520 0.110548 1.126176
O 7.67106957 -0.05121717 10.89296907 -0.253359 -0.567841 0.736488
O 6.56230114 1.59018829 6.25395614 -1.132130 0.057253 0.144178
O 1.49427736 1.50053327 10.83874275 -0.567273 0.305872 0.705179
O -0.03044620 0.04413208 8.86566248 -0.440545 -0.152174 0.660189
O 8.17867709 -0.01454449 8.20492156 -0.016145 2.250062 -0.297009
O 6.13205454 1.45392330 8.80716595 -0.901577 0.949840 0.170275
O 2.05371230 1.52916465 8.19984005 -1.026025 0.498395 -0.349816
O -1.69217619 0.01390327 7.13712287 0.436993 -0.588307 0.149826
O 9.80550556 0.00783381 9.87044458 0.270605 -0.333522 0.592166
O 4.47209886 1.45422669 7.19987948 1.071113 -0.277932 1.151250
O 3.70685935 1.53257123 9.94888713 -0.679461 1.448562 -0.192217
Ga 0.06031199 3.13798220 4.50804558 -0.270003 -0.155771 -0.154066
Ga 10.85752528 3.06613919 1.17741903 -0.486452 -0.274622 0.890571
Ga 6.12268204 4.63796997 4.46956568 0.062433 -1.570180 0.890685
Ga 4.73901222 4.63788843 1.17561458 -0.026635 -1.493683 -0.211231
Ga 1.50490602 3.13349319 1.72791049 -0.709111 0.786276 0.060699
Ga 9.43086496 3.11084405 3.85348787 -1.066953 -0.030056 -0.708085
Ga 7.68107327 4.55940549 1.80811411 0.718628 0.851170 -1.216342
Ga 3.25014817 4.58854112 3.90783009 -0.105865 0.147171 2.139712
O 1.85964529 3.03078155 0.46761528 0.418520 0.110548 1.126176
O 9.06199357 3.03590283 5.17733407 -0.253359 -0.567841 0.736488
O 7.95322514 4.67730829 0.53832114 -1.132130 0.057253 0.144178
O 2.88520136 4.58765327 5.12310775 -0.567273 0.305872 0.705179
O 1.36047780 3.13125208 3.15002748 -0.440545 -0.152174 0.660189
O 9.56960109 3.07257551 2.48928656 -0.016145 2.250062 -0.297009
O 7.52297854 4.54104330 3.09153095 -0.901577 0.949840 0.170275
O 3.44463630 4.61628465 2.48420505 -1.026025 0.498395 -0.349816
O -0.30125219 3.10102327 1.42148787 0.436993 -0.588307 0.149826
O 11.19642956 3.09495381 4.15480958 0.270605 -0.333522 0.592166
O 5.86302286 4.54134669 1.48424448 1.071113 -0.277932 1.151250
O 5.09778335 4.61969123 4.23325213 -0.679461 1.448562 -0.192217
Ga -1.33061201 3.13798220 10.22368058 -0.270003 -0.155771 -0.154066
Ga 9.46660128 3.06613919 6.89305403 -0.486452 -0.274622 0.890571
Ga 4.73175804 4.63796997 10.18520068 0.062433 -1.570180 0.890685
Ga 3.34808822 4.63788843 6.89124958 -0.026635 -1.493683 -0.211231
Ga 0.11398202 3.13349319 7.44354549 -0.709111 0.786276 0.060699
Ga 8.03994096 3.11084405 9.56912287 -1.066953 -0.030056 -0.708085
Ga 6.29014927 4.55940549 7.52374911 0.718628 0.851170 -1.216342
Ga 1.85922417 4.58854112 9.62346509 -0.105865 0.147171 2.139712
O 0.46872129 3.03078155 6.18325028 0.418520 0.110548 1.126176
O 7.67106957 3.03590283 10.89296907 -0.253359 -0.567841 0.736488
O 6.56230114 4.67730829 6.25395614 -1.132130 0.057253 0.144178
O 1.49427736 4.58765327 10.83874275 -0.567273 0.305872 0.705179
O -0.03044620 3.13125208 8.86566248 -0.440545 -0.152174 0.660189
O 8.17867709 3.07257551 8.20492156 -0.016145 2.250062 -0.297009
O 6.13205454 4.54104330 8.80716595 -0.901577 0.949840 0.170275
O 2.05371230 4.61628465 8.19984005 -1.026025 0.498395 -0.349816
O -1.69217619 3.10102327 7.13712287 0.436993 -0.588307 0.149826
O 9.80550556 3.09495381 9.87044458 0.270605 -0.333522 0.592166
O 4.47209886 4.54134669 7.19987948 1.071113 -0.277932 1.151250
O 3.70685935 4.61969123 9.94888713 -0.679461 1.448562 -0.192217
Ga 12.52917299 0.05086220 4.50804558 -0.270003 -0.155771 -0.154066
Ga 23.32638628 -0.02098081 1.17741903 -0.486452 -0.274622 0.890571
Ga 18.59154304 1.55084997 4.46956568 0.062433 -1.570180 0.890685
Ga 17.20787322 1.55076843 1.17561458 -0.026635 -1.493683 -0.211231
Ga 13.97376702 0.04637319 1.72791049 -0.709111 0.786276 0.060699
Ga 21.89972596 0.02372405 3.85348787 -1.066953 -0.030056 -0.708085
Ga 20.14993427 1.47228549 1.80811411 0.718628 0.851170 -1.216342
Ga 15.71900917 1.50142112 3.90783009 -0.105865 0.147171 2.139712
O 14.32850629 -0.05633845 0.46761528 0.418520 0.110548 1.126176
O 21.53085457 -0.05121717 5.17733407 -0.253359 -0.567841 0.736488
O 20.42208614 1.59018829 0.53832114 -1.132130 0.057253 0.144178
O 15.35406236 1.50053327 5.12310775 -0.567273 0.305872 0.705179
O 13.82933880 0.04413208 3.15002748 -0.440545 -0.152174 0.660189
O 22.03846209 -0.01454449 2.48928656 -0.016145 2.250062 -0.297009
O 19.99183954 1.45392330 3.09153095 -0.901577 0.949840 0.170275
O 15.91349730 1.52916465 2.48420505 -1.026025 0.498395 -0.349816
O 12.16760881 0.01390327 1.42148787 0.436993 -0.588307 0.149826
O 23.66529056 0.00783381 4.15480958 0.270605 -0.333522 0.592166
O 18.33188386 1.45422669 1.48424448 1.071113 -0.277932 1.151250
O 17.56664435 1.53257123 4.23325213 -0.679461 1.448562 -0.192217
Ga 11.13824899 0.05086220 10.22368058 -0.270003 -0.155771 -0.154066
Ga 21.93546228 -0.02098081 6.89305403 -0.486452 -0.274622 0.890571
Ga 17.20061904 1.55084997 10.18520068 0.062433 -1.570180 0.890685
Ga 15.81694922 1.55076843 6.89124958 -0.026635 -1.493683 -0.211231
Ga 12.58284302 0.04637319 7.44354549 -0.709111 0.786276 0.060699
Ga 20.50880196 0.02372405 9.56912287 -1.066953 -0.030056 -0.708085
Ga 18.75901027 1.47228549 7.52374911 0.718628 0.851170 -1.216342
Ga 14.32808517 1.50142112 9.62346509 -0.105865 0.147171 2.139712
O 12.93758229 -0.05633845 6.18325028 0.418520 0.110548 1.126176
O 20.13993057 -0.05121717 10.89296907 -0.253359 -0.567841 0.736488
O 19.03116214 1.59018829 6.25395614 -1.132130 0.057253 0.144178
O 13.96313836 1.50053327 10.83874275 -0.567273 0.305872 0.705179
O 12.43841480 0.04413208 8.86566248 -0.440545 -0.152174 0.660189
O 20.64753809 -0.01454449 8.20492156 -0.016145 2.250062 -0.297009
O 18.60091554 1.45392330 8.80716595 -0.901577 0.949840 0.170275
O 14.52257330 1.52916465 8.19984005 -1.026025 0.498395 -0.349816
O 10.77668481 0.01390327 7.13712287 0.436993 -0.588307 0.149826
O 22.27436656 0.00783381 9.87044458 0.270605 -0.333522 0.592166
O 16.94095986 1.45422669 7.19987948 1.071113 -0.277932 1.151250
O 16.17572035 1.53257123 9.94888713 -0.679461 1.448562 -0.192217
Ga 12.52917299 3.13798220 4.50804558 -0.270003 -0.155771 -0.154066
Ga 23.32638628 3.06613919 1.17741903 -0.486452 -0.274622 0.890571
Ga 18.59154304 4.63796997 4.46956568 0.062433 -1.570180 0.890685
Ga 17.20787322 4.63788843 1.17561458 -0.026635 -1.493683 -0.211231
Ga 13.97376702 3.13349319 1.72791049 -0.709111 0.786276 0.060699
Ga 21.89972596 3.11084405 3.85348787 -1.066953 -0.030056 -0.708085
Ga 20.14993427 4.55940549 1.80811411 0.718628 0.851170 -1.216342
Ga 15.71900917 4.58854112 3.90783009 -0.105865 0.147171 2.139712
O 14.32850629 3.03078155 0.46761528 0.418520 0.110548 1.126176
O 21.53085457 3.03590283 5.17733407 -0.253359 -0.567841 0.736488
O 20.42208614 4.67730829 0.53832114 -1.132130 0.057253 0.144178
O 15.35406236 4.58765327 5.12310775 -0.567273 0.305872 0.705179
O 13.82933880 3.13125208 3.15002748 -0.440545 -0.152174 0.660189
O 22.03846209 3.07257551 2.48928656 -0.016145 2.250062 -0.297009
O 19.99183954 4.54104330 3.09153095 -0.901577 0.949840 0.170275
O 15.91349730 4.61628465 2.48420505 -1.026025 0.498395 -0.349816
O 12.16760881 3.10102327 1.42148787 0.436993 -0.588307 0.149826
O 23.66529056 3.09495381 4.15480958 0.270605 -0.333522 0.592166
O 18.33188386 4.54134669 1.48424448 1.071113 -0.277932 1.151250
O 17.56664435 4.61969123 4.23325213 -0.679461 1.448562 -0.192217
Ga 11.13824899 3.13798220 10.22368058 -0.270003 -0.155771 -0.154066
Ga 21.93546228 3.06613919 6.89305403 -0.486452 -0.274622 0.890571
Ga 17.20061904 4.63796997 10.18520068 0.062433 -1.570180 0.890685
Ga 15.81694922 4.63788843 6.89124958 -0.026635 -1.493683 -0.211231
Ga 12.58284302 3.13349319 7.44354549 -0.709111 0.786276 0.060699
Ga 20.50880196 3.11084405 9.56912287 -1.066953 -0.030056 -0.708085
Ga 18.75901027 4.55940549 7.52374911 0.718628 0.851170 -1.216342
Ga 14.32808517 4.58854112 9.62346509 -0.105865 0.147171 2.139712
O 12.93758229 3.03078155 6.18325028 0.418520 0.110548 1.126176
O 20.13993057 3.03590283 10.89296907 -0.253359 -0.567841 0.736488
O 19.03116214 4.67730829 6.25395614 -1.132130 0.057253 0.144178
O 13.96313836 4.58765327 10.83874275 -0.567273 0.305872 0.705179
O 12.43841480 3.13125208 8.86566248 -0.440545 -0.152174 0.660189
O 20.64753809 3.07257551 8.20492156 -0.016145 2.250062 -0.297009
O 18.60091554 4.54104330 8.80716595 -0.901577 0.949840 0.170275
O 14.52257330 4.61628465 8.19984005 -1.026025 0.498395 -0.349816
O 10.77668481 3.10102327 7.13712287 0.436993 -0.588307 0.149826
O 22.27436656 3.09495381 9.87044458 0.270605 -0.333522 0.592166
O 16.94095986 4.54134669 7.19987948 1.071113 -0.277932 1.151250
O 16.17572035 4.61969123 9.94888713 -0.679461 1.448562 -0.192217
159
Lattice="25.037989 0.000000 0.000000 0.000000 6.199065 0.000000 -2.793033 0.000000 11.477230" Properties=species:S:1:pos:R:3:force:R:3 Energy=-628.255056 Virial="-16.334316 -0.821324 -5.194873 -2.550395 11.848195 6.867970 48.963014 26.655792 -20.872977" pbc="T T T"
Ga 11.13144421 0.01534456 1.08392238 0.743854 -0.325175 0.392930
Ga 6.26887339 1.55770849 4.50252987 -0.401524 0.967144 -0.116761
Ga 4.86292475 1.48880554 1.14677367 1.653067 -0.420035 -0.265888
Ga 1.60037946 -0.03535111 1.82603222 0.966969 -0.082237 0.494493
Ga 9.50560785 0.08325259 3.92336002 -0.822697 0.753621 -0.922592
Ga 7.81003743 1.55692762 1.82737621 1.026993 -1.338487 -0.402223
Ga 3.25548598 1.54955269 3.90919141 0.294756 -1.022467 0.585757
O 1.85425987 0.03948489 0.52534327 1.801695 -0.310138 0.013123
O 9.21033644 0.00719382 5.18579143 1.382195 -0.486969 -0.740082
O 8.26034087 1.54787557 0.47711210 -0.549508 -0.003932 -0.916232
O 2.92512275 1.56975566 5.22048932 -1.037594 0.001622 0.823073
O 1.34301822 0.03717930 3.13163256 -1.016633 0.051615 -0.326131
O 9.78171373 -0.05277392 2.52741867 0.240572 0.741808 -0.483184
O 7.68860982 1.55455038 3.23481517 0.621407 0.419627 -0.343983
O 3.50119718 1.60121690 2.57895687 0.243712 -0.837780 0.166552
O -0.32558191 0.02531767 1.40802399 -0.310665 1.593995 1.259283
O 11.42759372 0.03273939 4.27488355 0.552817 -1.150447 -0.026269
O 5.96993007 1.54123526 1.51424884 -0.977353 0.691632 1.011436
O 5.16719667 1.53114814 4.30499034 -0.522193 -0.031459 0.081599
Ga -1.40777702 0.02041186 10.26921541 -0.103166 -1.155475 -0.442096
Ga 9.74052021 0.01534456 6.79955738 0.743854 -0.325175 0.392930
Ga 4.87794939 1.55770849 10.21816487 -0.401524 0.967144 -0.116761
Ga 3.47200075 1.48880554 6.86240867 1.653067 -0.420035 -0.265888
Ga 0.20945546 -0.03535111 7.54166722 0.966969 -0.082237 0.494493
Ga 8.11468385 0.08325259 9.63899502 -0.822697 0.753621 -0.922592
Ga 6.41911343 1.55692762 7.54301121 1.026993 -1.338487 -0.402223
Ga 1.86456198 1.54955269 9.62482641 0.294756 -1.022467 0.585757
O 0.46333587 0.03948489 6.24097827 1.801695 -0.310138 0.013123
O 7.81941244 0.00719382 10.90142643 1.382195 -0.486969 -0.740082
O 6.86941687 1.54787557 6.19274710 -0.549508 -0.003932 -0.916232
O 1.53419875 1.56975566 10.93612432 -1.037594 0.001622 0.823073
O -0.04790578 0.03717930 8.84726756 -1.016633 0.051615 -0.326131
O 8.39078973 -0.05277392 8.24305367 0.240572 0.741808 -0.483184
O 6.29768582 1.55455038 8.95045017 0.621407 0.419627 -0.343983
O 2.11027318 1.60121690 8.29459187 0.243712 -0.837780 0.166552
O -1.71650591 0.02531767 7.12365899 -0.310665 1.593995 1.259283
O 10.03666972 0.03273939 9.99051855 0.552817 -1.150447 -0.026269
O 4.57900607 1.54123526 7.22988384 -0.977353 0.691632 1.011436
O 3.77627267 1.53114814 10.02062534 -0.522193 -0.031459 0.081599
Ga -0.01685302 3.10753186 4.55358041 -0.103166 -1.155475 -0.442096
Ga 11.13144421 3.10246456 1.08392238 0.743854 -0.325175 0.392930
Ga 6.26887339 4.64482849 4.50252987 -0.401524 0.967144 -0.116761
Ga 4.86292475 4.57592554 1.14677367 1.653067 -0.420035 -0.265888
Ga 1.60037946 3.05176889 1.82603222 0.966969 -0.082237 0.494493
Ga 9.50560785 3.17037259 3.92336002 -0.822697 0.753621 -0.922592
Ga 7.81003743 4.64404762 1.82737621 1.026993 -1.338487 -0.402223
Ga 3.25548598 4.63667269 3.90919141 0.294756 -1.022467 0.585757
O 1.85425987 3.12660489 0.52534327 1.801695 -0.310138 0.013123
O 9.21033644 3.09431382 5.18579143 1.382195 -0.486969 -0.740082
O 8.26034087 4.63499557 0.47711210 -0.549508 -0.003932 -0.916232
O 2.92512275 4.65687566 5.22048932 -1.037594 0.001622 0.823073
O 1.34301822 3.12429930 3.13163256 -1.016633 0.051615 -0.326131
O 9.78171373 3.03434608 2.52741867 0.240572 0.741808 -0.483184
O 7.68860982 4.64167038 3.23481517 0.621407 0.419627 -0.343983
O 3.50119718 4.68833690 2.57895687 0.243712 -0.837780 0.166552
O -0.32558191 3.11243767 1.40802399 -0.310665 1.593995 1.259283
O 11.42759372 3.11985939 4.27488355 0.552817 -1.150447 -0.026269
O 5.96993007 4.62835526 1.51424884 -0.977353 0.691632 1.011436
O 5.16719667 4.61826814 4.30499034 -0.522193 -0.031459 0.081599
Ga -1.40777702 3.10753186 10.26921541 -0.103166 -1.155475 -0.442096
Ga 9.74052021 3.10246456 6.79955738 0.743854 -0.325175 0.392930
Ga 4.87794939 4.64482849 10.21816487 -0.401524 0.967144 -0.116761
Ga 3.47200075 4.57592554 6.86240867 1.653067 -0.420035 -0.265888
Ga 0.20945546 3.05176889 7.54166722 0.966969 -0.082237 0.494493
Ga 8.11468385 3.17037259 9.63899502 -0.822697 0.753621 -0.922592
Ga 6.41911343 4.64404762 7.54301121 1.026993 -1.338487 -0.402223
Ga 1.86456198 4.63667269 9.62482641 0.294756 -1.022467 0.585757
O 0.46333587 3.12660489 6.24097827 1.801695 -0.310138 0.013123
O 7.81941244 3.09431382 10.90142643 1.382195 -0.486969 -0.740082
O 6.86941687 4.63499557 6.19274710 -0.549508 -0.003932 -0.916232
O 1.53419875 4.65687566 10.93612432 -1.037594 0.001622 0.823073
O -0.04790578 3.12429930 8.84726756 -1.016633 0.051615 -0.326131
O 8.39078973 3.03434608 8.24305367 0.240572 0.741808 -0.483184
O 6.29768582 4.64167038 8.95045017 0.621407 0.419627 -0.343983
O 2.11027318 4.68833690 8.29459187 0.243712 -0.837780 0.166552
O -1.71650591 3.11243767 7.12365899 -0.310665 1.593995 1.259283
O 10.03666972 3.11985939 9.99051855 0.552817 -1.150447 -0.026269
O 4.57900607 4.62835526 7.22988384 -0.977353 0.691632 1.011436
O 3.77627267 4.61826814 10.02062534 -0.522193 -0.031459 0.081599
Ga 12.45200798 0.02041186 4.55358041 -0.103166 -1.155475 -0.442096
Ga 23.60030521 0.01534456 1.08392238 0.743854 -0.325175 0.392930
Ga 18.73773439 1.55770849 4.50252987 -0.401524 0.967144 -0.116761
Ga 17.33178575 1.48880554 1.14677367 1.653067 -0.420035 -0.265888
Ga 14.06924046 -0.03535111 1.82603222 0.966969 -0.082237 0.494493
Ga 21.97446885 0.08325259 3.92336002 -0.822697 0.753621 -0.922592
Ga 20.27889843 1.55692762 1.82737621 1.026993 -1.338487 -0.402223
Ga 15.72434698 1.54955269 3.90919141 0.294756 -1.022467 0.585757
O 14.32312087 0.03948489 0.52534327 1.801695 -0.310138 0.013123
O 21.67919744 0.00719382 5.18579143 1.382195 -0.486969 -0.740082
O 20.72920187 1.54787557 0.47711210 -0.549508 -0.003932 -0.916232
O 15.39398375 1.56975566 5.22048932 -1.037594 0.001622 0.823073
O 13.81187922 0.03717930 3.13163256 -1.016633 0.051615 -0.326131
O 22.25057473 -0.05277392 2.52741867 0.240572 0.741808 -0.483184
O 20.15747082 1.55455038 3.23481517 0.621407 0.419627 -0.343983
O 15.97005818 1.60121690 2.57895687 0.243712 -0.837780 0.166552
O 12.14327909 0.02531767 1.40802399 -0.310665 1.593995 1.259283
O 23.89645472 0.03273939 4.27488355 0.552817 -1.150447 -0.026269
O 18.43879107 1.54123526 1.51424884 -0.977353 0.691632 1.011436
O 17.63605767 1.53114814 4.30499034 -0.522193 -0.031459 0.081599
Ga 11.06108398 0.02041186 10.26921541 -0.103166 -1.155475 -0.442096
Ga 22.20938121 0.01534456 6.79955738 0.743854 -0.325175 0.392930
Ga 17.34681039 1.55770849 10.21816487 -0.401524 0.967144 -0.116761
Ga 15.94086175 1.48880554 6.86240867 1.653067 -0.420035 -0.265888
Ga 12.67831646 -0.03535111 7.54166722 0.966969 -0.082237 0.494493
Ga 20.58354485 0.08325259 9.63899502 -0.822697 0.753621 -0.922592
Ga 18.88797443 1.55692762 7.54301121 1.026993 -1.338487 -0.402223
Ga 14.33342298 1.54955269 9.62482641 0.294756 -1.022467 0.585757
O 12.93219687 0.03948489 6.24097827 1.801695 -0.310138 0.013123
O 20.28827344 0.00719382 10.90142643 1.382195 -0.486969 -0.740082
O 19.33827787 1.54787557 6.19274710 -0.549508 -0.003932 -0.916232
O 14.00305975 1.56975566 10.93612432 -1.037594 0.001622 0.823073
O 12.42095522 0.03717930 8.84726756 -1.016633 0.051615 -0.326131
O 20.85965073 -0.05277392 8.24305367 0.240572 0.741808 -0.483184
O 18.76654682 1.55455038 8.95045017 0.621407 0.419627 -0.343983
O 14.57913418 1.60121690 8.29459187 0.243712 -0.837780 0.166552
O 10.75235509 0.02531767 7.12365899 -0.310665 1.593995 1.259283
O 22.50553072 0.03273939 9.99051855 0.552817 -1.150447 -0.026269
O 17.04786707 1.54123526 7.22988384 -0.977353 0.691632 1.011436
O 16.24513367 1.53114814 10.02062534 -0.522193 -0.031459 0.081599
Ga 12.45200798 3.10753186 4.55358041 -0.103166 -1.155475 -0.442096
Ga 23.60030521 3.10246456 1.08392238 0.743854 -0.325175 0.392930
Ga 18.73773439 4.64482849 4.50252987 -0.401524 0.967144 -0.116761
Ga 17.33178575 4.57592554 1.14677367 1.653067 -0.420035 -0.265888
Ga 14.06924046 3.05176889 1.82603222 0.966969 -0.082237 0.494493
Ga 21.97446885 3.17037259 3.92336002 -0.822697 0.753621 -0.922592
Ga 20.27889843 4.64404762 1.82737621 1.026993 -1.338487 -0.402223
Ga 15.72434698 4.63667269 3.90919141 0.294756 -1.022467 0.585757
O 14.32312087 3.12660489 0.52534327 1.801695 -0.310138 0.013123
O 21.67919744 3.09431382 5.18579143 1.382195 -0.486969 -0.740082
O 20.72920187 4.63499557 0.47711210 -0.549508 -0.003932 -0.916232
O 15.39398375 4.65687566 5.22048932 -1.037594 0.001622 0.823073
O 13.81187922 3.12429930 3.13163256 -1.016633 0.051615 -0.326131
O 22.25057473 3.03434608 2.52741867 0.240572 0.741808 -0.483184
O 20.15747082 4.64167038 3.23481517 0.621407 0.419627 -0.343983
O 15.97005818 4.68833690 2.57895687 0.243712 -0.837780 0.166552
O 12.14327909 3.11243767 1.40802399 -0.310665 1.593995 1.259283
O 23.89645472 3.11985939 4.27488355 0.552817 -1.150447 -0.026269
O 18.43879107 4.62835526 1.51424884 -0.977353 0.691632 1.011436
O 17.63605767 4.61826814 4.30499034 -0.522193 -0.031459 0.081599
Ga 11.06108398 3.10753186 10.26921541 -0.103166 -1.155475 -0.442096
Ga 22.20938121 3.10246456 6.79955738 0.743854 -0.325175 0.392930
Ga 17.34681039 4.64482849 10.21816487 -0.401524 0.967144 -0.116761
Ga 15.94086175 4.57592554 6.86240867 1.653067 -0.420035 -0.265888
Ga 12.67831646 3.05176889 7.54166722 0.966969 -0.082237 0.494493
Ga 20.58354485 3.17037259 9.63899502 -0.822697 0.753621 -0.922592
Ga 18.88797443 4.64404762 7.54301121 1.026993 -1.338487 -0.402223
Ga 14.33342298 4.63667269 9.62482641 0.294756 -1.022467 0.585757
O 12.93219687 3.12660489 6.24097827 1.801695 -0.310138 0.013123
O 20.28827344 3.09431382 10.90142643 1.382195 -0.486969 -0.740082
O 19.33827787 4.63499557 6.19274710 -0.549508 -0.003932 -0.916232
O 14.00305975 4.65687566 10.93612432 -1.037594 0.001622 0.823073
O 12.42095522 3.12429930 8.84726756 -1.016633 0.051615 -0.326131
O 20.85965073 3.03434608 8.24305367 0.240572 0.741808 -0.483184
O 18.76654682 4.64167038 8.95045017 0.621407 0.419627 -0.343983
O 14.57913418 4.68833690 8.29459187 0.243712 -0.837780 0.166552
O 10.75235509 3.11243767 7.12365899 -0.310665 1.593995 1.259283
O 22.50553072 3.11985939 9.99051855 0.552817 -1.150447 -0.026269
O 17.04786707 4.62835526 7.22988384 -0.977353 0.691632 1.011436
O 16.24513367 4.61826814 10.02062534 -0.522193 -0.031459 0.081599
159
Lattice="25.265819 0.000000 0.000000 0.000000 6.255472 0.000000 -2.818448 0.000000 11.581666" Properties=species:S:1:pos:R:3:force:R:3 Energy=-629.003882 Virial="4.662011 31.855186 -28.390826 -9.321603 20.255086 26.949872 -12.674544 -24.993799 -21.465605" pbc="T T T"
Ga 11.18780902 0.00888535 1.17028681 -0.029421 -0.202778 -0.956072
Ga 6.39019355 1.52808374 4.59392181 -2.052235 -0.521496 -0.791854
Ga 4.86613265 1.62174715 1.19729894 0.750186 -0.359768 0.820536
Ga 1.60207499 -0.05942241 1.83016236 0.492333 0.817459 1.108210
Ga 9.69846922 0.00329136 4.01397229 0.043578 -0.157394 -0.856063
Ga 7.85656470 1.62024193 1.91143628 -0.238029 0.167562 0.443473
Ga 3.33191541 1.54604793 4.02948846 -0.584281 0.031026 -0.344655
O 2.00251258 -0.02091440 0.52753118 -0.358514 -0.753331 0.720724
O 9.27308412 -0.05377802 5.20974870 -0.638845 -1.550970 -0.245472
O 8.21561909 1.53315613 0.54295126 -0.642459 1.023905 0.578917
O 2.97726906 1.62588805 5.20656061 0.427124 1.109386 0.173236
O 1.43851888 -0.00855955 3.22930617 1.949703 1.291924 0.641338
O 9.85153199 -0.04490888 2.57484510 -0.061492 -0.069588 0.377582
O 7.72225911 1.58356608 3.24285147 0.730079 -0.736044 -0.313506
O 3.60629618 1.53835843 2.53830883 -1.022206 -0.229229 -0.591145
O -0.33515519 -0.02221908 1.45695832 0.419719 0.752793 0.627181
O 11.58147543 0.05682017 4.28554978 0.475297 0.038588 -0.422381
O 5.97293023 1.58272465 1.46036488 0.376891 -0.863163 0.516624
O 5.24277802 1.57198495 4.24774986 0.455606 -1.889675 0.360943
Ga -1.36356988 -0.01849101 10.29965183 -2.183732 0.040966 -0.564606
Ga 9.79688502 0.00888535 6.88592181 -0.029421 -0.202778 -0.956072
Ga 4.99926955 1.52808374 10.30955681 -2.052235 -0.521496 -0.791854
Ga 3.47520865 1.62174715 6.91293394 0.750186 -0.359768 0.820536
Ga 0.21115099 -0.05942241 7.54579736 0.492333 0.817459 1.108210
Ga 8.30754522 0.00329136 9.72960729 0.043578 -0.157394 -0.856063
Ga 6.46564070 1.62024193 7.62707128 -0.238029 0.167562 0.443473
Ga 1.94099141 1.54604793 9.74512346 -0.584281 0.031026 -0.344655
O 0.61158858 -0.02091440 6.24316618 -0.358514 -0.753331 0.720724
O 7.88216012 -0.05377802 10.92538370 -0.638845 -1.550970 -0.245472
O 6.82469509 1.53315613 6.25858626 -0.642459 1.023905 0.578917
O 1.58634506 1.62588805 10.92219561 0.427124 1.109386 0.173236
O 0.04759488 -0.00855955 8.94494117 1.949703 1.291924 0.641338
O 8.46060799 -0.04490888 8.29048010 -0.061492 -0.069588 0.377582
O 6.33133511 1.58356608 8.95848647 0.730079 -0.736044 -0.313506
O 2.21537218 1.53835843 8.25394383 -1.022206 -0.229229 -0.591145
O -1.72607919 -0.02221908 7.17259332 0.419719 0.752793 0.627181
O 10.19055143 0.05682017 10.00118478 0.475297 0.038588 -0.422381
O 4.58200623 1.58272465 7.17599988 0.376891 -0.863163 0.516624
O 3.85185402 1.57198495 9.96338486 0.455606 -1.889675 0.360943
Ga 0.02735412 3.06862899 4.58401683 -2.183732 0.040966 -0.564606
Ga 11.18780902 3.09600535 1.17028681 -0.029421 -0.202778 -0.956072
Ga 6.39019355 4.61520374 4.59392181 -2.052235 -0.521496 -0.791854
Ga 4.86613265 4.70886715 1.19729894 0.750186 -0.359768 0.820536
Ga 1.60207499 3.02769759 1.83016236 0.492333 0.817459 1.108210
Ga 9.69846922 3.09041136 4.01397229 0.043578 -0.157394 -0.856063
Ga 7.85656470 4.70736193 1.91143628 -0.238029 0.167562 0.443473
Ga 3.33191541 4.63316793 4.02948846 -0.584281 0.031026 -0.344655
O 2.00251258 3.06620560 0.52753118 -0.358514 -0.753331 0.720724
O 9.27308412 3.03334198 5.20974870 -0.638845 -1.550970 -0.245472
O 8.21561909 4.62027613 0.54295126 -0.642459 1.023905 0.578917
O 2.97726906 4.71300805 5.20656061 0.427124 1.109386 0.173236
O 1.43851888 3.07856045 3.22930617 1.949703 1.291924 0.641338
O 9.85153199 3.04221112 2.57484510 -0.061492 -0.069588 0.377582
O 7.72225911 4.67068608 3.24285147 0.730079 -0.736044 -0.313506
O 3.60629618 4.62547843 2.53830883 -1.022206 -0.229229 -0.591145
O -0.33515519 3.06490092 1.45695832 0.419719 0.752793 0.627181
O 11.58147543 3.14394017 4.28554978 0.475297 0.038588 -0.422381
O 5.97293023 4.66984465 1.46036488 0.376891 -0.863163 0.516624
O 5.24277802 4.65910495 4.24774986 0.455606 -1.889675 0.360943
Ga -1.36356988 3.06862899 10.29965183 -2.183732 0.040966 -0.564606
Ga 9.79688502 3.09600535 6.88592181 -0.029421 -0.202778 -0.956072
Ga 4.99926955 4.61520374 10.30955681 -2.052235 -0.521496 -0.791854
Ga 3.47520865 4.70886715 6.91293394 0.750186 -0.359768 0.820536
Ga 0.21115099 3.02769759 7.54579736 0.492333 0.817459 1.108210
Ga 8.30754522 3.09041136 9.72960729 0.043578 -0.157394 -0.856063
Ga 6.46564070 4.70736193 7.62707128 -0.238029 0.167562 0.443473
Ga 1.94099141 4.63316793 9.74512346 -0.584281 0.031026 -0.344655
O 0.61158858 3.06620560 6.24316618 -0.358514 -0.753331 0.720724
O 7.88216012 3.03334198 10.92538370 -0.638845 -1.550970 -0.245472
O 6.82469509 4.62027613 6.25858626 -0.642459 1.023905 0.578917
O 1.58634506 4.71300805 10.92219561 0.427124 1.109386 0.173236
O 0.04759488 3.07856045 8.94494117 1.949703 1.291924 0.641338
O 8.46060799 3.04221112 8.29048010 -0.061492 -0.069588 0.377582
O 6.33133511 4.67068608 8.95848647 0.730079 -0.736044 -0.313506
O 2.21537218 4.62547843 8.25394383 -1.022206 -0.229229 -0.591145
O -1.72607919 3.06490092 7.17259332 0.419719 0.752793 0.627181
O 10.19055143 3.14394017 10.00118478 0.475297 0.038588 -0.422381
O 4.58200623 4.66984465 7.17599988 0.376891 -0.863163 0.516624
O 3.85185402 4.65910495 9.96338486 0.455606 -1.889675 0.360943
Ga 12.49621512 -0.01849101 4.58401683 -2.183732 0.040966 -0.564606
Ga 23.65667002 0.00888535 1.17028681 -0.029421 -0.202778 -0.956072
Ga 18.85905455 1.52808374 4.59392181 -2.052235 -0.521496 -0.791854
Ga 17.33499365 1.62174715 1.19729894 0.750186 -0.359768 0.820536
Ga 14.07093599 -0.05942241 1.83016236 0.492333 0.817459 1.108210
Ga 22.16733022 0.00329136 4.01397229 0.043578 -0.157394 -0.856063
Ga 20.32542570 1.62024193 1.91143628 -0.238029 0.167562 0.443473
Ga 15.80077641 1.54604793 4.02948846 -0.584281 0.031026 -0.344655
O 14.47137358 -0.02091440 0.52753118 -0.358514 -0.753331 0.720724
O 21.74194512 -0.05377802 5.20974870 -0.638845 -1.550970 -0.245472
O 20.68448009 1.53315613 0.54295126 -0.642459 1.023905 0.578917
O 15.44613006 1.62588805 5.20656061 0.427124 1.109386 0.173236
O 13.90737988 -0.00855955 3.22930617 1.949703 1.291924 0.641338
O 22.32039299 -0.04490888 2.57484510 -0.061492 -0.069588 0.377582
O 20.19112011 1.58356608 3.24285147 0.730079 -0.736044 -0.313506
O 16.07515718 1.53835843 2.53830883 -1.022206 -0.229229 -0.591145
O 12.13370581 -0.02221908 1.45695832 0.419719 0.752793 0.627181
O 24.05033643 0.05682017 4.28554978 0.475297 0.038588 -0.422381
O 18.44179123 1.58272465 1.46036488 0.376891 -0.863163 0.516624
O 17.71163902 1.57198495 4.24774986 0.455606 -1.889675 0.360943
Ga 11.10529112 -0.01849101 10.29965183 -2.183732 0.040966 -0.564606
Ga 22.26574602 0.00888535 6.88592181 -0.029421 -0.202778 -0.956072
Ga 17.46813055 1.52808374 10.30955681 -2.052235 -0.521496 -0.791854
Ga 15.94406965 1.62174715 6.91293394 0.750186 -0.359768 0.820536
Ga 12.68001199 -0.05942241 7.54579736 0.492333 0.817459 1.108210
Ga 20.77640622 0.00329136 9.72960729 0.043578 -0.157394 -0.856063
Ga 18.93450170 1.62024193 7.62707128 -0.238029 0.167562 0.443473
Ga 14.40985241 1.54604793 9.74512346 -0.584281 0.031026 -0.344655
O 13.08044958 -0.02091440 6.24316618 -0.358514 -0.753331 0.720724
O 20.35102112 -0.05377802 10.92538370 -0.638845 -1.550970 -0.245472
O 19.29355609 1.53315613 6.25858626 -0.642459 1.023905 0.578917
O 14.05520606 1.62588805 10.92219561 0.427124 1.109386 0.173236
O 12.51645588 -0.00855955 8.94494117 1.949703 1.291924 0.641338
O 20.92946899 -0.04490888 8.29048010 -0.061492 -0.069588 0.377582
O 18.80019611 1.58356608 8.95848647 0.730079 -0.736044 -0.313506
O 14.68423318 1.53835843 8.25394383 -1.022206 -0.229229 -0.591145
O 10.74278181 -0.02221908 7.17259332 0.419719 0.752793 0.627181
O 22.65941243 0.05682017 10.00118478 0.475297 0.038588 -0.422381
O 17.05086723 1.58272465 7.17599988 0.376891 -0.863163 0.516624
O 16.32071502 1.57198495 9.96338486 0.455606 -1.889675 0.360943
Ga 12.49621512 3.06862899 4.58401683 -2.183732 0.040966 -0.564606
Ga 23.65667002 3.09600535 1.17028681 -0.029421 -0.202778 -0.956072
Ga 18.85905455 4.61520374 4.59392181 -2.052235 -0.521496 -0.791854
Ga 17.33499365 4.70886715 1.19729894 0.750186 -0.359768 0.820536
Ga 14.07093599 3.02769759 1.83016236 0.492333 0.817459 1.108210
Ga 22.16733022 3.09041136 4.01397229 0.043578 -0.157394 -0.856063
Ga 20.32542570 4.70736193 1.91143628 -0.238029 0.167562 0.443473
Ga 15.80077641 4.63316793 4.02948846 -0.584281 0.031026 -0.344655
O 14.47137358 3.06620560 0.52753118 -0.358514 -0.753331 0.720724
O 21.74194512 3.03334198 5.20974870 -0.638845 -1.550970 -0.245472
O 20.68448009 4.62027613 0.54295126 -0.642459 1.023905 0.578917
O 15.44613006 4.71300805 5.20656061 0.427124 1.109386 0.173236
O 13.90737988 3.07856045 3.22930617 1.949703 1.291924 0.641338
O 22.32039299 3.04221112 2.57484510 -0.061492 -0.069588 0.377582
O 20.19112011 4.67068608 3.24285147 0.730079 -0.736044 -0.313506
O 16.07515718 4.62547843 2.53830883 -1.022206 -0.229229 -0.591145
O 12.13370581 3.06490092 1.45695832 0.419719 0.752793 0.627181
O 24.05033643 3.14394017 4.28554978 0.475297 0.038588 -0.422381
O 18.44179123 4.66984465 1.46036488 0.376891 -0.863163 0.516624
O 17.71163902 4.65910495 4.24774986 0.455606 -1.889675 0.360943
Ga 11.10529112 3.06862899 10.29965183 -2.183732 0.040966 -0.564606
Ga 22.26574602 3.09600535 6.88592181 -0.029421 -0.202778 -0.956072
Ga 17.46813055 4.61520374 10.30955681 -2.052235 -0.521496 -0.791854
Ga 15.94406965 4.70886715 6.91293394 0.750186 -0.359768 0.820536
Ga 12.68001199 3.02769759 7.54579736 0.492333 0.817459 1.108210
Ga 20.77640622 3.09041136 9.72960729 0.043578 -0.157394 -0.856063
Ga 18.93450170 4.70736193 7.62707128 -0.238029 0.167562 0.443473
Ga 14.40985241 4.63316793 9.74512346 -0.584281 0.031026 -0.344655
O 13.08044958 3.06620560 6.24316618 -0.358514 -0.753331 0.720724
O 20.35102112 3.03334198 10.92538370 -0.638845 -1.550970 -0.245472
O 19.29355609 4.62027613 6.25858626 -0.642459 1.023905 0.578917
O 14.05520606 4.71300805 10.92219561 0.427124 1.109386 0.173236
O 12.51645588 3.07856045 8.94494117 1.949703 1.291924 0.641338
O 20.92946899 3.04221112 8.29048010 -0.061492 -0.069588 0.377582
O 18.80019611 4.67068608 8.95848647 0.730079 -0.736044 -0.313506
O 14.68423318 4.62547843 8.25394383 -1.022206 -0.229229 -0.591145
O 10.74278181 3.06490092 7.17259332 0.419719 0.752793 0.627181
O 22.65941243 3.14394017 10.00118478 0.475297 0.038588 -0.422381
O 17.05086723 4.66984465 7.17599988 0.376891 -0.863163 0.516624
O 16.32071502 4.65910495 9.96338486 0.455606 -1.889675 0.360943
159
Lattice="25.030431 0.000000 0.000000 0.000000 6.197193 0.000000 -2.792190 0.000000 11.473766" Properties=species:S:1:pos:R:3:force:R:3 Energy=-629.716866 Virial="-1.947843 -0.101284 4.495834 -9.727104 -21.028610 17.076635 -6.901407 27.504426 16.316304" pbc="T T T"
Ga 11.11918206 0.02173996 1.22169981 -0.725335 1.369865 0.128413
Ga 6.24687511 1.55348775 4.48858612 -0.192308 -0.834047 0.319150
Ga 4.78792933 1.58466237 1.14032807 -0.268624 0.574168 -0.617268
Ga 1.51262373 -0.00033112 1.83031970 0.309683 0.638922 -0.867245
Ga 9.53042716 -0.13923235 3.89954524 0.035361 0.980706 -0.201895
Ga 7.85209331 1.56302374 1.85548425 -0.488742 0.779216 -0.898588
Ga 3.26997948 1.48372248 3.95285611 -0.026979 -0.580746 -0.491423
O 1.93086293 0.01222217 0.57658722 -0.335158 -0.160880 -0.112113
O 9.21472568 0.01622470 5.22621636 -0.625245 -0.290744 -0.877811
O 8.19896679 1.58359617 0.57960819 0.224684 -0.525105 -0.625289
O 3.00151773 1.52333068 5.21683856 -1.066418 -1.762297 1.434819
O 1.37129798 -0.03334236 3.17359901 -0.857047 1.063229 0.346337
O 9.75280761 0.01673010 2.55171929 -1.452332 -0.642202 -0.175540
O 7.63469048 1.54943492 3.23389073 -0.164225 -0.679389 -0.804213
O 3.41582557 1.55028402 2.53930105 -0.726372 0.682987 1.633035
O -0.27720716 -0.05400994 1.52844795 0.074913 -0.562703 0.997494
O 11.43500486 0.01066322 4.25218564 -1.008098 0.245546 -0.400494
O 5.97178866 1.55121650 1.51700188 -1.632401 -0.032338 0.538477
O 5.11119277 1.55632017 4.28458132 0.562919 -0.886691 0.153825
Ga -1.40123814 0.00658791 10.25966160 0.502982 -1.717022 -0.868391
Ga 9.72825806 0.02173996 6.93733481 -0.725335 1.369865 0.128413
Ga 4.85595111 1.55348775 10.20422112 -0.192308 -0.834047 0.319150
Ga 3.39700533 1.58466237 6.85596307 -0.268624 0.574168 -0.617268
Ga 0.12169973 -0.00033112 7.54595470 0.309683 0.638922 -0.867245
Ga 8.13950316 -0.13923235 9.61518024 0.035361 0.980706 -0.201895
Ga 6.46116931 1.56302374 7.57111925 -0.488742 0.779216 -0.898588
Ga 1.87905548 1.48372248 9.66849111 -0.026979 -0.580746 -0.491423
O 0.53993893 0.01222217 6.29222222 -0.335158 -0.160880 -0.112113
O 7.82380168 0.01622470 10.94185136 -0.625245 -0.290744 -0.877811
O 6.80804279 1.58359617 6.29524319 0.224684 -0.525105 -0.625289
O 1.61059373 1.52333068 10.93247356 -1.066418 -1.762297 1.434819
O -0.01962602 -0.03334236 8.88923401 -0.857047 1.063229 0.346337
O 8.36188361 0.01673010 8.26735429 -1.452332 -0.642202 -0.175540
O 6.24376648 1.54943492 8.94952573 -0.164225 -0.679389 -0.804213
O 2.02490157 1.55028402 8.25493605 -0.726372 0.682987 1.633035
O -1.66813116 -0.05400994 7.24408295 0.074913 -0.562703 0.997494
O 10.04408086 0.01066322 9.96782064 -1.008098 0.245546 -0.400494
O 4.58086466 1.55121650 7.23263688 -1.632401 -0.032338 0.538477
O 3.72026877 1.55632017 10.00021632 0.562919 -0.886691 0.153825
Ga -0.01031414 3.09370791 4.54402660 0.502982 -1.717022 -0.868391
Ga 11.11918206 3.10885996 1.22169981 -0.725335 1.369865 0.128413
Ga 6.24687511 4.64060775 4.48858612 -0.192308 -0.834047 0.319150
Ga 4.78792933 4.67178237 1.14032807 -0.268624 0.574168 -0.617268
Ga 1.51262373 3.08678888 1.83031970 0.309683 0.638922 -0.867245
Ga 9.53042716 2.94788765 3.89954524 0.035361 0.980706 -0.201895
Ga 7.85209331 4.65014374 1.85548425 -0.488742 0.779216 -0.898588
Ga 3.26997948 4.57084248 3.95285611 -0.026979 -0.580746 -0.491423
O 1.93086293 3.09934217 0.57658722 -0.335158 -0.160880 -0.112113
O 9.21472568 3.10334470 5.22621636 -0.625245 -0.290744 -0.877811
O 8.19896679 4.67071617 0.57960819 0.224684 -0.525105 -0.625289
O 3.00151773 4.61045068 5.21683856 -1.066418 -1.762297 1.434819
O 1.37129798 3.05377764 3.17359901 -0.857047 1.063229 0.346337
O 9.75280761 3.10385010 2.55171929 -1.452332 -0.642202 -0.175540
O 7.63469048 4.63655492 3.23389073 -0.164225 -0.679389 -0.804213
O 3.41582557 4.63740402 2.53930105 -0.726372 0.682987 1.633035
O -0.27720716 3.03311006 1.52844795 0.074913 -0.562703 0.997494
O 11.43500486 3.09778322 4.25218564 -1.008098 0.245546 -0.400494
O 5.97178866 4.63833650 1.51700188 -1.632401 -0.032338 0.538477
O 5.11119277 4.64344017 4.28458132 0.562919 -0.886691 0.153825
Ga -1.40123814 3.09370791 10.25966160 0.502982 -1.717022 -0.868391
Ga 9.72825806 3.10885996 6.93733481 -0.725335 1.369865 0.128413
Ga 4.85595111 4.64060775 10.20422112 -0.192308 -0.834047 0.319150
Ga 3.39700533 4.67178237 6.85596307 -0.268624 0.574168 -0.617268
Ga 0.12169973 3.08678888 7.54595470 0.309683 0.638922 -0.867245
Ga 8.13950316 2.94788765 9.61518024 0.035361 0.980706 -0.201895
Ga 6.46116931 4.65014374 7.57111925 -0.488742 0.779216 -0.898588
Ga 1.87905548 4.57084248 9.66849111 -0.026979 -0.580746 -0.491423
O 0.53993893 3.09934217 6.29222222 -0.335158 -0.160880 -0.112113
O 7.82380168 3.10334470 10.94185136 -0.625245 -0.290744 -0.877811
O 6.80804279 4.67071617 6.29524319 0.224684 -0.525105 -0.625289
O 1.61059373 4.61045068 10.93247356 -1.066418 -1.762297 1.434819
O -0.01962602 3.05377764 8.88923401 -0.857047 1.063229 0.346337
O 8.36188361 3.10385010 8.26735429 -1.452332 -0.642202 -0.175540
O 6.24376648 4.63655492 8.94952573 -0.164225 -0.679389 -0.804213
O 2.02490157 4.63740402 8.25493605 -0.726372 0.682987 1.633035
O -1.66813116 3.03311006 7.24408295 0.074913 -0.562703 0.997494
O 10.04408086 3.09778322 9.96782064 -1.008098 0.245546 -0.400494
O 4.58086466 4.63833650 7.23263688 -1.632401 -0.032338 0.538477
O 3.72026877 4.64344017 10.00021632 0.562919 -0.886691 0.153825
Ga 12.45854686 0.00658791 4.54402660 0.502982 -1.717022 -0.868391
Ga 23.58804306 0.02173996 1.22169981 -0.725335 1.369865 0.128413
Ga 18.71573611 1.55348775 4.48858612 -0.192308 -0.834047 0.319150
Ga 17.25679033 1.58466237 1.14032807 -0.268624 0.574168 -0.617268
Ga 13.98148473 -0.00033112 1.83031970 0.309683 0.638922 -0.867245
Ga 21.99928816 -0.13923235 3.89954524 0.035361 0.980706 -0.201895
Ga 20.32095431 1.56302374 1.85548425 -0.488742 0.779216 -0.898588
Ga 15.73884048 1.48372248 3.95285611 -0.026979 -0.580746 -0.491423
O 14.39972393 0.01222217 0.57658722 -0.335158 -0.160880 -0.112113
O 21.68358668 0.01622470 5.22621636 -0.625245 -0.290744 -0.877811
O 20.66782779 1.58359617 0.57960819 0.224684 -0.525105 -0.625289
O 15.47037873 1.52333068 5.21683856 -1.066418 -1.762297 1.434819
O 13.84015898 -0.03334236 3.17359901 -0.857047 1.063229 0.346337
O 22.22166861 0.01673010 2.55171929 -1.452332 -0.642202 -0.175540
O 20.10355148 1.54943492 3.23389073 -0.164225 -0.679389 -0.804213
O 15.88468657 1.55028402 2.53930105 -0.726372 0.682987 1.633035
O 12.19165384 -0.05400994 1.52844795 0.074913 -0.562703 0.997494
O 23.90386586 0.01066322 4.25218564 -1.008098 0.245546 -0.400494
O 18.44064966 1.55121650 1.51700188 -1.632401 -0.032338 0.538477
O 17.58005377 1.55632017 4.28458132 0.562919 -0.886691 0.153825
Ga 11.06762286 0.00658791 10.25966160 0.502982 -1.717022 -0.868391
Ga 22.19711906 0.02173996 6.93733481 -0.725335 1.369865 0.128413
Ga 17.32481211 1.55348775 10.20422112 -0.192308 -0.834047 0.319150
Ga 15.86586633 1.58466237 6.85596307 -0.268624 0.574168 -0.617268
Ga 12.59056073 -0.00033112 7.54595470 0.309683 0.638922 -0.867245
Ga 20.60836416 -0.13923235 9.61518024 0.035361 0.980706 -0.201895
Ga 18.93003031 1.56302374 7.57111925 -0.488742 0.779216 -0.898588
Ga 14.34791648 1.48372248 9.66849111 -0.026979 -0.580746 -0.491423
O 13.00879993 0.01222217 6.29222222 -0.335158 -0.160880 -0.112113
O 20.29266268 0.01622470 10.94185136 -0.625245 -0.290744 -0.877811
O 19.27690379 1.58359617 6.29524319 0.224684 -0.525105 -0.625289
O 14.07945473 1.52333068 10.93247356 -1.066418 -1.762297 1.434819
O 12.44923498 -0.03334236 8.88923401 -0.857047 1.063229 0.346337
O 20.83074461 0.01673010 8.26735429 -1.452332 -0.642202 -0.175540
O 18.71262748 1.54943492 8.94952573 -0.164225 -0.679389 -0.804213
O 14.49376257 1.55028402 8.25493605 -0.726372 0.682987 1.633035
O 10.80072984 -0.05400994 7.24408295 0.074913 -0.562703 0.997494
O 22.51294186 0.01066322 9.96782064 -1.008098 0.245546 -0.400494
O 17.04972566 1.55121650 7.23263688 -1.632401 -0.032338 0.538477
O 16.18912977 1.55632017 10.00021632 0.562919 -0.886691 0.153825
Ga 12.45854686 3.09370791 4.54402660 0.502982 -1.717022 -0.868391
Ga 23.58804306 3.10885996 1.22169981 -0.725335 1.369865 0.128413
Ga 18.71573611 4.64060775 4.48858612 -0.192308 -0.834047 0.319150
Ga 17.25679033 4.67178237 1.14032807 -0.268624 0.574168 -0.617268
Ga 13.98148473 3.08678888 1.83031970 0.309683 0.638922 -0.867245
Ga 21.99928816 2.94788765 3.89954524 0.035361 0.980706 -0.201895
Ga 20.32095431 4.65014374 1.85548425 -0.488742 0.779216 -0.898588
Ga 15.73884048 4.57084248 3.95285611 -0.026979 -0.580746 -0.491423
O 14.39972393 3.09934217 0.57658722 -0.335158 -0.160880 -0.112113
O 21.68358668 3.10334470 5.22621636 -0.625245 -0.290744 -0.877811
O 20.66782779 4.67071617 0.57960819 0.224684 -0.525105 -0.625289
O 15.47037873 4.61045068 5.21683856 -1.066418 -1.762297 1.434819
O 13.84015898 3.05377764 3.17359901 -0.857047 1.063229 0.346337
O 22.22166861 3.10385010 2.55171929 -1.452332 -0.642202 -0.175540
O 20.10355148 4.63655492 3.23389073 -0.164225 -0.679389 -0.804213
O 15.88468657 4.63740402 2.53930105 -0.726372 0.682987 1.633035
O 12.19165384 3.03311006 1.52844795 0.074913 -0.562703 0.997494
O 23.90386586 3.09778322 4.25218564 -1.008098 0.245546 -0.400494
O 18.44064966 4.63833650 1.51700188 -1.632401 -0.032338 0.538477
O 17.58005377 4.64344017 4.28458132 0.562919 -0.886691 0.153825
Ga 11.06762286 3.09370791 10.25966160 0.502982 -1.717022 -0.868391
Ga 22.19711906 3.10885996 6.93733481 -0.725335 1.369865 0.128413
Ga 17.32481211 4.64060775 10.20422112 -0.192308 -0.834047 0.319150
Ga 15.86586633 4.67178237 6.85596307 -0.268624 0.574168 -0.617268
Ga 12.59056073 3.08678888 7.54595470 0.309683 0.638922 -0.867245
Ga 20.60836416 2.94788765 9.61518024 0.035361 0.980706 -0.201895
Ga 18.93003031 4.65014374 7.57111925 -0.488742 0.779216 -0.898588
Ga 14.34791648 4.57084248 9.66849111 -0.026979 -0.580746 -0.491423
O 13.00879993 3.09934217 6.29222222 -0.335158 -0.160880 -0.112113
O 20.29266268 3.10334470 10.94185136 -0.625245 -0.290744 -0.877811
O 19.27690379 4.67071617 6.29524319 0.224684 -0.525105 -0.625289
O 14.07945473 4.61045068 10.93247356 -1.066418 -1.762297 1.434819
O 12.44923498 3.05377764 8.88923401 -0.857047 1.063229 0.346337
O 20.83074461 3.10385010 8.26735429 -1.452332 -0.642202 -0.175540
O 18.71262748 4.63655492 8.94952573 -0.164225 -0.679389 -0.804213
O 14.49376257 4.63740402 8.25493605 -0.726372 0.682987 1.633035
O 10.80072984 3.03311006 7.24408295 0.074913 -0.562703 0.997494
O 22.51294186 3.09778322 9.96782064 -1.008098 0.245546 -0.400494
O 17.04972566 4.63833650 7.23263688 -1.632401 -0.032338 0.538477
O 16.18912977 4.64344017 10.00021632 0.562919 -0.886691 0.153825
159
Lattice="24.506637 0.000000 0.000000 0.000000 6.067509 0.000000 -2.733760 0.000000 11.233662" Properties=species:S:1:pos:R:3:force:R:3 Energy=-630.279221 Virial="13.087290 5.506371 -3.754769 -5.476640 5.227520 1.371349 -1.668674 19.624741 6.840813" pbc="T T T"
Ga 10.83563033 0.04780187 1.09276931 -0.610424 -0.087081 -0.087906
Ga 6.12710443 1.53196570 4.52575575 -0.868864 -0.265058 0.101071
Ga 4.73434674 1.49466924 1.22894307 -0.026511 0.125747 -0.113800
Ga 1.45598199 -0.08795224 1.78240953 0.571252 0.397695 0.015779
Ga 9.35245333 -0.04084931 3.88035688 1.180107 1.117390 0.947975
Ga 7.65031398 1.49431408 1.71359678 -2.673403 0.644393 -0.535402
Ga 3.28077439 1.54288527 3.84805558 0.500726 -0.072886 -1.257451
O 1.95492256 -0.04280339 0.46696147 1.399856 0.791893 0.140385
O 8.97770464 -0.00182344 5.09858268 -0.522524 0.125518 0.141099
O 7.99806704 1.53095944 0.47792090 2.262908 0.566860 0.788165
O 2.93647215 1.51359118 5.13354094 0.043084 0.962354 1.004837
O 1.37081373 0.01827013 3.15698239 -0.668205 -0.647792 -0.458985
O 9.54724167 0.02570891 2.53580598 0.940848 1.292861 -1.230836
O 7.49162496 1.54523737 3.13060227 -1.271296 0.282402 -0.745928
O 3.46027862 1.48982153 2.55467750 0.151072 -0.297075 0.109785
O -0.30251417 -0.05723100 1.44303349 0.302236 -0.883196 -0.460654
O 11.16010383 0.03362574 4.15281730 -0.502472 -0.481466 1.148391
O 5.80790323 1.44129559 1.41981706 -0.231936 -0.329829 1.731977
O 4.96373231 1.45352111 4.20933885 0.253545 -0.470463 0.483942
Ga -1.32517585 -0.04106061 10.18408858 0.611317 -0.353638 0.897605
Ga 9.44470633 0.04780187 6.80840431 -0.610424 -0.087081 -0.087906
Ga 4.73618043 1.53196570 10.24139075 -0.868864 -0.265058 0.101071
Ga 3.34342274 1.49466924 6.94457807 -0.026511 0.125747 -0.113800
Ga 0.06505799 -0.08795224 7.49804453 0.571252 0.397695 0.015779
Ga 7.96152933 -0.04084931 9.59599188 1.180107 1.117390 0.947975
Ga 6.25938998 1.49431408 7.42923178 -2.673403 0.644393 -0.535402
Ga 1.88985039 1.54288527 9.56369058 0.500726 -0.072886 -1.257451
O 0.56399856 -0.04280339 6.18259647 1.399856 0.791893 0.140385
O 7.58678064 -0.00182344 10.81421768 -0.522524 0.125518 0.141099
O 6.60714304 1.53095944 6.19355590 2.262908 0.566860 0.788165
O 1.54554815 1.51359118 10.84917594 0.043084 0.962354 1.004837
O -0.02011027 0.01827013 8.87261739 -0.668205 -0.647792 -0.458985
O 8.15631767 0.02570891 8.25144098 0.940848 1.292861 -1.230836
O 6.10070096 1.54523737 8.84623727 -1.271296 0.282402 -0.745928
O 2.06935462 1.48982153 8.27031250 0.151072 -0.297075 0.109785
O -1.69343817 -0.05723100 7.15866849 0.302236 -0.883196 -0.460654
O 9.76917983 0.03362574 9.86845230 -0.502472 -0.481466 1.148391
O 4.41697923 1.44129559 7.13545206 -0.231936 -0.329829 1.731977
O 3.57280831 1.45352111 9.92497385 0.253545 -0.470463 0.483942
Ga 0.06574815 3.04605939 4.46845358 0.611317 -0.353638 0.897605
Ga 10.83563033 3.13492187 1.09276931 -0.610424 -0.087081 -0.087906
Ga 6.12710443 4.61908570 4.52575575 -0.868864 -0.265058 0.101071
Ga 4.73434674 4.58178924 1.22894307 -0.026511 0.125747 -0.113800
Ga 1.45598199 2.99916776 1.78240953 0.571252 0.397695 0.015779
Ga 9.35245333 3.04627069 3.88035688 1.180107 1.117390 0.947975
Ga 7.65031398 4.58143408 1.71359678 -2.673403 0.644393 -0.535402
Ga 3.28077439 4.63000527 3.84805558 0.500726 -0.072886 -1.257451
O 1.95492256 3.04431661 0.46696147 1.399856 0.791893 0.140385
O 8.97770464 3.08529656 5.09858268 -0.522524 0.125518 0.141099
O 7.99806704 4.61807944 0.47792090 2.262908 0.566860 0.788165
O 2.93647215 4.60071118 5.13354094 0.043084 0.962354 1.004837
O 1.37081373 3.10539013 3.15698239 -0.668205 -0.647792 -0.458985
O 9.54724167 3.11282891 2.53580598 0.940848 1.292861 -1.230836
O 7.49162496 4.63235737 3.13060227 -1.271296 0.282402 -0.745928
O 3.46027862 4.57694153 2.55467750 0.151072 -0.297075 0.109785
O -0.30251417 3.02988900 1.44303349 0.302236 -0.883196 -0.460654
O 11.16010383 3.12074574 4.15281730 -0.502472 -0.481466 1.148391
O 5.80790323 4.52841559 1.41981706 -0.231936 -0.329829 1.731977
O 4.96373231 4.54064111 4.20933885 0.253545 -0.470463 0.483942
Ga -1.32517585 3.04605939 10.18408858 0.611317 -0.353638 0.897605
Ga 9.44470633 3.13492187 6.80840431 -0.610424 -0.087081 -0.087906
Ga 4.73618043 4.61908570 10.24139075 -0.868864 -0.265058 0.101071
Ga 3.34342274 4.58178924 6.94457807 -0.026511 0.125747 -0.113800
Ga 0.06505799 2.99916776 7.49804453 0.571252 0.397695 0.015779
Ga 7.96152933 3.04627069 9.59599188 1.180107 1.117390 0.947975
Ga 6.25938998 4.58143408 7.42923178 -2.673403 0.644393 -0.535402
Ga 1.88985039 4.63000527 9.56369058 0.500726 -0.072886 -1.257451
O 0.56399856 3.04431661 6.18259647 1.399856 0.791893 0.140385
O 7.58678064 3.08529656 10.81421768 -0.522524 0.125518 0.141099
O 6.60714304 4.61807944 6.19355590 2.262908 0.566860 0.788165
O 1.54554815 4.60071118 10.84917594 0.043084 0.962354 1.004837
O -0.02011027 3.10539013 8.87261739 -0.668205 -0.647792 -0.458985
O 8.15631767 3.11282891 8.25144098 0.940848 1.292861 -1.230836
O 6.10070096 4.63235737 8.84623727 -1.271296 0.282402 -0.745928
O 2.06935462 4.57694153 8.27031250 0.151072 -0.297075 0.109785
O -1.69343817 3.02988900 7.15866849 0.302236 -0.883196 -0.460654
O 9.76917983 3.12074574 9.86845230 -0.502472 -0.481466 1.148391
O 4.41697923 4.52841559 7.13545206 -0.231936 -0.329829 1.731977
O 3.57280831 4.54064111 9.92497385 0.253545 -0.470463 0.483942
Ga 12.53460915 -0.04106061 4.46845358 0.611317 -0.353638 0.897605
Ga 23.30449133 0.04780187 1.09276931 -0.610424 -0.087081 -0.087906
Ga 18.59596543 1.53196570 4.52575575 -0.868864 -0.265058 0.101071
Ga 17.20320774 1.49466924 1.22894307 -0.026511 0.125747 -0.113800
Ga 13.92484299 -0.08795224 1.78240953 0.571252 0.397695 0.015779
Ga 21.82131433 -0.04084931 3.88035688 1.180107 1.117390 0.947975
Ga 20.11917498 1.49431408 1.71359678 -2.673403 0.644393 -0.535402
Ga 15.74963539 1.54288527 3.84805558 0.500726 -0.072886 -1.257451
O 14.42378356 -0.04280339 0.46696147 1.399856 0.791893 0.140385
O 21.44656564 -0.00182344 5.09858268 -0.522524 0.125518 0.141099
O 20.46692804 1.53095944 0.47792090 2.262908 0.566860 0.788165
O 15.40533315 1.51359118 5.13354094 0.043084 0.962354 1.004837
O 13.83967473 0.01827013 3.15698239 -0.668205 -0.647792 -0.458985
O 22.01610267 0.02570891 2.53580598 0.940848 1.292861 -1.230836
O 19.96048596 1.54523737 3.13060227 -1.271296 0.282402 -0.745928
O 15.92913962 1.48982153 2.55467750 0.151072 -0.297075 0.109785
O 12.16634683 -0.05723100 1.44303349 0.302236 -0.883196 -0.460654
O 23.62896483 0.03362574 4.15281730 -0.502472 -0.481466 1.148391
O 18.27676423 1.44129559 1.41981706 -0.231936 -0.329829 1.731977
O 17.43259331 1.45352111 4.20933885 0.253545 -0.470463 0.483942
Ga 11.14368515 -0.04106061 10.18408858 0.611317 -0.353638 0.897605
Ga 21.91356733 0.04780187 6.80840431 -0.610424 -0.087081 -0.087906
Ga 17.20504143 1.53196570 10.24139075 -0.868864 -0.265058 0.101071
Ga 15.81228374 1.49466924 6.94457807 -0.026511 0.125747 -0.113800
Ga 12.53391899 -0.08795224 7.49804453 0.571252 0.397695 0.015779
Ga 20.43039033 -0.04084931 9.59599188 1.180107 1.117390 0.947975
Ga 18.72825098 1.49431408 7.42923178 -2.673403 0.644393 -0.535402
Ga 14.35871139 1.54288527 9.56369058 0.500726 -0.072886 -1.257451
O 13.03285956 -0.04280339 6.18259647 1.399856 0.791893 0.140385
O 20.05564164 -0.00182344 10.81421768 -0.522524 0.125518 0.141099
O 19.07600404 1.53095944 6.19355590 2.262908 0.566860 0.788165
O 14.01440915 1.51359118 10.84917594 0.043084 0.962354 1.004837
O 12.44875073 0.01827013 8.87261739 -0.668205 -0.647792 -0.458985
O 20.62517867 0.02570891 8.25144098 0.940848 1.292861 -1.230836
O 18.56956196 1.54523737 8.84623727 -1.271296 0.282402 -0.745928
O 14.53821562 1.48982153 8.27031250 0.151072 -0.297075 0.109785
O 10.77542283 -0.05723100 7.15866849 0.302236 -0.883196 -0.460654
O 22.23804083 0.03362574 9.86845230 -0.502472 -0.481466 1.148391
O 16.88584023 1.44129559 7.13545206 -0.231936 -0.329829 1.731977
O 16.04166931 1.45352111 9.92497385 0.253545 -0.470463 0.483942
Ga 12.53460915 3.04605939 4.46845358 0.611317 -0.353638 0.897605
Ga 23.30449133 3.13492187 1.09276931 -0.610424 -0.087081 -0.087906
Ga 18.59596543 4.61908570 4.52575575 -0.868864 -0.265058 0.101071
Ga 17.20320774 4.58178924 1.22894307 -0.026511 0.125747 -0.113800
Ga 13.92484299 2.99916776 1.78240953 0.571252 0.397695 0.015779
Ga 21.82131433 3.04627069 3.88035688 1.180107 1.117390 0.947975
Ga 20.11917498 4.58143408 1.71359678 -2.673403 0.644393 -0.535402
Ga 15.74963539 4.63000527 3.84805558 0.500726 -0.072886 -1.257451
O 14.42378356 3.04431661 0.46696147 1.399856 0.791893 0.140385
O 21.44656564 3.08529656 5.09858268 -0.522524 0.125518 0.141099
O 20.46692804 4.61807944 0.47792090 2.262908 0.566860 0.788165
O 15.40533315 4.60071118 5.13354094 0.043084 0.962354 1.004837
O 13.83967473 3.10539013 3.15698239 -0.668205 -0.647792 -0.458985
O 22.01610267 3.11282891 2.53580598 0.940848 1.292861 -1.230836
O 19.96048596 4.63235737 3.13060227 -1.271296 0.282402 -0.745928
O 15.92913962 4.57694153 2.55467750 0.151072 -0.297075 0.109785
O 12.16634683 3.02988900 1.44303349 0.302236 -0.883196 -0.460654
O 23.62896483 3.12074574 4.15281730 -0.502472 -0.481466 1.148391
O 18.27676423 4.52841559 1.41981706 -0.231936 -0.329829 1.731977
O 17.43259331 4.54064111 4.20933885 0.253545 -0.470463 0.483942
Ga 11.14368515 3.04605939 10.18408858 0.611317 -0.353638 0.897605
Ga 21.91356733 3.13492187 6.80840431 -0.610424 -0.087081 -0.087906
Ga 17.20504143 4.61908570 10.24139075 -0.868864 -0.265058 0.101071
Ga 15.81228374 4.58178924 6.94457807 -0.026511 0.125747 -0.113800
Ga 12.53391899 2.99916776 7.49804453 0.571252 0.397695 0.015779
Ga 20.43039033 3.04627069 9.59599188 1.180107 1.117390 0.947975
Ga 18.72825098 4.58143408 7.42923178 -2.673403 0.644393 -0.535402
Ga 14.35871139 4.63000527 9.56369058 0.500726 -0.072886 -1.257451
O 13.03285956 3.04431661 6.18259647 1.399856 0.791893 0.140385
O 20.05564164 3.08529656 10.81421768 -0.522524 0.125518 0.141099
O 19.07600404 4.61807944 6.19355590 2.262908 0.566860 0.788165
O 14.01440915 4.60071118 10.84917594 0.043084 0.962354 1.004837
O 12.44875073 3.10539013 8.87261739 -0.668205 -0.647792 -0.458985
O 20.62517867 3.11282891 8.25144098 0.940848 1.292861 -1.230836
O 18.56956196 4.63235737 8.84623727 -1.271296 0.282402 -0.745928
O 14.53821562 4.57694153 8.27031250 0.151072 -0.297075 0.109785
O 10.77542283 3.02988900 7.15866849 0.302236 -0.883196 -0.460654
O 22.23804083 3.12074574 9.86845230 -0.502472 -0.481466 1.148391
O 16.88584023 4.52841559 7.13545206 -0.231936 -0.329829 1.731977
O 16.04166931 4.54064111 9.92497385 0.253545 -0.470463 0.483942
159
Lattice="25.132219 0.000000 0.000000 0.000000 6.222395 0.000000 -2.803544 0.000000 11.520425" Properties=species:S:1:pos:R:3:force:R:3 Energy=-628.719942 Virial="-28.502661 -1.026161 -1.749024 11.359998 -7.320094 -23.329353 0.557083 -12.216522 5.474999" pbc="T T T"
Ga 11.11811172 -0.01053288 1.16701570 -1.447705 0.728847 0.109753
Ga 6.40252006 1.55469453 4.59806108 1.022754 0.656602 0.241163
Ga 4.92916287 1.52054590 1.18465369 0.212231 -1.276922 -1.245117
Ga 1.54178060 -0.00344554 1.80269887 -0.792594 -0.835983 -0.062194
Ga 9.58251376 0.00781641 3.90784815 0.459565 0.438517 -0.114184
Ga 7.87515840 1.58053104 1.79012084 0.201783 1.426269 1.302905
Ga 3.31093446 1.56661907 3.91841165 0.726583 0.519760 0.346188
O 2.00155416 0.01431703 0.55719084 0.981709 -1.189394 -1.025730
O 9.26251973 -0.02317853 5.26231289 -0.354682 -0.214959 0.109775
O 8.21671133 1.59360447 0.53354219 -0.906235 1.296163 0.189518
O 3.00489801 1.57165239 5.30605278 0.046568 0.049373 -0.790470
O 1.37696676 0.00818198 3.17293537 1.072041 -0.329420 -0.720642
O 9.75141733 0.02474746 2.59118737 -1.291617 -0.278097 -0.516265
O 7.79340308 1.55173349 3.17686988 -0.484977 -0.058764 -0.154106
O 3.51966725 1.51048556 2.56858549 -1.017555 -1.350068 -1.907298
O -0.32867937 0.00846380 1.51825677 -1.533765 -0.679081 1.462277
O 11.46849669 0.03731516 4.32052423 -0.211708 0.115862 -0.189945
O 5.89989163 1.51953462 1.41214265 0.729460 0.700198 0.282324
O 5.26994148 1.55138297 4.35683106 0.720003 -0.061752 -0.321255
Ga -1.35265377 0.01915489 10.29173345 -0.065727 -0.124099 1.179533
Ga 9.72718772 -0.01053288 6.88265070 -1.447705 0.728847 0.109753
Ga 5.01159606 1.55469453 10.31369608 1.022754 0.656602 0.241163
Ga 3.53823887 1.52054590 6.90028869 0.212231 -1.276922 -1.245117
Ga 0.15085660 -0.00344554 7.51833387 -0.792594 -0.835983 -0.062194
Ga 8.19158976 0.00781641 9.62348315 0.459565 0.438517 -0.114184
Ga 6.48423440 1.58053104 7.50575584 0.201783 1.426269 1.302905
Ga 1.92001046 1.56661907 9.63404665 0.726583 0.519760 0.346188
O 0.61063016 0.01431703 6.27282584 0.981709 -1.189394 -1.025730
O 7.87159573 -0.02317853 10.97794789 -0.354682 -0.214959 0.109775
O 6.82578733 1.59360447 6.24917719 -0.906235 1.296163 0.189518
O 1.61397401 1.57165239 11.02168778 0.046568 0.049373 -0.790470
O -0.01395724 0.00818198 8.88857037 1.072041 -0.329420 -0.720642
O 8.36049333 0.02474746 8.30682237 -1.291617 -0.278097 -0.516265
O 6.40247908 1.55173349 8.89250488 -0.484977 -0.058764 -0.154106
O 2.12874325 1.51048556 8.28422049 -1.017555 -1.350068 -1.907298
O -1.71960337 0.00846380 7.23389177 -1.533765 -0.679081 1.462277
O 10.07757269 0.03731516 10.03615923 -0.211708 0.115862 -0.189945
O 4.50896763 1.51953462 7.12777765 0.729460 0.700198 0.282324
O 3.87901748 1.55138297 10.07246606 0.720003 -0.061752 -0.321255
Ga 0.03827023 3.10627489 4.57609845 -0.065727 -0.124099 1.179533
Ga 11.11811172 3.07658712 1.16701570 -1.447705 0.728847 0.109753
Ga 6.40252006 4.64181453 4.59806108 1.022754 0.656602 0.241163
Ga 4.92916287 4.60766590 1.18465369 0.212231 -1.276922 -1.245117
Ga 1.54178060 3.08367446 1.80269887 -0.792594 -0.835983 -0.062194
Ga 9.58251376 3.09493641 3.90784815 0.459565 0.438517 -0.114184
Ga 7.87515840 4.66765104 1.79012084 0.201783 1.426269 1.302905
Ga 3.31093446 4.65373907 3.91841165 0.726583 0.519760 0.346188
O 2.00155416 3.10143703 0.55719084 0.981709 -1.189394 -1.025730
O 9.26251973 3.06394147 5.26231289 -0.354682 -0.214959 0.109775
O 8.21671133 4.68072447 0.53354219 -0.906235 1.296163 0.189518
O 3.00489801 4.65877239 5.30605278 0.046568 0.049373 -0.790470
O 1.37696676 3.09530198 3.17293537 1.072041 -0.329420 -0.720642
O 9.75141733 3.11186746 2.59118737 -1.291617 -0.278097 -0.516265
O 7.79340308 4.63885349 3.17686988 -0.484977 -0.058764 -0.154106
O 3.51966725 4.59760556 2.56858549 -1.017555 -1.350068 -1.907298
O -0.32867937 3.09558380 1.51825677 -1.533765 -0.679081 1.462277
O 11.46849669 3.12443516 4.32052423 -0.211708 0.115862 -0.189945
O 5.89989163 4.60665462 1.41214265 0.729460 0.700198 0.282324
O 5.26994148 4.63850297 4.35683106 0.720003 -0.061752 -0.321255
Ga -1.35265377 3.10627489 10.29173345 -0.065727 -0.124099 1.179533
Ga 9.72718772 3.07658712 6.88265070 -1.447705 0.728847 0.109753
Ga 5.01159606 4.64181453 10.31369608 1.022754 0.656602 0.241163
Ga 3.53823887 4.60766590 6.90028869 0.212231 -1.276922 -1.245117
Ga 0.15085660 3.08367446 7.51833387 -0.792594 -0.835983 -0.062194
Ga 8.19158976 3.09493641 9.62348315 0.459565 0.438517 -0.114184
Ga 6.48423440 4.66765104 7.50575584 0.201783 1.426269 1.302905
Ga 1.92001046 4.65373907 9.63404665 0.726583 0.519760 0.346188
O 0.61063016 3.10143703 6.27282584 0.981709 -1.189394 -1.025730
O 7.87159573 3.06394147 10.97794789 -0.354682 -0.214959 0.109775
O 6.82578733 4.68072447 6.24917719 -0.906235 1.296163 0.189518
O 1.61397401 4.65877239 11.02168778 0.046568 0.049373 -0.790470
O -0.01395724 3.09530198 8.88857037 1.072041 -0.329420 -0.720642
O 8.36049333 3.11186746 8.30682237 -1.291617 -0.278097 -0.516265
O 6.40247908 4.63885349 8.89250488 -0.484977 -0.058764 -0.154106
O 2.12874325 4.59760556 8.28422049 -1.017555 -1.350068 -1.907298
O -1.71960337 3.09558380 7.23389177 -1.533765 -0.679081 1.462277
O 10.07757269 3.12443516 10.03615923 -0.211708 0.115862 -0.189945
O 4.50896763 4.60665462 7.12777765 0.729460 0.700198 0.282324
O 3.87901748 4.63850297 10.07246606 0.720003 -0.061752 -0.321255
Ga 12.50713123 0.01915489 4.57609845 -0.065727 -0.124099 1.179533
Ga 23.58697272 -0.01053288 1.16701570 -1.447705 0.728847 0.109753
Ga 18.87138106 1.55469453 4.59806108 1.022754 0.656602 0.241163
Ga 17.39802387 1.52054590 1.18465369 0.212231 -1.276922 -1.245117
Ga 14.01064160 -0.00344554 1.80269887 -0.792594 -0.835983 -0.062194
Ga 22.05137476 0.00781641 3.90784815 0.459565 0.438517 -0.114184
Ga 20.34401940 1.58053104 1.79012084 0.201783 1.426269 1.302905
Ga 15.77979546 1.56661907 3.91841165 0.726583 0.519760 0.346188
O 14.47041516 0.01431703 0.55719084 0.981709 -1.189394 -1.025730
O 21.73138073 -0.02317853 5.26231289 -0.354682 -0.214959 0.109775
O 20.68557233 1.59360447 0.53354219 -0.906235 1.296163 0.189518
O 15.47375901 1.57165239 5.30605278 0.046568 0.049373 -0.790470
O 13.84582776 0.00818198 3.17293537 1.072041 -0.329420 -0.720642
O 22.22027833 0.02474746 2.59118737 -1.291617 -0.278097 -0.516265
O 20.26226408 1.55173349 3.17686988 -0.484977 -0.058764 -0.154106
O 15.98852825 1.51048556 2.56858549 -1.017555 -1.350068 -1.907298
O 12.14018163 0.00846380 1.51825677 -1.533765 -0.679081 1.462277
O 23.93735769 0.03731516 4.32052423 -0.211708 0.115862 -0.189945
O 18.36875263 1.51953462 1.41214265 0.729460 0.700198 0.282324
O 17.73880248 1.55138297 4.35683106 0.720003 -0.061752 -0.321255
Ga 11.11620723 0.01915489 10.29173345 -0.065727 -0.124099 1.179533
Ga 22.19604872 -0.01053288 6.88265070 -1.447705 0.728847 0.109753
Ga 17.48045706 1.55469453 10.31369608 1.022754 0.656602 0.241163
Ga 16.00709987 1.52054590 6.90028869 0.212231 -1.276922 -1.245117
Ga 12.61971760 -0.00344554 7.51833387 -0.792594 -0.835983 -0.062194
Ga 20.66045076 0.00781641 9.62348315 0.459565 0.438517 -0.114184
Ga 18.95309540 1.58053104 7.50575584 0.201783 1.426269 1.302905
Ga 14.38887146 1.56661907 9.63404665 0.726583 0.519760 0.346188
O 13.07949116 0.01431703 6.27282584 0.981709 -1.189394 -1.025730
O 20.34045673 -0.02317853 10.97794789 -0.354682 -0.214959 0.109775
O 19.29464833 1.59360447 6.24917719 -0.906235 1.296163 0.189518
O 14.08283501 1.57165239 11.02168778 0.046568 0.049373 -0.790470
O 12.45490376 0.00818198 8.88857037 1.072041 -0.329420 -0.720642
O 20.82935433 0.02474746 8.30682237 -1.291617 -0.278097 -0.516265
O 18.87134008 1.55173349 8.89250488 -0.484977 -0.058764 -0.154106
O 14.59760425 1.51048556 8.28422049 -1.017555 -1.350068 -1.907298
O 10.74925763 0.00846380 7.23389177 -1.533765 -0.679081 1.462277
O 22.54643369 0.03731516 10.03615923 -0.211708 0.115862 -0.189945
O 16.97782863 1.51953462 7.12777765 0.729460 0.700198 0.282324
O 16.34787848 1.55138297 10.07246606 0.720003 -0.061752 -0.321255
Ga 12.50713123 3.10627489 4.57609845 -0.065727 -0.124099 1.179533
Ga 23.58697272 3.07658712 1.16701570 -1.447705 0.728847 0.109753
Ga 18.87138106 4.64181453 4.59806108 1.022754 0.656602 0.241163
Ga 17.39802387 4.60766590 1.18465369 0.212231 -1.276922 -1.245117
Ga 14.01064160 3.08367446 1.80269887 -0.792594 -0.835983 -0.062194
Ga 22.05137476 3.09493641 3.90784815 0.459565 0.438517 -0.114184
Ga 20.34401940 4.66765104 1.79012084 0.201783 1.426269 1.302905
Ga 15.77979546 4.65373907 3.91841165 0.726583 0.519760 0.346188
O 14.47041516 3.10143703 0.55719084 0.981709 -1.189394 -1.025730
O 21.73138073 3.06394147 5.26231289 -0.354682 -0.214959 0.109775
O 20.68557233 4.68072447 0.53354219 -0.906235 1.296163 0.189518
O 15.47375901 4.65877239 5.30605278 0.046568 0.049373 -0.790470
O 13.84582776 3.09530198 3.17293537 1.072041 -0.329420 -0.720642
O 22.22027833 3.11186746 2.59118737 -1.291617 -0.278097 -0.516265
O 20.26226408 4.63885349 3.17686988 -0.484977 -0.058764 -0.154106
O 15.98852825 4.59760556 2.56858549 -1.017555 -1.350068 -1.907298
O 12.14018163 3.09558380 1.51825677 -1.533765 -0.679081 1.462277
O 23.93735769 3.12443516 4.32052423 -0.211708 0.115862 -0.189945
O 18.36875263 4.60665462 1.41214265 0.729460 0.700198 0.282324
O 17.73880248 4.63850297 4.35683106 0.720003 -0.061752 -0.321255
Ga 11.11620723 3.10627489 10.29173345 -0.065727 -0.124099 1.179533
Ga 22.19604872 3.07658712 6.88265070 -1.447705 0.728847 0.109753
Ga 17.48045706 4.64181453 10.31369608 1.022754 0.656602 0.241163
Ga 16.00709987 4.60766590 6.90028869 0.212231 -1.276922 -1.245117
Ga 12.61971760 3.08367446 7.51833387 -0.792594 -0.835983 -0.062194
Ga 20.66045076 3.09493641 9.62348315 0.459565 0.438517 -0.114184
Ga 18.95309540 4.66765104 7.50575584 0.201783 1.426269 1.302905
Ga 14.38887146 4.65373907 9.63404665 0.726583 0.519760 0.346188
O 13.07949116 3.10143703 6.27282584 0.981709 -1.189394 -1.025730
O 20.34045673 3.06394147 10.97794789 -0.354682 -0.214959 0.109775
O 19.29464833 4.68072447 6.24917719 -0.906235 1.296163 0.189518
O 14.08283501 4.65877239 11.02168778 0.046568 0.049373 -0.790470
O 12.45490376 3.09530198 8.88857037 1.072041 -0.329420 -0.720642
O 20.82935433 3.11186746 8.30682237 -1.291617 -0.278097 -0.516265
O 18.87134008 4.63885349 8.89250488 -0.484977 -0.058764 -0.154106
O 14.59760425 4.59760556 8.28422049 -1.017555 -1.350068 -1.907298
O 10.74925763 3.09558380 7.23389177 -1.533765 -0.679081 1.462277
O 22.54643369 3.12443516 10.03615923 -0.211708 0.115862 -0.189945
O 16.97782863 4.60665462 7.12777765 0.729460 0.700198 0.282324
O 16.34787848 4.63850297 10.07246606 0.720003 -0.061752 -0.321255
159
Lattice="25.310216 0.000000 0.000000 0.000000 6.266464 0.000000 -2.823400 0.000000 11.602017" Properties=species:S:1:pos:R:3:force:R:3 Energy=-627.954780 Virial="-13.848953 7.163763 9.564429 29.612768 -22.241009 -28.674249 -31.129158 -8.649137 -19.673664" pbc="T T T"
Ga 11.15680108 0.05906161 1.24673047 -0.502650 1.403515 0.314926
Ga 6.32608133 1.58244819 4.62924342 -1.008754 1.468450 -1.380392
Ga 4.90273048 1.54460384 1.16466189 -1.013785 -0.917183 -0.558571
Ga 1.56252167 0.04690916 1.84442154 -0.445998 -1.205031 -1.196259
Ga 9.66503896 0.03086795 3.86438980 0.609489 -0.206941 0.273751
Ga 7.93704872 1.49702750 1.80817989 -0.496601 -0.260629 -0.075729
Ga 3.30752248 1.51482879 4.02476458 0.181235 -0.260681 0.878296
O 1.92402942 0.01386016 0.54341834 -1.148095 0.932982 -0.978862
O 9.31975153 0.00307288 5.20439418 0.407921 0.083779 0.076111
O 8.31014239 1.54686578 0.48303189 -0.199954 0.642088 -1.383533
O 2.95599104 1.62664644 5.28972274 -1.623378 0.809888 -0.372520
O 1.38765847 -0.01397031 3.22409731 -0.607201 0.549910 0.605613
O 9.92487273 0.01527742 2.58124800 0.011729 0.360296 0.844292
O 7.77037015 1.57616761 3.22660102 -0.063828 0.182622 0.448841
O 3.50639456 1.56375200 2.56255744 -1.220353 0.348361 0.136680
O -0.28166952 0.00207784 1.51436436 -0.692254 2.708995 1.247592
O 11.55095340 0.00314541 4.23602225 -0.444820 -0.077346 -1.333563
O 6.05343165 1.58047559 1.52497916 0.431480 0.472351 0.573885
O 5.11077861 1.65015104 4.31036669 -0.505134 -0.721967 0.238468
Ga -1.37427850 0.03534640 10.35121013 -0.585444 0.138157 0.269925
Ga 9.76587708 0.05906161 6.96236547 -0.502650 1.403515 0.314926
Ga 4.93515733 1.58244819 10.34487842 -1.008754 1.468450 -1.380392
Ga 3.51180648 1.54460384 6.88029689 -1.013785 -0.917183 -0.558571
Ga 0.17159767 0.04690916 7.56005654 -0.445998 -1.205031 -1.196259
Ga 8.27411496 0.03086795 9.58002480 0.609489 -0.206941 0.273751
Ga 6.54612472 1.49702750 7.52381489 -0.496601 -0.260629 -0.075729
Ga 1.91659848 1.51482879 9.74039958 0.181235 -0.260681 0.878296
O 0.53310542 0.01386016 6.25905334 -1.148095 0.932982 -0.978862
O 7.92882753 0.00307288 10.92002918 0.407921 0.083779 0.076111
O 6.91921839 1.54686578 6.19866689 -0.199954 0.642088 -1.383533
O 1.56506704 1.62664644 11.00535774 -1.623378 0.809888 -0.372520
O -0.00326553 -0.01397031 8.93973231 -0.607201 0.549910 0.605613
O 8.53394873 0.01527742 8.29688300 0.011729 0.360296 0.844292
O 6.37944615 1.57616761 8.94223602 -0.063828 0.182622 0.448841
O 2.11547056 1.56375200 8.27819244 -1.220353 0.348361 0.136680
O -1.67259352 0.00207784 7.22999936 -0.692254 2.708995 1.247592
O 10.16002940 0.00314541 9.95165725 -0.444820 -0.077346 -1.333563
O 4.66250765 1.58047559 7.24061416 0.431480 0.472351 0.573885
O 3.71985461 1.65015104 10.02600169 -0.505134 -0.721967 0.238468
Ga 0.01664550 3.12246640 4.63557513 -0.585444 0.138157 0.269925
Ga 11.15680108 3.14618161 1.24673047 -0.502650 1.403515 0.314926
Ga 6.32608133 4.66956819 4.62924342 -1.008754 1.468450 -1.380392
Ga 4.90273048 4.63172384 1.16466189 -1.013785 -0.917183 -0.558571
Ga 1.56252167 3.13402916 1.84442154 -0.445998 -1.205031 -1.196259
Ga 9.66503896 3.11798795 3.86438980 0.609489 -0.206941 0.273751
Ga 7.93704872 4.58414750 1.80817989 -0.496601 -0.260629 -0.075729
Ga 3.30752248 4.60194879 4.02476458 0.181235 -0.260681 0.878296
O 1.92402942 3.10098016 0.54341834 -1.148095 0.932982 -0.978862
O 9.31975153 3.09019288 5.20439418 0.407921 0.083779 0.076111
O 8.31014239 4.63398578 0.48303189 -0.199954 0.642088 -1.383533
O 2.95599104 4.71376644 5.28972274 -1.623378 0.809888 -0.372520
O 1.38765847 3.07314969 3.22409731 -0.607201 0.549910 0.605613
O 9.92487273 3.10239742 2.58124800 0.011729 0.360296 0.844292
O 7.77037015 4.66328761 3.22660102 -0.063828 0.182622 0.448841
O 3.50639456 4.65087200 2.56255744 -1.220353 0.348361 0.136680
O -0.28166952 3.08919784 1.51436436 -0.692254 2.708995 1.247592
O 11.55095340 3.09026541 4.23602225 -0.444820 -0.077346 -1.333563
O 6.05343165 4.66759559 1.52497916 0.431480 0.472351 0.573885
O 5.11077861 4.73727104 4.31036669 -0.505134 -0.721967 0.238468
Ga -1.37427850 3.12246640 10.35121013 -0.585444 0.138157 0.269925
Ga 9.76587708 3.14618161 6.96236547 -0.502650 1.403515 0.314926
Ga 4.93515733 4.66956819 10.34487842 -1.008754 1.468450 -1.380392
Ga 3.51180648 4.63172384 6.88029689 -1.013785 -0.917183 -0.558571
Ga 0.17159767 3.13402916 7.56005654 -0.445998 -1.205031 -1.196259
Ga 8.27411496 3.11798795 9.58002480 0.609489 -0.206941 0.273751
Ga 6.54612472 4.58414750 7.52381489 -0.496601 -0.260629 -0.075729
Ga 1.91659848 4.60194879 9.74039958 0.181235 -0.260681 0.878296
O 0.53310542 3.10098016 6.25905334 -1.148095 0.932982 -0.978862
O 7.92882753 3.09019288 10.92002918 0.407921 0.083779 0.076111
O 6.91921839 4.63398578 6.19866689 -0.199954 0.642088 -1.383533
O 1.56506704 4.71376644 11.00535774 -1.623378 0.809888 -0.372520
O -0.00326553 3.07314969 8.93973231 -0.607201 0.549910 0.605613
O 8.53394873 3.10239742 8.29688300 0.011729 0.360296 0.844292
O 6.37944615 4.66328761 8.94223602 -0.063828 0.182622 0.448841
O 2.11547056 4.65087200 8.27819244 -1.220353 0.348361 0.136680
O -1.67259352 3.08919784 7.22999936 -0.692254 2.708995 1.247592
O 10.16002940 3.09026541 9.95165725 -0.444820 -0.077346 -1.333563
O 4.66250765 4.66759559 7.24061416 0.431480 0.472351 0.573885
O 3.71985461 4.73727104 10.02600169 -0.505134 -0.721967 0.238468
Ga 12.48550650 0.03534640 4.63557513 -0.585444 0.138157 0.269925
Ga 23.62566208 0.05906161 1.24673047 -0.502650 1.403515 0.314926
Ga 18.79494233 1.58244819 4.62924342 -1.008754 1.468450 -1.380392
Ga 17.37159148 1.54460384 1.16466189 -1.013785 -0.917183 -0.558571
Ga 14.03138267 0.04690916 1.84442154 -0.445998 -1.205031 -1.196259
Ga 22.13389996 0.03086795 3.86438980 0.609489 -0.206941 0.273751
Ga 20.40590972 1.49702750 1.80817989 -0.496601 -0.260629 -0.075729
Ga 15.77638348 1.51482879 4.02476458 0.181235 -0.260681 0.878296
O 14.39289042 0.01386016 0.54341834 -1.148095 0.932982 -0.978862
O 21.78861253 0.00307288 5.20439418 0.407921 0.083779 0.076111
O 20.77900339 1.54686578 0.48303189 -0.199954 0.642088 -1.383533
O 15.42485204 1.62664644 5.28972274 -1.623378 0.809888 -0.372520
O 13.85651947 -0.01397031 3.22409731 -0.607201 0.549910 0.605613
O 22.39373373 0.01527742 2.58124800 0.011729 0.360296 0.844292
O 20.23923115 1.57616761 3.22660102 -0.063828 0.182622 0.448841
O 15.97525556 1.56375200 2.56255744 -1.220353 0.348361 0.136680
O 12.18719148 0.00207784 1.51436436 -0.692254 2.708995 1.247592
O 24.01981440 0.00314541 4.23602225 -0.444820 -0.077346 -1.333563
O 18.52229265 1.58047559 1.52497916 0.431480 0.472351 0.573885
O 17.57963961 1.65015104 4.31036669 -0.505134 -0.721967 0.238468
Ga 11.09458250 0.03534640 10.35121013 -0.585444 0.138157 0.269925
Ga 22.23473808 0.05906161 6.96236547 -0.502650 1.403515 0.314926
Ga 17.40401833 1.58244819 10.34487842 -1.008754 1.468450 -1.380392
Ga 15.98066748 1.54460384 6.88029689 -1.013785 -0.917183 -0.558571
Ga 12.64045867 0.04690916 7.56005654 -0.445998 -1.205031 -1.196259
Ga 20.74297596 0.03086795 9.58002480 0.609489 -0.206941 0.273751
Ga 19.01498572 1.49702750 7.52381489 -0.496601 -0.260629 -0.075729
Ga 14.38545948 1.51482879 9.74039958 0.181235 -0.260681 0.878296
O 13.00196642 0.01386016 6.25905334 -1.148095 0.932982 -0.978862
O 20.39768853 0.00307288 10.92002918 0.407921 0.083779 0.076111
O 19.38807939 1.54686578 6.19866689 -0.199954 0.642088 -1.383533
O 14.03392804 1.62664644 11.00535774 -1.623378 0.809888 -0.372520
O 12.46559547 -0.01397031 8.93973231 -0.607201 0.549910 0.605613
O 21.00280973 0.01527742 8.29688300 0.011729 0.360296 0.844292
O 18.84830715 1.57616761 8.94223602 -0.063828 0.182622 0.448841
O 14.58433156 1.56375200 8.27819244 -1.220353 0.348361 0.136680
O 10.79626748 0.00207784 7.22999936 -0.692254 2.708995 1.247592
O 22.62889040 0.00314541 9.95165725 -0.444820 -0.077346 -1.333563
O 17.13136865 1.58047559 7.24061416 0.431480 0.472351 0.573885
O 16.18871561 1.65015104 10.02600169 -0.505134 -0.721967 0.238468
Ga 12.48550650 3.12246640 4.63557513 -0.585444 0.138157 0.269925
Ga 23.62566208 3.14618161 1.24673047 -0.502650 1.403515 0.314926
Ga 18.79494233 4.66956819 4.62924342 -1.008754 1.468450 -1.380392
Ga 17.37159148 4.63172384 1.16466189 -1.013785 -0.917183 -0.558571
Ga 14.03138267 3.13402916 1.84442154 -0.445998 -1.205031 -1.196259
Ga 22.13389996 3.11798795 3.86438980 0.609489 -0.206941 0.273751
Ga 20.40590972 4.58414750 1.80817989 -0.496601 -0.260629 -0.075729
Ga 15.77638348 4.60194879 4.02476458 0.181235 -0.260681 0.878296
O 14.39289042 3.10098016 0.54341834 -1.148095 0.932982 -0.978862
O 21.78861253 3.09019288 5.20439418 0.407921 0.083779 0.076111
O 20.77900339 4.63398578 0.48303189 -0.199954 0.642088 -1.383533
O 15.42485204 4.71376644 5.28972274 -1.623378 0.809888 -0.372520
O 13.85651947 3.07314969 3.22409731 -0.607201 0.549910 0.605613
O 22.39373373 3.10239742 2.58124800 0.011729 0.360296 0.844292
O 20.23923115 4.66328761 3.22660102 -0.063828 0.182622 0.448841
O 15.97525556 4.65087200 2.56255744 -1.220353 0.348361 0.136680
O 12.18719148 3.08919784 1.51436436 -0.692254 2.708995 1.247592
O 24.01981440 3.09026541 4.23602225 -0.444820 -0.077346 -1.333563
O 18.52229265 4.66759559 1.52497916 0.431480 0.472351 0.573885
O 17.57963961 4.73727104 4.31036669 -0.505134 -0.721967 0.238468
Ga 11.09458250 3.12246640 10.35121013 -0.585444 0.138157 0.269925
Ga 22.23473808 3.14618161 6.96236547 -0.502650 1.403515 0.314926
Ga 17.40401833 4.66956819 10.34487842 -1.008754 1.468450 -1.380392
Ga 15.98066748 4.63172384 6.88029689 -1.013785 -0.917183 -0.558571
Ga 12.64045867 3.13402916 7.56005654 -0.445998 -1.205031 -1.196259
Ga 20.74297596 3.11798795 9.58002480 0.609489 -0.206941 0.273751
Ga 19.01498572 4.58414750 7.52381489 -0.496601 -0.260629 -0.075729
Ga 14.38545948 4.60194879 9.74039958 0.181235 -0.260681 0.878296
O 13.00196642 3.10098016 6.25905334 -1.148095 0.932982 -0.978862
O 20.39768853 3.09019288 10.92002918 0.407921 0.083779 0.076111
O 19.38807939 4.63398578 6.19866689 -0.199954 0.642088 -1.383533
O 14.03392804 4.71376644 11.00535774 -1.623378 0.809888 -0.372520
O 12.46559547 3.07314969 8.93973231 -0.607201 0.549910 0.605613
O 21.00280973 3.10239742 8.29688300 0.011729 0.360296 0.844292
O 18.84830715 4.66328761 8.94223602 -0.063828 0.182622 0.448841
O 14.58433156 4.65087200 8.27819244 -1.220353 0.348361 0.136680
O 10.79626748 3.08919784 7.22999936 -0.692254 2.708995 1.247592
O 22.62889040 3.09026541 9.95165725 -0.444820 -0.077346 -1.333563
O 17.13136865 4.66759559 7.24061416 0.431480 0.472351 0.573885
O 16.18871561 4.73727104 10.02600169 -0.505134 -0.721967 0.238468
159
Lattice="24.578272 0.000000 0.000000 0.000000 6.085245 0.000000 -2.741751 0.000000 11.266499" Properties=species:S:1:pos:R:3:force:R:3 Energy=-628.882200 Virial="-14.626973 -19.184133 -13.420568 12.038801 -0.369655 1.166286 6.313923 -1.427032 31.004699" pbc="T T T"
Ga 10.86936209 0.04292349 1.15051072 0.394495 -0.206556 0.103359
Ga 6.18932542 1.48462481 4.47494547 0.760709 0.143643 1.658336
Ga 4.83095969 1.55982982 1.16937398 1.238767 -0.092905 -0.026374
Ga 1.50037100 0.00269994 1.77787030 -1.124531 0.182708 0.098364
Ga 9.41790147 -0.04306642 3.89001878 0.628365 -0.319426 -0.668992
Ga 7.61931234 1.58655624 1.73910253 1.110962 0.216283 0.128680
Ga 3.26722925 1.56151691 3.85318726 0.700502 0.668881 -0.376137
O 1.90017960 0.05740726 0.55210194 0.732493 0.046513 0.649087
O 9.04592660 -0.06739142 5.06637542 1.630383 1.682781 0.760457
O 8.07300063 1.54410922 0.55838447 0.155218 -0.240273 0.634697
O 2.91255223 1.57290146 5.09326831 1.204988 0.395322 0.325587
O 1.36589167 -0.04114697 3.09223234 0.181461 1.054765 -0.860691
O 9.49143888 -0.03540654 2.55199935 0.283228 -0.151206 0.310798
O 7.44353081 1.50916976 3.09162743 -0.205819 1.228392 0.778555
O 3.38858132 1.52809896 2.46189225 -0.850291 -0.943442 0.312543
O -0.25820084 0.06135912 1.35214864 -0.427903 1.475808 -0.291243
O 11.19272791 0.00236568 4.23618234 0.131444 0.136480 -0.929696
O 5.82461003 1.52051379 1.39584270 1.555339 0.717517 0.442210
O 5.01416853 1.57912659 4.11817486 -0.069361 1.028817 -1.057113
Ga -1.40559318 0.02577073 10.20287874 0.115929 -1.675415 -0.566828
Ga 9.47843809 0.04292349 6.86614572 0.394495 -0.206556 0.103359
Ga 4.79840142 1.48462481 10.19058047 0.760709 0.143643 1.658336
Ga 3.44003569 1.55982982 6.88500898 1.238767 -0.092905 -0.026374
Ga 0.10944700 0.00269994 7.49350530 -1.124531 0.182708 0.098364
Ga 8.02697747 -0.04306642 9.60565378 0.628365 -0.319426 -0.668992
Ga 6.22838834 1.58655624 7.45473753 1.110962 0.216283 0.128680
Ga 1.87630525 1.56151691 9.56882226 0.700502 0.668881 -0.376137
O 0.50925560 0.05740726 6.26773694 0.732493 0.046513 0.649087
O 7.65500260 -0.06739142 10.78201042 1.630383 1.682781 0.760457
O 6.68207663 1.54410922 6.27401947 0.155218 -0.240273 0.634697
O 1.52162823 1.57290146 10.80890331 1.204988 0.395322 0.325587
O -0.02503233 -0.04114697 8.80786734 0.181461 1.054765 -0.860691
O 8.10051488 -0.03540654 8.26763435 0.283228 -0.151206 0.310798
O 6.05260681 1.50916976 8.80726243 -0.205819 1.228392 0.778555
O 1.99765732 1.52809896 8.17752725 -0.850291 -0.943442 0.312543
O -1.64912484 0.06135912 7.06778364 -0.427903 1.475808 -0.291243
O 9.80180391 0.00236568 9.95181734 0.131444 0.136480 -0.929696
O 4.43368603 1.52051379 7.11147770 1.555339 0.717517 0.442210
O 3.62324453 1.57912659 9.83380986 -0.069361 1.028817 -1.057113
Ga -0.01466918 3.11289073 4.48724374 0.115929 -1.675415 -0.566828
Ga 10.86936209 3.13004349 1.15051072 0.394495 -0.206556 0.103359
Ga 6.18932542 4.57174481 4.47494547 0.760709 0.143643 1.658336
Ga 4.83095969 4.64694982 1.16937398 1.238767 -0.092905 -0.026374
Ga 1.50037100 3.08981994 1.77787030 -1.124531 0.182708 0.098364
Ga 9.41790147 3.04405358 3.89001878 0.628365 -0.319426 -0.668992
Ga 7.61931234 4.67367624 1.73910253 1.110962 0.216283 0.128680
Ga 3.26722925 4.64863691 3.85318726 0.700502 0.668881 -0.376137
O 1.90017960 3.14452726 0.55210194 0.732493 0.046513 0.649087
O 9.04592660 3.01972858 5.06637542 1.630383 1.682781 0.760457
O 8.07300063 4.63122922 0.55838447 0.155218 -0.240273 0.634697
O 2.91255223 4.66002146 5.09326831 1.204988 0.395322 0.325587
O 1.36589167 3.04597303 3.09223234 0.181461 1.054765 -0.860691
O 9.49143888 3.05171346 2.55199935 0.283228 -0.151206 0.310798
O 7.44353081 4.59628976 3.09162743 -0.205819 1.228392 0.778555
O 3.38858132 4.61521896 2.46189225 -0.850291 -0.943442 0.312543
O -0.25820084 3.14847912 1.35214864 -0.427903 1.475808 -0.291243
O 11.19272791 3.08948568 4.23618234 0.131444 0.136480 -0.929696
O 5.82461003 4.60763379 1.39584270 1.555339 0.717517 0.442210
O 5.01416853 4.66624659 4.11817486 -0.069361 1.028817 -1.057113
Ga -1.40559318 3.11289073 10.20287874 0.115929 -1.675415 -0.566828
Ga 9.47843809 3.13004349 6.86614572 0.394495 -0.206556 0.103359
Ga 4.79840142 4.57174481 10.19058047 0.760709 0.143643 1.658336
Ga 3.44003569 4.64694982 6.88500898 1.238767 -0.092905 -0.026374
Ga 0.10944700 3.08981994 7.49350530 -1.124531 0.182708 0.098364
Ga 8.02697747 3.04405358 9.60565378 0.628365 -0.319426 -0.668992
Ga 6.22838834 4.67367624 7.45473753 1.110962 0.216283 0.128680
Ga 1.87630525 4.64863691 9.56882226 0.700502 0.668881 -0.376137
O 0.50925560 3.14452726 6.26773694 0.732493 0.046513 0.649087
O 7.65500260 3.01972858 10.78201042 1.630383 1.682781 0.760457
O 6.68207663 4.63122922 6.27401947 0.155218 -0.240273 0.634697
O 1.52162823 4.66002146 10.80890331 1.204988 0.395322 0.325587
O -0.02503233 3.04597303 8.80786734 0.181461 1.054765 -0.860691
O 8.10051488 3.05171346 8.26763435 0.283228 -0.151206 0.310798
O 6.05260681 4.59628976 8.80726243 -0.205819 1.228392 0.778555
O 1.99765732 4.61521896 8.17752725 -0.850291 -0.943442 0.312543
O -1.64912484 3.14847912 7.06778364 -0.427903 1.475808 -0.291243
O 9.80180391 3.08948568 9.95181734 0.131444 0.136480 -0.929696
O 4.43368603 4.60763379 7.11147770 1.555339 0.717517 0.442210
O 3.62324453 4.66624659 9.83380986 -0.069361 1.028817 -1.057113
Ga 12.45419182 0.02577073 4.48724374 0.115929 -1.675415 -0.566828
Ga 23.33822309 0.04292349 1.15051072 0.394495 -0.206556 0.103359
Ga 18.65818642 1.48462481 4.47494547 0.760709 0.143643 1.658336
Ga 17.29982069 1.55982982 1.16937398 1.238767 -0.092905 -0.026374
Ga 13.96923200 0.00269994 1.77787030 -1.124531 0.182708 0.098364
Ga 21.88676247 -0.04306642 3.89001878 0.628365 -0.319426 -0.668992
Ga 20.08817334 1.58655624 1.73910253 1.110962 0.216283 0.128680
Ga 15.73609025 1.56151691 3.85318726 0.700502 0.668881 -0.376137
O 14.36904060 0.05740726 0.55210194 0.732493 0.046513 0.649087
O 21.51478760 -0.06739142 5.06637542 1.630383 1.682781 0.760457
O 20.54186163 1.54410922 0.55838447 0.155218 -0.240273 0.634697
O 15.38141323 1.57290146 5.09326831 1.204988 0.395322 0.325587
O 13.83475267 -0.04114697 3.09223234 0.181461 1.054765 -0.860691
O 21.96029988 -0.03540654 2.55199935 0.283228 -0.151206 0.310798
O 19.91239181 1.50916976 3.09162743 -0.205819 1.228392 0.778555
O 15.85744232 1.52809896 2.46189225 -0.850291 -0.943442 0.312543
O 12.21066016 0.06135912 1.35214864 -0.427903 1.475808 -0.291243
O 23.66158891 0.00236568 4.23618234 0.131444 0.136480 -0.929696
O 18.29347103 1.52051379 1.39584270 1.555339 0.717517 0.442210
O 17.48302953 1.57912659 4.11817486 -0.069361 1.028817 -1.057113
Ga 11.06326782 0.02577073 10.20287874 0.115929 -1.675415 -0.566828
Ga 21.94729909 0.04292349 6.86614572 0.394495 -0.206556 0.103359
Ga 17.26726242 1.48462481 10.19058047 0.760709 0.143643 1.658336
Ga 15.90889669 1.55982982 6.88500898 1.238767 -0.092905 -0.026374
Ga 12.57830800 0.00269994 7.49350530 -1.124531 0.182708 0.098364
Ga 20.49583847 -0.04306642 9.60565378 0.628365 -0.319426 -0.668992
Ga 18.69724934 1.58655624 7.45473753 1.110962 0.216283 0.128680
Ga 14.34516625 1.56151691 9.56882226 0.700502 0.668881 -0.376137
O 12.97811660 0.05740726 6.26773694 0.732493 0.046513 0.649087
O 20.12386360 -0.06739142 10.78201042 1.630383 1.682781 0.760457
O 19.15093763 1.54410922 6.27401947 0.155218 -0.240273 0.634697
O 13.99048923 1.57290146 10.80890331 1.204988 0.395322 0.325587
O 12.44382867 -0.04114697 8.80786734 0.181461 1.054765 -0.860691
O 20.56937588 -0.03540654 8.26763435 0.283228 -0.151206 0.310798
O 18.52146781 1.50916976 8.80726243 -0.205819 1.228392 0.778555
O 14.46651832 1.52809896 8.17752725 -0.850291 -0.943442 0.312543
O 10.81973616 0.06135912 7.06778364 -0.427903 1.475808 -0.291243
O 22.27066491 0.00236568 9.95181734 0.131444 0.136480 -0.929696
O 16.90254703 1.52051379 7.11147770 1.555339 0.717517 0.442210
O 16.09210553 1.57912659 9.83380986 -0.069361 1.028817 -1.057113
Ga 12.45419182 3.11289073 4.48724374 0.115929 -1.675415 -0.566828
Ga 23.33822309 3.13004349 1.15051072 0.394495 -0.206556 0.103359
Ga 18.65818642 4.57174481 4.47494547 0.760709 0.143643 1.658336
Ga 17.29982069 4.64694982 1.16937398 1.238767 -0.092905 -0.026374
Ga 13.96923200 3.08981994 1.77787030 -1.124531 0.182708 0.098364
Ga 21.88676247 3.04405358 3.89001878 0.628365 -0.319426 -0.668992
Ga 20.08817334 4.67367624 1.73910253 1.110962 0.216283 0.128680
Ga 15.73609025 4.64863691 3.85318726 0.700502 0.668881 -0.376137
O 14.36904060 3.14452726 0.55210194 0.732493 0.046513 0.649087
O 21.51478760 3.01972858 5.06637542 1.630383 1.682781 0.760457
O 20.54186163 4.63122922 0.55838447 0.155218 -0.240273 0.634697
O 15.38141323 4.66002146 5.09326831 1.204988 0.395322 0.325587
O 13.83475267 3.04597303 3.09223234 0.181461 1.054765 -0.860691
O 21.96029988 3.05171346 2.55199935 0.283228 -0.151206 0.310798
O 19.91239181 4.59628976 3.09162743 -0.205819 1.228392 0.778555
O 15.85744232 4.61521896 2.46189225 -0.850291 -0.943442 0.312543
O 12.21066016 3.14847912 1.35214864 -0.427903 1.475808 -0.291243
O 23.66158891 3.08948568 4.23618234 0.131444 0.136480 -0.929696
O 18.29347103 4.60763379 1.39584270 1.555339 0.717517 0.442210
O 17.48302953 4.66624659 4.11817486 -0.069361 1.028817 -1.057113
Ga 11.06326782 3.11289073 10.20287874 0.115929 -1.675415 -0.566828
Ga 21.94729909 3.13004349 6.86614572 0.394495 -0.206556 0.103359
Ga 17.26726242 4.57174481 10.19058047 0.760709 0.143643 1.658336
Ga 15.90889669 4.64694982 6.88500898 1.238767 -0.092905 -0.026374
Ga 12.57830800 3.08981994 7.49350530 -1.124531 0.182708 0.098364
Ga 20.49583847 3.04405358 9.60565378 0.628365 -0.319426 -0.668992
Ga 18.69724934 4.67367624 7.45473753 1.110962 0.216283 0.128680
Ga 14.34516625 4.64863691 9.56882226 0.700502 0.668881 -0.376137
O 12.97811660 3.14452726 6.26773694 0.732493 0.046513 0.649087
O 20.12386360 3.01972858 10.78201042 1.630383 1.682781 0.760457
O 19.15093763 4.63122922 6.27401947 0.155218 -0.240273 0.634697
O 13.99048923 4.66002146 10.80890331 1.204988 0.395322 0.325587
O 12.44382867 3.04597303 8.80786734 0.181461 1.054765 -0.860691
O 20.56937588 3.05171346 8.26763435 0.283228 -0.151206 0.310798
O 18.52146781 4.59628976 8.80726243 -0.205819 1.228392 0.778555
O 14.46651832 4.61521896 8.17752725 -0.850291 -0.943442 0.312543
O 10.81973616 3.14847912 7.06778364 -0.427903 1.475808 -0.291243
O 22.27066491 3.08948568 9.95181734 0.131444 0.136480 -0.929696
O 16.90254703 4.60763379 7.11147770 1.555339 0.717517 0.442210
O 16.09210553 4.66624659 9.83380986 -0.069361 1.028817 -1.057113
159
Lattice="24.971242 0.000000 0.000000 0.000000 6.182539 0.000000 -2.785587 0.000000 11.446634" Properties=species:S:1:pos:R:3:force:R:3 Energy=-628.990194 Virial="-13.190614 0.862372 13.759441 1.270460 26.500553 -15.337766 -27.462078 -18.947621 -11.181802" pbc="T T T"
Ga 11.10372831 0.03035714 1.18681662 -1.193574 -0.876409 -0.167603
Ga 6.27021294 1.54313098 4.51758985 0.250330 -0.130903 1.956761
Ga 4.81555498 1.47791643 1.17163538 1.177065 -1.455865 0.228486
Ga 1.50305999 -0.04414357 1.80546258 -1.638522 -0.733996 -1.006334
Ga 9.60590333 0.03673266 3.86223056 -0.113465 0.107648 0.124078
Ga 7.74582922 1.58326555 1.75896731 0.617808 0.692839 1.022622
Ga 3.29842721 1.56763679 3.88631681 1.057696 0.408240 -0.384143
O 1.92093383 -0.05336102 0.51393744 -0.976771 -0.442695 1.505257
O 9.18889935 -0.06371975 5.20294424 1.903395 1.517445 -0.011465
O 8.15874401 1.56773430 0.54694871 0.643632 0.091909 -0.439744
O 2.98786298 1.55064368 5.16814903 -0.019436 -1.103559 -0.360452
O 1.38772507 0.02173192 3.19556518 -0.714749 -0.139619 0.822552
O 9.71161737 -0.02807967 2.50319058 1.001928 -0.106671 -0.320680
O 7.56953967 1.61561777 3.14385625 0.035603 -0.014028 0.525746
O 3.43946678 1.51689841 2.56550359 -0.474522 0.145399 0.769739
O -0.31841055 0.04990968 1.43823007 -0.448425 0.180428 -0.475071
O 11.41059921 -0.03341388 4.34395367 0.503657 0.367083 0.488196
O 5.88869321 1.55802753 1.49052077 -0.954700 -0.880406 0.797822
O 5.17318170 1.53822320 4.25295487 0.681361 -0.780731 0.240711
Ga -1.31231790 0.02255636 10.28717361 0.288557 -1.232597 -0.393685
Ga 9.71280431 0.03035714 6.90245162 -1.193574 -0.876409 -0.167603
Ga 4.87928894 1.54313098 10.23322485 0.250330 -0.130903 1.956761
Ga 3.42463098 1.47791643 6.88727038 1.177065 -1.455865 0.228486
Ga 0.11213599 -0.04414357 7.52109758 -1.638522 -0.733996 -1.006334
Ga 8.21497933 0.03673266 9.57786556 -0.113465 0.107648 0.124078
Ga 6.35490522 1.58326555 7.47460231 0.617808 0.692839 1.022622
Ga 1.90750321 1.56763679 9.60195181 1.057696 0.408240 -0.384143
O 0.53000983 -0.05336102 6.22957244 -0.976771 -0.442695 1.505257
O 7.79797535 -0.06371975 10.91857924 1.903395 1.517445 -0.011465
O 6.76782001 1.56773430 6.26258371 0.643632 0.091909 -0.439744
O 1.59693898 1.55064368 10.88378403 -0.019436 -1.103559 -0.360452
O -0.00319893 0.02173192 8.91120018 -0.714749 -0.139619 0.822552
O 8.32069337 -0.02807967 8.21882558 1.001928 -0.106671 -0.320680
O 6.17861567 1.61561777 8.85949125 0.035603 -0.014028 0.525746
O 2.04854278 1.51689841 8.28113859 -0.474522 0.145399 0.769739
O -1.70933455 0.04990968 7.15386507 -0.448425 0.180428 -0.475071
O 10.01967521 -0.03341388 10.05958867 0.503657 0.367083 0.488196
O 4.49776921 1.55802753 7.20615577 -0.954700 -0.880406 0.797822
O 3.78225770 1.53822320 9.96858987 0.681361 -0.780731 0.240711
Ga 0.07860610 3.10967636 4.57153861 0.288557 -1.232597 -0.393685
Ga 11.10372831 3.11747714 1.18681662 -1.193574 -0.876409 -0.167603
Ga 6.27021294 4.63025098 4.51758985 0.250330 -0.130903 1.956761
Ga 4.81555498 4.56503643 1.17163538 1.177065 -1.455865 0.228486
Ga 1.50305999 3.04297643 1.80546258 -1.638522 -0.733996 -1.006334
Ga 9.60590333 3.12385266 3.86223056 -0.113465 0.107648 0.124078
Ga 7.74582922 4.67038555 1.75896731 0.617808 0.692839 1.022622
Ga 3.29842721 4.65475679 3.88631681 1.057696 0.408240 -0.384143
O 1.92093383 3.03375898 0.51393744 -0.976771 -0.442695 1.505257
O 9.18889935 3.02340025 5.20294424 1.903395 1.517445 -0.011465
O 8.15874401 4.65485430 0.54694871 0.643632 0.091909 -0.439744
O 2.98786298 4.63776368 5.16814903 -0.019436 -1.103559 -0.360452
O 1.38772507 3.10885192 3.19556518 -0.714749 -0.139619 0.822552
O 9.71161737 3.05904033 2.50319058 1.001928 -0.106671 -0.320680
O 7.56953967 4.70273777 3.14385625 0.035603 -0.014028 0.525746
O 3.43946678 4.60401841 2.56550359 -0.474522 0.145399 0.769739
O -0.31841055 3.13702968 1.43823007 -0.448425 0.180428 -0.475071
O 11.41059921 3.05370612 4.34395367 0.503657 0.367083 0.488196
O 5.88869321 4.64514753 1.49052077 -0.954700 -0.880406 0.797822
O 5.17318170 4.62534320 4.25295487 0.681361 -0.780731 0.240711
Ga -1.31231790 3.10967636 10.28717361 0.288557 -1.232597 -0.393685
Ga 9.71280431 3.11747714 6.90245162 -1.193574 -0.876409 -0.167603
Ga 4.87928894 4.63025098 10.23322485 0.250330 -0.130903 1.956761
Ga 3.42463098 4.56503643 6.88727038 1.177065 -1.455865 0.228486
Ga 0.11213599 3.04297643 7.52109758 -1.638522 -0.733996 -1.006334
Ga 8.21497933 3.12385266 9.57786556 -0.113465 0.107648 0.124078
Ga 6.35490522 4.67038555 7.47460231 0.617808 0.692839 1.022622
Ga 1.90750321 4.65475679 9.60195181 1.057696 0.408240 -0.384143
O 0.53000983 3.03375898 6.22957244 -0.976771 -0.442695 1.505257
O 7.79797535 3.02340025 10.91857924 1.903395 1.517445 -0.011465
O 6.76782001 4.65485430 6.26258371 0.643632 0.091909 -0.439744
O 1.59693898 4.63776368 10.88378403 -0.019436 -1.103559 -0.360452
O -0.00319893 3.10885192 8.91120018 -0.714749 -0.139619 0.822552
O 8.32069337 3.05904033 8.21882558 1.001928 -0.106671 -0.320680
O 6.17861567 4.70273777 8.85949125 0.035603 -0.014028 0.525746
O 2.04854278 4.60401841 8.28113859 -0.474522 0.145399 0.769739
O -1.70933455 3.13702968 7.15386507 -0.448425 0.180428 -0.475071
O 10.01967521 3.05370612 10.05958867 0.503657 0.367083 0.488196
O 4.49776921 4.64514753 7.20615577 -0.954700 -0.880406 0.797822
O 3.78225770 4.62534320 9.96858987 0.681361 -0.780731 0.240711
Ga 12.54746710 0.02255636 4.57153861 0.288557 -1.232597 -0.393685
Ga 23.57258931 0.03035714 1.18681662 -1.193574 -0.876409 -0.167603
Ga 18.73907394 1.54313098 4.51758985 0.250330 -0.130903 1.956761
Ga 17.28441598 1.47791643 1.17163538 1.177065 -1.455865 0.228486
Ga 13.97192099 -0.04414357 1.80546258 -1.638522 -0.733996 -1.006334
Ga 22.07476433 0.03673266 3.86223056 -0.113465 0.107648 0.124078
Ga 20.21469022 1.58326555 1.75896731 0.617808 0.692839 1.022622
Ga 15.76728821 1.56763679 3.88631681 1.057696 0.408240 -0.384143
O 14.38979483 -0.05336102 0.51393744 -0.976771 -0.442695 1.505257
O 21.65776035 -0.06371975 5.20294424 1.903395 1.517445 -0.011465
O 20.62760501 1.56773430 0.54694871 0.643632 0.091909 -0.439744
O 15.45672398 1.55064368 5.16814903 -0.019436 -1.103559 -0.360452
O 13.85658607 0.02173192 3.19556518 -0.714749 -0.139619 0.822552
O 22.18047837 -0.02807967 2.50319058 1.001928 -0.106671 -0.320680
O 20.03840067 1.61561777 3.14385625 0.035603 -0.014028 0.525746
O 15.90832778 1.51689841 2.56550359 -0.474522 0.145399 0.769739
O 12.15045045 0.04990968 1.43823007 -0.448425 0.180428 -0.475071
O 23.87946021 -0.03341388 4.34395367 0.503657 0.367083 0.488196
O 18.35755421 1.55802753 1.49052077 -0.954700 -0.880406 0.797822
O 17.64204270 1.53822320 4.25295487 0.681361 -0.780731 0.240711
Ga 11.15654310 0.02255636 10.28717361 0.288557 -1.232597 -0.393685
Ga 22.18166531 0.03035714 6.90245162 -1.193574 -0.876409 -0.167603
Ga 17.34814994 1.54313098 10.23322485 0.250330 -0.130903 1.956761
Ga 15.89349198 1.47791643 6.88727038 1.177065 -1.455865 0.228486
Ga 12.58099699 -0.04414357 7.52109758 -1.638522 -0.733996 -1.006334
Ga 20.68384033 0.03673266 9.57786556 -0.113465 0.107648 0.124078
Ga 18.82376622 1.58326555 7.47460231 0.617808 0.692839 1.022622
Ga 14.37636421 1.56763679 9.60195181 1.057696 0.408240 -0.384143
O 12.99887083 -0.05336102 6.22957244 -0.976771 -0.442695 1.505257
O 20.26683635 -0.06371975 10.91857924 1.903395 1.517445 -0.011465
O 19.23668101 1.56773430 6.26258371 0.643632 0.091909 -0.439744
O 14.06579998 1.55064368 10.88378403 -0.019436 -1.103559 -0.360452
O 12.46566207 0.02173192 8.91120018 -0.714749 -0.139619 0.822552
O 20.78955437 -0.02807967 8.21882558 1.001928 -0.106671 -0.320680
O 18.64747667 1.61561777 8.85949125 0.035603 -0.014028 0.525746
O 14.51740378 1.51689841 8.28113859 -0.474522 0.145399 0.769739
O 10.75952645 0.04990968 7.15386507 -0.448425 0.180428 -0.475071
O 22.48853621 -0.03341388 10.05958867 0.503657 0.367083 0.488196
O 16.96663021 1.55802753 7.20615577 -0.954700 -0.880406 0.797822
O 16.25111870 1.53822320 9.96858987 0.681361 -0.780731 0.240711
Ga 12.54746710 3.10967636 4.57153861 0.288557 -1.232597 -0.393685
Ga 23.57258931 3.11747714 1.18681662 -1.193574 -0.876409 -0.167603
Ga 18.73907394 4.63025098 4.51758985 0.250330 -0.130903 1.956761
Ga 17.28441598 4.56503643 1.17163538 1.177065 -1.455865 0.228486
Ga 13.97192099 3.04297643 1.80546258 -1.638522 -0.733996 -1.006334
Ga 22.07476433 3.12385266 3.86223056 -0.113465 0.107648 0.124078
Ga 20.21469022 4.67038555 1.75896731 0.617808 0.692839 1.022622
Ga 15.76728821 4.65475679 3.88631681 1.057696 0.408240 -0.384143
O 14.38979483 3.03375898 0.51393744 -0.976771 -0.442695 1.505257
O 21.65776035 3.02340025 5.20294424 1.903395 1.517445 -0.011465
O 20.62760501 4.65485430 0.54694871 0.643632 0.091909 -0.439744
O 15.45672398 4.63776368 5.16814903 -0.019436 -1.103559 -0.360452
O 13.85658607 3.10885192 3.19556518 -0.714749 -0.139619 0.822552
O 22.18047837 3.05904033 2.50319058 1.001928 -0.106671 -0.320680
O 20.03840067 4.70273777 3.14385625 0.035603 -0.014028 0.525746
O 15.90832778 4.60401841 2.56550359 -0.474522 0.145399 0.769739
O 12.15045045 3.13702968 1.43823007 -0.448425 0.180428 -0.475071
O 23.87946021 3.05370612 4.34395367 0.503657 0.367083 0.488196
O 18.35755421 4.64514753 1.49052077 -0.954700 -0.880406 0.797822
O 17.64204270 4.62534320 4.25295487 0.681361 -0.780731 0.240711
Ga 11.15654310 3.10967636 10.28717361 0.288557 -1.232597 -0.393685
Ga 22.18166531 3.11747714 6.90245162 -1.193574 -0.876409 -0.167603
Ga 17.34814994 4.63025098 10.23322485 0.250330 -0.130903 1.956761
Ga 15.89349198 4.56503643 6.88727038 1.177065 -1.455865 0.228486
Ga 12.58099699 3.04297643 7.52109758 -1.638522 -0.733996 -1.006334
Ga 20.68384033 3.12385266 9.57786556 -0.113465 0.107648 0.124078
Ga 18.82376622 4.67038555 7.47460231 0.617808 0.692839 1.022622
Ga 14.37636421 4.65475679 9.60195181 1.057696 0.408240 -0.384143
O 12.99887083 3.03375898 6.22957244 -0.976771 -0.442695 1.505257
O 20.26683635 3.02340025 10.91857924 1.903395 1.517445 -0.011465
O 19.23668101 4.65485430 6.26258371 0.643632 0.091909 -0.439744
O 14.06579998 4.63776368 10.88378403 -0.019436 -1.103559 -0.360452
O 12.46566207 3.10885192 8.91120018 -0.714749 -0.139619 0.822552
O 20.78955437 3.05904033 8.21882558 1.001928 -0.106671 -0.320680
O 18.64747667 4.70273777 8.85949125 0.035603 -0.014028 0.525746
O 14.51740378 4.60401841 8.28113859 -0.474522 0.145399 0.769739
O 10.75952645 3.13702968 7.15386507 -0.448425 0.180428 -0.475071
O 22.48853621 3.05370612 10.05958867 0.503657 0.367083 0.488196
O 16.96663021 4.64514753 7.20615577 -0.954700 -0.880406 0.797822
O 16.25111870 4.62534320 9.96858987 0.681361 -0.780731 0.240711
159
Lattice="24.462548 0.000000 0.000000 0.000000 6.056593 0.000000 -2.728841 0.000000 11.213452" Properties=species:S:1:pos:R:3:force:R:3 Energy=-628.791820 Virial="13.545163 -19.592484 -28.614081 19.984028 -3.645486 -23.188682 -16.931663 -13.911194 24.517585" pbc="T T T"
Ga 10.85480112 0.05837974 1.08420880 -0.975808 -1.084333 0.347178
Ga 6.15097352 1.51406495 4.47168711 1.161135 0.366859 0.497401
Ga 4.69756258 1.45672355 1.07509698 0.983800 -0.651735 -0.843418
Ga 1.55023434 0.04416197 1.77374141 -0.270724 -1.050751 0.122042
Ga 9.33430802 -0.06492184 3.86762650 -0.352942 0.541384 0.653329
Ga 7.58278511 1.48569636 1.73817143 0.746699 -0.129696 0.943114
Ga 3.23213524 1.48378669 3.84643104 -0.782234 -0.216628 0.705638
O 1.85280026 0.02805492 0.56827513 -0.798794 -0.699903 0.050114
O 8.99352165 0.01850505 5.16440831 1.375875 -0.195093 -0.104481
O 7.94640616 1.46480958 0.55483253 -0.229575 -0.355639 -0.862433
O 2.95140435 1.50372836 5.14876742 -1.043611 0.075301 -1.048950
O 1.35852058 -0.02723549 3.08892547 -0.596897 0.211579 -0.602219
O 9.53736624 -0.03659836 2.48142459 -0.020297 -0.956812 -0.404026
O 7.53363914 1.50187709 3.18111354 2.349032 -0.406848 0.862005
O 3.34797065 1.49279194 2.42188776 0.002767 -0.689049 0.541104
O -0.29744664 0.03120313 1.43832995 -0.102279 0.718053 -0.327850
O 11.21630144 -0.02996717 4.18041793 0.443944 -1.135874 -1.258237
O 5.79417105 1.52861537 1.45547190 1.220550 0.212674 0.419026
O 5.07487895 1.47132453 4.13581438 0.871443 -0.789562 -0.548375
Ga -1.31917876 0.06493586 10.10926252 -0.768418 -1.198820 0.330058
Ga 9.46387712 0.05837974 6.79984380 -0.975808 -1.084333 0.347178
Ga 4.76004952 1.51406495 10.18732211 1.161135 0.366859 0.497401
Ga 3.30663858 1.45672355 6.79073198 0.983800 -0.651735 -0.843418
Ga 0.15931034 0.04416197 7.48937641 -0.270724 -1.050751 0.122042
Ga 7.94338402 -0.06492184 9.58326150 -0.352942 0.541384 0.653329
Ga 6.19186111 1.48569636 7.45380643 0.746699 -0.129696 0.943114
Ga 1.84121124 1.48378669 9.56206604 -0.782234 -0.216628 0.705638
O 0.46187626 0.02805492 6.28391013 -0.798794 -0.699903 0.050114
O 7.60259765 0.01850505 10.88004331 1.375875 -0.195093 -0.104481
O 6.55548216 1.46480958 6.27046753 -0.229575 -0.355639 -0.862433
O 1.56048035 1.50372836 10.86440242 -1.043611 0.075301 -1.048950
O -0.03240342 -0.02723549 8.80456047 -0.596897 0.211579 -0.602219
O 8.14644224 -0.03659836 8.19705959 -0.020297 -0.956812 -0.404026
O 6.14271514 1.50187709 8.89674854 2.349032 -0.406848 0.862005
O 1.95704665 1.49279194 8.13752276 0.002767 -0.689049 0.541104
O -1.68837064 0.03120313 7.15396495 -0.102279 0.718053 -0.327850
O 9.82537744 -0.02996717 9.89605293 0.443944 -1.135874 -1.258237
O 4.40324705 1.52861537 7.17110690 1.220550 0.212674 0.419026
O 3.68395495 1.47132453 9.85144938 0.871443 -0.789562 -0.548375
Ga 0.07174524 3.15205586 4.39362752 -0.768418 -1.198820 0.330058
Ga 10.85480112 3.14549974 1.08420880 -0.975808 -1.084333 0.347178
Ga 6.15097352 4.60118495 4.47168711 1.161135 0.366859 0.497401
Ga 4.69756258 4.54384355 1.07509698 0.983800 -0.651735 -0.843418
Ga 1.55023434 3.13128197 1.77374141 -0.270724 -1.050751 0.122042
Ga 9.33430802 3.02219816 3.86762650 -0.352942 0.541384 0.653329
Ga 7.58278511 4.57281636 1.73817143 0.746699 -0.129696 0.943114
Ga 3.23213524 4.57090669 3.84643104 -0.782234 -0.216628 0.705638
O 1.85280026 3.11517492 0.56827513 -0.798794 -0.699903 0.050114
O 8.99352165 3.10562505 5.16440831 1.375875 -0.195093 -0.104481
O 7.94640616 4.55192958 0.55483253 -0.229575 -0.355639 -0.862433
O 2.95140435 4.59084836 5.14876742 -1.043611 0.075301 -1.048950
O 1.35852058 3.05988451 3.08892547 -0.596897 0.211579 -0.602219
O 9.53736624 3.05052164 2.48142459 -0.020297 -0.956812 -0.404026
O 7.53363914 4.58899709 3.18111354 2.349032 -0.406848 0.862005
O 3.34797065 4.57991194 2.42188776 0.002767 -0.689049 0.541104
O -0.29744664 3.11832313 1.43832995 -0.102279 0.718053 -0.327850
O 11.21630144 3.05715283 4.18041793 0.443944 -1.135874 -1.258237
O 5.79417105 4.61573537 1.45547190 1.220550 0.212674 0.419026
O 5.07487895 4.55844453 4.13581438 0.871443 -0.789562 -0.548375
Ga -1.31917876 3.15205586 10.10926252 -0.768418 -1.198820 0.330058
Ga 9.46387712 3.14549974 6.79984380 -0.975808 -1.084333 0.347178
Ga 4.76004952 4.60118495 10.18732211 1.161135 0.366859 0.497401
Ga 3.30663858 4.54384355 6.79073198 0.983800 -0.651735 -0.843418
Ga 0.15931034 3.13128197 7.48937641 -0.270724 -1.050751 0.122042
Ga 7.94338402 3.02219816 9.58326150 -0.352942 0.541384 0.653329
Ga 6.19186111 4.57281636 7.45380643 0.746699 -0.129696 0.943114
Ga 1.84121124 4.57090669 9.56206604 -0.782234 -0.216628 0.705638
O 0.46187626 3.11517492 6.28391013 -0.798794 -0.699903 0.050114
O 7.60259765 3.10562505 10.88004331 1.375875 -0.195093 -0.104481
O 6.55548216 4.55192958 6.27046753 -0.229575 -0.355639 -0.862433
O 1.56048035 4.59084836 10.86440242 -1.043611 0.075301 -1.048950
O -0.03240342 3.05988451 8.80456047 -0.596897 0.211579 -0.602219
O 8.14644224 3.05052164 8.19705959 -0.020297 -0.956812 -0.404026
O 6.14271514 4.58899709 8.89674854 2.349032 -0.406848 0.862005
O 1.95704665 4.57991194 8.13752276 0.002767 -0.689049 0.541104
O -1.68837064 3.11832313 7.15396495 -0.102279 0.718053 -0.327850
O 9.82537744 3.05715283 9.89605293 0.443944 -1.135874 -1.258237
O 4.40324705 4.61573537 7.17110690 1.220550 0.212674 0.419026
O 3.68395495 4.55844453 9.85144938 0.871443 -0.789562 -0.548375
Ga 12.54060624 0.06493586 4.39362752 -0.768418 -1.198820 0.330058
Ga 23.32366212 0.05837974 1.08420880 -0.975808 -1.084333 0.347178
Ga 18.61983452 1.51406495 4.47168711 1.161135 0.366859 0.497401
Ga 17.16642358 1.45672355 1.07509698 0.983800 -0.651735 -0.843418
Ga 14.01909534 0.04416197 1.77374141 -0.270724 -1.050751 0.122042
Ga 21.80316902 -0.06492184 3.86762650 -0.352942 0.541384 0.653329
Ga 20.05164611 1.48569636 1.73817143 0.746699 -0.129696 0.943114
Ga 15.70099624 1.48378669 3.84643104 -0.782234 -0.216628 0.705638
O 14.32166126 0.02805492 0.56827513 -0.798794 -0.699903 0.050114
O 21.46238265 0.01850505 5.16440831 1.375875 -0.195093 -0.104481
O 20.41526716 1.46480958 0.55483253 -0.229575 -0.355639 -0.862433
O 15.42026535 1.50372836 5.14876742 -1.043611 0.075301 -1.048950
O 13.82738158 -0.02723549 3.08892547 -0.596897 0.211579 -0.602219
O 22.00622724 -0.03659836 2.48142459 -0.020297 -0.956812 -0.404026
O 20.00250014 1.50187709 3.18111354 2.349032 -0.406848 0.862005
O 15.81683165 1.49279194 2.42188776 0.002767 -0.689049 0.541104
O 12.17141436 0.03120313 1.43832995 -0.102279 0.718053 -0.327850
O 23.68516244 -0.02996717 4.18041793 0.443944 -1.135874 -1.258237
O 18.26303205 1.52861537 1.45547190 1.220550 0.212674 0.419026
O 17.54373995 1.47132453 4.13581438 0.871443 -0.789562 -0.548375
Ga 11.14968224 0.06493586 10.10926252 -0.768418 -1.198820 0.330058
Ga 21.93273812 0.05837974 6.79984380 -0.975808 -1.084333 0.347178
Ga 17.22891052 1.51406495 10.18732211 1.161135 0.366859 0.497401
Ga 15.77549958 1.45672355 6.79073198 0.983800 -0.651735 -0.843418
Ga 12.62817134 0.04416197 7.48937641 -0.270724 -1.050751 0.122042
Ga 20.41224502 -0.06492184 9.58326150 -0.352942 0.541384 0.653329
Ga 18.66072211 1.48569636 7.45380643 0.746699 -0.129696 0.943114
Ga 14.31007224 1.48378669 9.56206604 -0.782234 -0.216628 0.705638
O 12.93073726 0.02805492 6.28391013 -0.798794 -0.699903 0.050114
O 20.07145865 0.01850505 10.88004331 1.375875 -0.195093 -0.104481
O 19.02434316 1.46480958 6.27046753 -0.229575 -0.355639 -0.862433
O 14.02934135 1.50372836 10.86440242 -1.043611 0.075301 -1.048950
O 12.43645758 -0.02723549 8.80456047 -0.596897 0.211579 -0.602219
O 20.61530324 -0.03659836 8.19705959 -0.020297 -0.956812 -0.404026
O 18.61157614 1.50187709 8.89674854 2.349032 -0.406848 0.862005
O 14.42590765 1.49279194 8.13752276 0.002767 -0.689049 0.541104
O 10.78049036 0.03120313 7.15396495 -0.102279 0.718053 -0.327850
O 22.29423844 -0.02996717 9.89605293 0.443944 -1.135874 -1.258237
O 16.87210805 1.52861537 7.17110690 1.220550 0.212674 0.419026
O 16.15281595 1.47132453 9.85144938 0.871443 -0.789562 -0.548375
Ga 12.54060624 3.15205586 4.39362752 -0.768418 -1.198820 0.330058
Ga 23.32366212 3.14549974 1.08420880 -0.975808 -1.084333 0.347178
Ga 18.61983452 4.60118495 4.47168711 1.161135 0.366859 0.497401
Ga 17.16642358 4.54384355 1.07509698 0.983800 -0.651735 -0.843418
Ga 14.01909534 3.13128197 1.77374141 -0.270724 -1.050751 0.122042
Ga 21.80316902 3.02219816 3.86762650 -0.352942 0.541384 0.653329
Ga 20.05164611 4.57281636 1.73817143 0.746699 -0.129696 0.943114
Ga 15.70099624 4.57090669 3.84643104 -0.782234 -0.216628 0.705638
O 14.32166126 3.11517492 0.56827513 -0.798794 -0.699903 0.050114
O 21.46238265 3.10562505 5.16440831 1.375875 -0.195093 -0.104481
O 20.41526716 4.55192958 0.55483253 -0.229575 -0.355639 -0.862433
O 15.42026535 4.59084836 5.14876742 -1.043611 0.075301 -1.048950
O 13.82738158 3.05988451 3.08892547 -0.596897 0.211579 -0.602219
O 22.00622724 3.05052164 2.48142459 -0.020297 -0.956812 -0.404026
O 20.00250014 4.58899709 3.18111354 2.349032 -0.406848 0.862005
O 15.81683165 4.57991194 2.42188776 0.002767 -0.689049 0.541104
O 12.17141436 3.11832313 1.43832995 -0.102279 0.718053 -0.327850
O 23.68516244 3.05715283 4.18041793 0.443944 -1.135874 -1.258237
O 18.26303205 4.61573537 1.45547190 1.220550 0.212674 0.419026
O 17.54373995 4.55844453 4.13581438 0.871443 -0.789562 -0.548375
Ga 11.14968224 3.15205586 10.10926252 -0.768418 -1.198820 0.330058
Ga 21.93273812 3.14549974 6.79984380 -0.975808 -1.084333 0.347178
Ga 17.22891052 4.60118495 10.18732211 1.161135 0.366859 0.497401
Ga 15.77549958 4.54384355 6.79073198 0.983800 -0.651735 -0.843418
Ga 12.62817134 3.13128197 7.48937641 -0.270724 -1.050751 0.122042
Ga 20.41224502 3.02219816 9.58326150 -0.352942 0.541384 0.653329
Ga 18.66072211 4.57281636 7.45380643 0.746699 -0.129696 0.943114
Ga 14.31007224 4.57090669 9.56206604 -0.782234 -0.216628 0.705638
O 12.93073726 3.11517492 6.28391013 -0.798794 -0.699903 0.050114
O 20.07145865 3.10562505 10.88004331 1.375875 -0.195093 -0.104481
O 19.02434316 4.55192958 6.27046753 -0.229575 -0.355639 -0.862433
O 14.02934135 4.59084836 10.86440242 -1.043611 0.075301 -1.048950
O 12.43645758 3.05988451 8.80456047 -0.596897 0.211579 -0.602219
O 20.61530324 3.05052164 8.19705959 -0.020297 -0.956812 -0.404026
O 18.61157614 4.58899709 8.89674854 2.349032 -0.406848 0.862005
O 14.42590765 4.57991194 8.13752276 0.002767 -0.689049 0.541104
O 10.78049036 3.11832313 7.15396495 -0.102279 0.718053 -0.327850
O 22.29423844 3.05715283 9.89605293 0.443944 -1.135874 -1.258237
O 16.87210805 4.61573537 7.17110690 1.220550 0.212674 0.419026
O 16.15281595 4.55844453 9.85144938 0.871443 -0.789562 -0.548375
159
Lattice="24.798208 0.000000 0.000000 0.000000 6.139698 0.000000 -2.766285 0.000000 11.367316" Properties=species:S:1:pos:R:3:force:R:3 Energy=-630.510959 Virial="7.940251 10.870838 -3.020496 -3.321559 -6.509497 -6.062751 -22.629229 -5.878152 20.769484" pbc="T T T"
Ga 10.90677119 0.01554314 1.26714304 -0.649427 -0.413658 -0.226022
Ga 6.22238256 1.56846412 4.51950875 -1.959625 -0.104565 -0.029447
Ga 4.78938002 1.57168755 1.15581207 -0.071161 -0.466369 0.087676
Ga 1.54261011 0.01286791 1.75908240 0.690508 -1.163618 -0.325420
Ga 9.52372827 -0.00699839 3.86762280 -1.499485 0.185109 0.523798
Ga 7.75292702 1.49898577 1.78693327 -1.881064 -0.776830 -0.738150
Ga 3.28412961 1.57836031 3.91684054 -0.888874 0.656252 -0.098153
O 1.90243615 0.03271065 0.58987252 0.862154 -0.397430 1.414571
O 9.13483618 0.00041410 5.09692096 0.417845 0.766911 -0.133059
O 8.06038488 1.52271550 0.50988373 1.147276 -1.275921 0.423654
O 2.90549272 1.53719048 5.17058212 0.501415 0.031166 0.695656
O 1.37043111 0.01946007 3.17406016 -0.130531 1.029496 -0.395892
O 9.56369127 -0.03757342 2.50641394 0.831898 -1.419888 -0.589281
O 7.52441548 1.55892164 3.23271122 1.114524 1.175470 -0.026799
O 3.49190820 1.52638677 2.57180649 0.345028 -0.437254 0.261767
O -0.29854125 -0.01348344 1.43048094 0.653118 0.330045 -0.245272
O 11.30835015 -0.01552707 4.23545823 -0.539992 -1.328538 -0.334793
O 5.90148622 1.53504633 1.47249457 -0.244302 1.221463 0.019775
O 5.16852358 1.57290665 4.16924566 1.236308 -0.609887 -0.280714
Ga -1.44129803 0.02031965 10.18773591 -0.010870 -0.285593 0.624086
Ga 9.51584719 0.01554314 6.98277804 -0.649427 -0.413658 -0.226022
Ga 4.83145856 1.56846412 10.23514375 -1.959625 -0.104565 -0.029447
Ga 3.39845602 1.57168755 6.87144707 -0.071161 -0.466369 0.087676
Ga 0.15168611 0.01286791 7.47471740 0.690508 -1.163618 -0.325420
Ga 8.13280427 -0.00699839 9.58325780 -1.499485 0.185109 0.523798
Ga 6.36200302 1.49898577 7.50256827 -1.881064 -0.776830 -0.738150
Ga 1.89320561 1.57836031 9.63247554 -0.888874 0.656252 -0.098153
O 0.51151215 0.03271065 6.30550752 0.862154 -0.397430 1.414571
O 7.74391218 0.00041410 10.81255596 0.417845 0.766911 -0.133059
O 6.66946088 1.52271550 6.22551873 1.147276 -1.275921 0.423654
O 1.51456872 1.53719048 10.88621712 0.501415 0.031166 0.695656
O -0.02049289 0.01946007 8.88969516 -0.130531 1.029496 -0.395892
O 8.17276727 -0.03757342 8.22204894 0.831898 -1.419888 -0.589281
O 6.13349148 1.55892164 8.94834622 1.114524 1.175470 -0.026799
O 2.10098420 1.52638677 8.28744149 0.345028 -0.437254 0.261767
O -1.68946525 -0.01348344 7.14611594 0.653118 0.330045 -0.245272
O 9.91742615 -0.01552707 9.95109323 -0.539992 -1.328538 -0.334793
O 4.51056222 1.53504633 7.18812957 -0.244302 1.221463 0.019775
O 3.77759958 1.57290665 9.88488066 1.236308 -0.609887 -0.280714
Ga -0.05037403 3.10743965 4.47210091 -0.010870 -0.285593 0.624086
Ga 10.90677119 3.10266314 1.26714304 -0.649427 -0.413658 -0.226022
Ga 6.22238256 4.65558412 4.51950875 -1.959625 -0.104565 -0.029447
Ga 4.78938002 4.65880755 1.15581207 -0.071161 -0.466369 0.087676
Ga 1.54261011 3.09998791 1.75908240 0.690508 -1.163618 -0.325420
Ga 9.52372827 3.08012161 3.86762280 -1.499485 0.185109 0.523798
Ga 7.75292702 4.58610577 1.78693327 -1.881064 -0.776830 -0.738150
Ga 3.28412961 4.66548031 3.91684054 -0.888874 0.656252 -0.098153
O 1.90243615 3.11983065 0.58987252 0.862154 -0.397430 1.414571
O 9.13483618 3.08753410 5.09692096 0.417845 0.766911 -0.133059
O 8.06038488 4.60983550 0.50988373 1.147276 -1.275921 0.423654
O 2.90549272 4.62431048 5.17058212 0.501415 0.031166 0.695656
O 1.37043111 3.10658007 3.17406016 -0.130531 1.029496 -0.395892
O 9.56369127 3.04954658 2.50641394 0.831898 -1.419888 -0.589281
O 7.52441548 4.64604164 3.23271122 1.114524 1.175470 -0.026799
O 3.49190820 4.61350677 2.57180649 0.345028 -0.437254 0.261767
O -0.29854125 3.07363656 1.43048094 0.653118 0.330045 -0.245272
O 11.30835015 3.07159293 4.23545823 -0.539992 -1.328538 -0.334793
O 5.90148622 4.62216633 1.47249457 -0.244302 1.221463 0.019775
O 5.16852358 4.66002665 4.16924566 1.236308 -0.609887 -0.280714
Ga -1.44129803 3.10743965 10.18773591 -0.010870 -0.285593 0.624086
Ga 9.51584719 3.10266314 6.98277804 -0.649427 -0.413658 -0.226022
Ga 4.83145856 4.65558412 10.23514375 -1.959625 -0.104565 -0.029447
Ga 3.39845602 4.65880755 6.87144707 -0.071161 -0.466369 0.087676
Ga 0.15168611 3.09998791 7.47471740 0.690508 -1.163618 -0.325420
Ga 8.13280427 3.08012161 9.58325780 -1.499485 0.185109 0.523798
Ga 6.36200302 4.58610577 7.50256827 -1.881064 -0.776830 -0.738150
Ga 1.89320561 4.66548031 9.63247554 -0.888874 0.656252 -0.098153
O 0.51151215 3.11983065 6.30550752 0.862154 -0.397430 1.414571
O 7.74391218 3.08753410 10.81255596 0.417845 0.766911 -0.133059
O 6.66946088 4.60983550 6.22551873 1.147276 -1.275921 0.423654
O 1.51456872 4.62431048 10.88621712 0.501415 0.031166 0.695656
O -0.02049289 3.10658007 8.88969516 -0.130531 1.029496 -0.395892
O 8.17276727 3.04954658 8.22204894 0.831898 -1.419888 -0.589281
O 6.13349148 4.64604164 8.94834622 1.114524 1.175470 -0.026799
O 2.10098420 4.61350677 8.28744149 0.345028 -0.437254 0.261767
O -1.68946525 3.07363656 7.14611594 0.653118 0.330045 -0.245272
O 9.91742615 3.07159293 9.95109323 -0.539992 -1.328538 -0.334793
O 4.51056222 4.62216633 7.18812957 -0.244302 1.221463 0.019775
O 3.77759958 4.66002665 9.88488066 1.236308 -0.609887 -0.280714
Ga 12.41848697 0.02031965 4.47210091 -0.010870 -0.285593 0.624086
Ga 23.37563219 0.01554314 1.26714304 -0.649427 -0.413658 -0.226022
Ga 18.69124356 1.56846412 4.51950875 -1.959625 -0.104565 -0.029447
Ga 17.25824102 1.57168755 1.15581207 -0.071161 -0.466369 0.087676
Ga 14.01147111 0.01286791 1.75908240 0.690508 -1.163618 -0.325420
Ga 21.99258927 -0.00699839 3.86762280 -1.499485 0.185109 0.523798
Ga 20.22178802 1.49898577 1.78693327 -1.881064 -0.776830 -0.738150
Ga 15.75299061 1.57836031 3.91684054 -0.888874 0.656252 -0.098153
O 14.37129715 0.03271065 0.58987252 0.862154 -0.397430 1.414571
O 21.60369718 0.00041410 5.09692096 0.417845 0.766911 -0.133059
O 20.52924588 1.52271550 0.50988373 1.147276 -1.275921 0.423654
O 15.37435372 1.53719048 5.17058212 0.501415 0.031166 0.695656
O 13.83929211 0.01946007 3.17406016 -0.130531 1.029496 -0.395892
O 22.03255227 -0.03757342 2.50641394 0.831898 -1.419888 -0.589281
O 19.99327648 1.55892164 3.23271122 1.114524 1.175470 -0.026799
O 15.96076920 1.52638677 2.57180649 0.345028 -0.437254 0.261767
O 12.17031975 -0.01348344 1.43048094 0.653118 0.330045 -0.245272
O 23.77721115 -0.01552707 4.23545823 -0.539992 -1.328538 -0.334793
O 18.37034722 1.53504633 1.47249457 -0.244302 1.221463 0.019775
O 17.63738458 1.57290665 4.16924566 1.236308 -0.609887 -0.280714
Ga 11.02756297 0.02031965 10.18773591 -0.010870 -0.285593 0.624086
Ga 21.98470819 0.01554314 6.98277804 -0.649427 -0.413658 -0.226022
Ga 17.30031956 1.56846412 10.23514375 -1.959625 -0.104565 -0.029447
Ga 15.86731702 1.57168755 6.87144707 -0.071161 -0.466369 0.087676
Ga 12.62054711 0.01286791 7.47471740 0.690508 -1.163618 -0.325420
Ga 20.60166527 -0.00699839 9.58325780 -1.499485 0.185109 0.523798
Ga 18.83086402 1.49898577 7.50256827 -1.881064 -0.776830 -0.738150
Ga 14.36206661 1.57836031 9.63247554 -0.888874 0.656252 -0.098153
O 12.98037315 0.03271065 6.30550752 0.862154 -0.397430 1.414571
O 20.21277318 0.00041410 10.81255596 0.417845 0.766911 -0.133059
O 19.13832188 1.52271550 6.22551873 1.147276 -1.275921 0.423654
O 13.98342972 1.53719048 10.88621712 0.501415 0.031166 0.695656
O 12.44836811 0.01946007 8.88969516 -0.130531 1.029496 -0.395892
O 20.64162827 -0.03757342 8.22204894 0.831898 -1.419888 -0.589281
O 18.60235248 1.55892164 8.94834622 1.114524 1.175470 -0.026799
O 14.56984520 1.52638677 8.28744149 0.345028 -0.437254 0.261767
O 10.77939575 -0.01348344 7.14611594 0.653118 0.330045 -0.245272
O 22.38628715 -0.01552707 9.95109323 -0.539992 -1.328538 -0.334793
O 16.97942322 1.53504633 7.18812957 -0.244302 1.221463 0.019775
O 16.24646058 1.57290665 9.88488066 1.236308 -0.609887 -0.280714
Ga 12.41848697 3.10743965 4.47210091 -0.010870 -0.285593 0.624086
Ga 23.37563219 3.10266314 1.26714304 -0.649427 -0.413658 -0.226022
Ga 18.69124356 4.65558412 4.51950875 -1.959625 -0.104565 -0.029447
Ga 17.25824102 4.65880755 1.15581207 -0.071161 -0.466369 0.087676
Ga 14.01147111 3.09998791 1.75908240 0.690508 -1.163618 -0.325420
Ga 21.99258927 3.08012161 3.86762280 -1.499485 0.185109 0.523798
Ga 20.22178802 4.58610577 1.78693327 -1.881064 -0.776830 -0.738150
Ga 15.75299061 4.66548031 3.91684054 -0.888874 0.656252 -0.098153
O 14.37129715 3.11983065 0.58987252 0.862154 -0.397430 1.414571
O 21.60369718 3.08753410 5.09692096 0.417845 0.766911 -0.133059
O 20.52924588 4.60983550 0.50988373 1.147276 -1.275921 0.423654
O 15.37435372 4.62431048 5.17058212 0.501415 0.031166 0.695656
O 13.83929211 3.10658007 3.17406016 -0.130531 1.029496 -0.395892
O 22.03255227 3.04954658 2.50641394 0.831898 -1.419888 -0.589281
O 19.99327648 4.64604164 3.23271122 1.114524 1.175470 -0.026799
O 15.96076920 4.61350677 2.57180649 0.345028 -0.437254 0.261767
O 12.17031975 3.07363656 1.43048094 0.653118 0.330045 -0.245272
O 23.77721115 3.07159293 4.23545823 -0.539992 -1.328538 -0.334793
O 18.37034722 4.62216633 1.47249457 -0.244302 1.221463 0.019775
O 17.63738458 4.66002665 4.16924566 1.236308 -0.609887 -0.280714
Ga 11.02756297 3.10743965 10.18773591 -0.010870 -0.285593 0.624086
Ga 21.98470819 3.10266314 6.98277804 -0.649427 -0.413658 -0.226022
Ga 17.30031956 4.65558412 10.23514375 -1.959625 -0.104565 -0.029447
Ga 15.86731702 4.65880755 6.87144707 -0.071161 -0.466369 0.087676
Ga 12.62054711 3.09998791 7.47471740 0.690508 -1.163618 -0.325420
Ga 20.60166527 3.08012161 9.58325780 -1.499485 0.185109 0.523798
Ga 18.83086402 4.58610577 7.50256827 -1.881064 -0.776830 -0.738150
Ga 14.36206661 4.66548031 9.63247554 -0.888874 0.656252 -0.098153
O 12.98037315 3.11983065 6.30550752 0.862154 -0.397430 1.414571
O 20.21277318 3.08753410 10.81255596 0.417845 0.766911 -0.133059
O 19.13832188 4.60983550 6.22551873 1.147276 -1.275921 0.423654
O 13.98342972 4.62431048 10.88621712 0.501415 0.031166 0.695656
O 12.44836811 3.10658007 8.88969516 -0.130531 1.029496 -0.395892
O 20.64162827 3.04954658 8.22204894 0.831898 -1.419888 -0.589281
O 18.60235248 4.64604164 8.94834622 1.114524 1.175470 -0.026799
O 14.56984520 4.61350677 8.28744149 0.345028 -0.437254 0.261767
O 10.77939575 3.07363656 7.14611594 0.653118 0.330045 -0.245272
O 22.38628715 3.07159293 9.95109323 -0.539992 -1.328538 -0.334793
O 16.97942322 4.62216633 7.18812957 -0.244302 1.221463 0.019775
O 16.24646058 4.66002665 9.88488066 1.236308 -0.609887 -0.280714
159
Lattice="24.964697 0.000000 0.000000 0.000000 6.180918 0.000000 -2.784857 0.000000 11.443634" Properties=species:S:1:pos:R:3:force:R:3 Energy=-629.350919 Virial="14.538016 -9.939073 -12.379994 -26.337556 -35.755789 20.155413 5.186186 13.312972 0.331582" pbc="T T T"
Ga 11.10626522 -0.02028432 1.12841918 0.676268 -1.237748 0.228291
Ga 6.31271500 1.53256360 4.58170225 -0.720439 0.361051 1.347221
Ga 4.85600486 1.54403399 1.16828831 0.615957 0.215675 0.085344
Ga 1.52653674 -0.00060773 1.83231951 -0.276346 -0.908104 -1.408797
Ga 9.51586261 0.00435383 3.87927661 1.084116 0.760541 0.330371
Ga 7.74360961 1.54399204 1.71938918 -0.147907 -0.471935 -0.032176
Ga 3.38896803 1.49750721 3.92241833 1.392905 0.879241 0.321920
O 1.96294516 -0.03451621 0.44574326 -0.850079 -0.503003 0.915954
O 9.15590526 -0.03499282 5.09291128 -0.622971 -1.065391 0.102692
O 8.16878657 1.55351336 0.58354420 0.294983 0.222676 -1.131309
O 2.88769567 1.48126415 5.16769730 0.048238 1.111779 0.700311
O 1.37893704 0.03685398 3.24919648 0.154771 -0.968771 1.737619
O 9.75602797 0.01106175 2.56102358 0.093674 0.596602 0.942132
O 7.59802553 1.55196541 3.14512215 0.296336 1.126915 -1.205699
O 3.46878169 1.54877547 2.59792875 0.114884 -0.537971 -1.054765
O -0.31569152 0.00360171 1.47426414 0.480248 -0.098760 0.961518
O 11.37825894 -0.03209971 4.30898413 1.463797 0.533288 -0.422369
O 5.89540462 1.49211288 1.49199630 0.413360 0.019968 -0.385603
O 5.20159082 1.52717322 4.23958954 0.958690 -0.515902 -0.873401
Ga -1.40945381 -0.00835842 10.25705121 0.548431 -0.482041 0.272616
Ga 9.71534122 -0.02028432 6.84405418 0.676268 -1.237748 0.228291
Ga 4.92179100 1.53256360 10.29733725 -0.720439 0.361051 1.347221
Ga 3.46508086 1.54403399 6.88392331 0.615957 0.215675 0.085344
Ga 0.13561274 -0.00060773 7.54795451 -0.276346 -0.908104 -1.408797
Ga 8.12493861 0.00435383 9.59491161 1.084116 0.760541 0.330371
Ga 6.35268561 1.54399204 7.43502418 -0.147907 -0.471935 -0.032176
Ga 1.99804403 1.49750721 9.63805333 1.392905 0.879241 0.321920
O 0.57202116 -0.03451621 6.16137826 -0.850079 -0.503003 0.915954
O 7.76498126 -0.03499282 10.80854628 -0.622971 -1.065391 0.102692
O 6.77786257 1.55351336 6.29917920 0.294983 0.222676 -1.131309
O 1.49677167 1.48126415 10.88333230 0.048238 1.111779 0.700311
O -0.01198696 0.03685398 8.96483148 0.154771 -0.968771 1.737619
O 8.36510397 0.01106175 8.27665858 0.093674 0.596602 0.942132
O 6.20710153 1.55196541 8.86075715 0.296336 1.126915 -1.205699
O 2.07785769 1.54877547 8.31356375 0.114884 -0.537971 -1.054765
O -1.70661552 0.00360171 7.18989914 0.480248 -0.098760 0.961518
O 9.98733494 -0.03209971 10.02461913 1.463797 0.533288 -0.422369
O 4.50448062 1.49211288 7.20763130 0.413360 0.019968 -0.385603
O 3.81066682 1.52717322 9.95522454 0.958690 -0.515902 -0.873401
Ga -0.01852981 3.07876158 4.54141621 0.548431 -0.482041 0.272616
Ga 11.10626522 3.06683568 1.12841918 0.676268 -1.237748 0.228291
Ga 6.31271500 4.61968360 4.58170225 -0.720439 0.361051 1.347221
Ga 4.85600486 4.63115399 1.16828831 0.615957 0.215675 0.085344
Ga 1.52653674 3.08651227 1.83231951 -0.276346 -0.908104 -1.408797
Ga 9.51586261 3.09147383 3.87927661 1.084116 0.760541 0.330371
Ga 7.74360961 4.63111204 1.71938918 -0.147907 -0.471935 -0.032176
Ga 3.38896803 4.58462721 3.92241833 1.392905 0.879241 0.321920
O 1.96294516 3.05260379 0.44574326 -0.850079 -0.503003 0.915954
O 9.15590526 3.05212718 5.09291128 -0.622971 -1.065391 0.102692
O 8.16878657 4.64063336 0.58354420 0.294983 0.222676 -1.131309
O 2.88769567 4.56838415 5.16769730 0.048238 1.111779 0.700311
O 1.37893704 3.12397398 3.24919648 0.154771 -0.968771 1.737619
O 9.75602797 3.09818175 2.56102358 0.093674 0.596602 0.942132
O 7.59802553 4.63908541 3.14512215 0.296336 1.126915 -1.205699
O 3.46878169 4.63589547 2.59792875 0.114884 -0.537971 -1.054765
O -0.31569152 3.09072171 1.47426414 0.480248 -0.098760 0.961518
O 11.37825894 3.05502029 4.30898413 1.463797 0.533288 -0.422369
O 5.89540462 4.57923288 1.49199630 0.413360 0.019968 -0.385603
O 5.20159082 4.61429322 4.23958954 0.958690 -0.515902 -0.873401
Ga -1.40945381 3.07876158 10.25705121 0.548431 -0.482041 0.272616
Ga 9.71534122 3.06683568 6.84405418 0.676268 -1.237748 0.228291
Ga 4.92179100 4.61968360 10.29733725 -0.720439 0.361051 1.347221
Ga 3.46508086 4.63115399 6.88392331 0.615957 0.215675 0.085344
Ga 0.13561274 3.08651227 7.54795451 -0.276346 -0.908104 -1.408797
Ga 8.12493861 3.09147383 9.59491161 1.084116 0.760541 0.330371
Ga 6.35268561 4.63111204 7.43502418 -0.147907 -0.471935 -0.032176
Ga 1.99804403 4.58462721 9.63805333 1.392905 0.879241 0.321920
O 0.57202116 3.05260379 6.16137826 -0.850079 -0.503003 0.915954
O 7.76498126 3.05212718 10.80854628 -0.622971 -1.065391 0.102692
O 6.77786257 4.64063336 6.29917920 0.294983 0.222676 -1.131309
O 1.49677167 4.56838415 10.88333230 0.048238 1.111779 0.700311
O -0.01198696 3.12397398 8.96483148 0.154771 -0.968771 1.737619
O 8.36510397 3.09818175 8.27665858 0.093674 0.596602 0.942132
O 6.20710153 4.63908541 8.86075715 0.296336 1.126915 -1.205699
O 2.07785769 4.63589547 8.31356375 0.114884 -0.537971 -1.054765
O -1.70661552 3.09072171 7.18989914 0.480248 -0.098760 0.961518
O 9.98733494 3.05502029 10.02461913 1.463797 0.533288 -0.422369
O 4.50448062 4.57923288 7.20763130 0.413360 0.019968 -0.385603
O 3.81066682 4.61429322 9.95522454 0.958690 -0.515902 -0.873401
Ga 12.45033119 -0.00835842 4.54141621 0.548431 -0.482041 0.272616
Ga 23.57512622 -0.02028432 1.12841918 0.676268 -1.237748 0.228291
Ga 18.78157600 1.53256360 4.58170225 -0.720439 0.361051 1.347221
Ga 17.32486586 1.54403399 1.16828831 0.615957 0.215675 0.085344
Ga 13.99539774 -0.00060773 1.83231951 -0.276346 -0.908104 -1.408797
Ga 21.98472361 0.00435383 3.87927661 1.084116 0.760541 0.330371
Ga 20.21247061 1.54399204 1.71938918 -0.147907 -0.471935 -0.032176
Ga 15.85782903 1.49750721 3.92241833 1.392905 0.879241 0.321920
O 14.43180616 -0.03451621 0.44574326 -0.850079 -0.503003 0.915954
O 21.62476626 -0.03499282 5.09291128 -0.622971 -1.065391 0.102692
O 20.63764757 1.55351336 0.58354420 0.294983 0.222676 -1.131309
O 15.35655667 1.48126415 5.16769730 0.048238 1.111779 0.700311
O 13.84779804 0.03685398 3.24919648 0.154771 -0.968771 1.737619
O 22.22488897 0.01106175 2.56102358 0.093674 0.596602 0.942132
O 20.06688653 1.55196541 3.14512215 0.296336 1.126915 -1.205699
O 15.93764269 1.54877547 2.59792875 0.114884 -0.537971 -1.054765
O 12.15316948 0.00360171 1.47426414 0.480248 -0.098760 0.961518
O 23.84711994 -0.03209971 4.30898413 1.463797 0.533288 -0.422369
O 18.36426562 1.49211288 1.49199630 0.413360 0.019968 -0.385603
O 17.67045182 1.52717322 4.23958954 0.958690 -0.515902 -0.873401
Ga 11.05940719 -0.00835842 10.25705121 0.548431 -0.482041 0.272616
Ga 22.18420222 -0.02028432 6.84405418 0.676268 -1.237748 0.228291
Ga 17.39065200 1.53256360 10.29733725 -0.720439 0.361051 1.347221
Ga 15.93394186 1.54403399 6.88392331 0.615957 0.215675 0.085344
Ga 12.60447374 -0.00060773 7.54795451 -0.276346 -0.908104 -1.408797
Ga 20.59379961 0.00435383 9.59491161 1.084116 0.760541 0.330371
Ga 18.82154661 1.54399204 7.43502418 -0.147907 -0.471935 -0.032176
Ga 14.46690503 1.49750721 9.63805333 1.392905 0.879241 0.321920
O 13.04088216 -0.03451621 6.16137826 -0.850079 -0.503003 0.915954
O 20.23384226 -0.03499282 10.80854628 -0.622971 -1.065391 0.102692
O 19.24672357 1.55351336 6.29917920 0.294983 0.222676 -1.131309
O 13.96563267 1.48126415 10.88333230 0.048238 1.111779 0.700311
O 12.45687404 0.03685398 8.96483148 0.154771 -0.968771 1.737619
O 20.83396497 0.01106175 8.27665858 0.093674 0.596602 0.942132
O 18.67596253 1.55196541 8.86075715 0.296336 1.126915 -1.205699
O 14.54671869 1.54877547 8.31356375 0.114884 -0.537971 -1.054765
O 10.76224548 0.00360171 7.18989914 0.480248 -0.098760 0.961518
O 22.45619594 -0.03209971 10.02461913 1.463797 0.533288 -0.422369
O 16.97334162 1.49211288 7.20763130 0.413360 0.019968 -0.385603
O 16.27952782 1.52717322 9.95522454 0.958690 -0.515902 -0.873401
Ga 12.45033119 3.07876158 4.54141621 0.548431 -0.482041 0.272616
Ga 23.57512622 3.06683568 1.12841918 0.676268 -1.237748 0.228291
Ga 18.78157600 4.61968360 4.58170225 -0.720439 0.361051 1.347221
Ga 17.32486586 4.63115399 1.16828831 0.615957 0.215675 0.085344
Ga 13.99539774 3.08651227 1.83231951 -0.276346 -0.908104 -1.408797
Ga 21.98472361 3.09147383 3.87927661 1.084116 0.760541 0.330371
Ga 20.21247061 4.63111204 1.71938918 -0.147907 -0.471935 -0.032176
Ga 15.85782903 4.58462721 3.92241833 1.392905 0.879241 0.321920
O 14.43180616 3.05260379 0.44574326 -0.850079 -0.503003 0.915954
O 21.62476626 3.05212718 5.09291128 -0.622971 -1.065391 0.102692
O 20.63764757 4.64063336 0.58354420 0.294983 0.222676 -1.131309
O 15.35655667 4.56838415 5.16769730 0.048238 1.111779 0.700311
O 13.84779804 3.12397398 3.24919648 0.154771 -0.968771 1.737619
O 22.22488897 3.09818175 2.56102358 0.093674 0.596602 0.942132
O 20.06688653 4.63908541 3.14512215 0.296336 1.126915 -1.205699
O 15.93764269 4.63589547 2.59792875 0.114884 -0.537971 -1.054765
O 12.15316948 3.09072171 1.47426414 0.480248 -0.098760 0.961518
O 23.84711994 3.05502029 4.30898413 1.463797 0.533288 -0.422369
O 18.36426562 4.57923288 1.49199630 0.413360 0.019968 -0.385603
O 17.67045182 4.61429322 4.23958954 0.958690 -0.515902 -0.873401
Ga 11.05940719 3.07876158 10.25705121 0.548431 -0.482041 0.272616
Ga 22.18420222 3.06683568 6.84405418 0.676268 -1.237748 0.228291
Ga 17.39065200 4.61968360 10.29733725 -0.720439 0.361051 1.347221
Ga 15.93394186 4.63115399 6.88392331 0.615957 0.215675 0.085344
Ga 12.60447374 3.08651227 7.54795451 -0.276346 -0.908104 -1.408797
Ga 20.59379961 3.09147383 9.59491161 1.084116 0.760541 0.330371
Ga 18.82154661 4.63111204 7.43502418 -0.147907 -0.471935 -0.032176
Ga 14.46690503 4.58462721 9.63805333 1.392905 0.879241 0.321920
O 13.04088216 3.05260379 6.16137826 -0.850079 -0.503003 0.915954
O 20.23384226 3.05212718 10.80854628 -0.622971 -1.065391 0.102692
O 19.24672357 4.64063336 6.29917920 0.294983 0.222676 -1.131309
O 13.96563267 4.56838415 10.88333230 0.048238 1.111779 0.700311
O 12.45687404 3.12397398 8.96483148 0.154771 -0.968771 1.737619
O 20.83396497 3.09818175 8.27665858 0.093674 0.596602 0.942132
O 18.67596253 4.63908541 8.86075715 0.296336 1.126915 -1.205699
O 14.54671869 4.63589547 8.31356375 0.114884 -0.537971 -1.054765
O 10.76224548 3.09072171 7.18989914 0.480248 -0.098760 0.961518
O 22.45619594 3.05502029 10.02461913 1.463797 0.533288 -0.422369
O 16.97334162 4.57923288 7.20763130 0.413360 0.019968 -0.385603
O 16.27952782 4.61429322 9.95522454 0.958690 -0.515902 -0.873401
159
Lattice="24.537119 0.000000 0.000000 0.000000 6.075056 0.000000 -2.737160 0.000000 11.247635" Properties=species:S:1:pos:R:3:force:R:3 Energy=-628.662194 Virial="-15.382330 27.363823 1.262488 15.390166 33.189274 -15.193347 14.927329 -2.729433 19.656521" pbc="T T T"
Ga 10.84687604 -0.05687243 1.21518515 0.716243 -0.122755 -0.961446
Ga 6.14420308 1.50873066 4.52181401 0.596052 1.063993 0.443443
Ga 4.76511801 1.53699949 1.24173190 0.379582 -0.614496 -0.583325
Ga 1.49004488 0.03711361 1.76928463 -0.944039 -0.345618 1.281364
Ga 9.39493717 0.06113874 3.87712737 0.659065 -0.754353 -0.880298
Ga 7.67159747 1.56166428 1.75240600 0.777014 0.498095 -0.128039
Ga 3.21634508 1.47697162 3.77815968 0.168097 -1.094370 -0.341133
O 1.96564511 -0.04412833 0.51978906 0.240768 0.309760 1.323791
O 9.00550973 0.01229627 5.12780833 -0.553993 0.656641 -0.806283
O 8.05209578 1.49544089 0.52195433 -0.040817 0.749707 0.444568
O 2.89360545 1.50881634 5.15947267 0.700065 -0.332163 -1.057720
O 1.37843174 0.02939511 3.16460540 -0.443179 1.283674 -1.250990
O 9.58812530 0.00724086 2.43385462 -1.098025 0.454346 0.221205
O 7.50906028 1.49270971 3.11694548 -0.546436 0.837156 0.321766
O 3.43036089 1.56829531 2.48657876 1.667831 0.119294 -1.141585
O -0.28892881 0.06808860 1.44932798 -0.752680 -0.175257 0.763003
O 11.30532855 0.02262039 4.11368968 -0.412923 -0.426861 0.067013
O 5.86313056 1.53401032 1.49128796 -0.823163 -0.605326 0.937535
O 5.09390945 1.51322574 4.13514826 0.259799 1.534690 -1.393823
Ga -1.32066459 0.02875813 10.22416315 -0.135665 0.441868 0.753222
Ga 9.45595204 -0.05687243 6.93082015 0.716243 -0.122755 -0.961446
Ga 4.75327908 1.50873066 10.23744901 0.596052 1.063993 0.443443
Ga 3.37419401 1.53699949 6.95736690 0.379582 -0.614496 -0.583325
Ga 0.09912088 0.03711361 7.48491963 -0.944039 -0.345618 1.281364
Ga 8.00401317 0.06113874 9.59276237 0.659065 -0.754353 -0.880298
Ga 6.28067347 1.56166428 7.46804100 0.777014 0.498095 -0.128039
Ga 1.82542108 1.47697162 9.49379468 0.168097 -1.094370 -0.341133
O 0.57472111 -0.04412833 6.23542406 0.240768 0.309760 1.323791
O 7.61458573 0.01229627 10.84344333 -0.553993 0.656641 -0.806283
O 6.66117178 1.49544089 6.23758933 -0.040817 0.749707 0.444568
O 1.50268145 1.50881634 10.87510767 0.700065 -0.332163 -1.057720
O -0.01249226 0.02939511 8.88024040 -0.443179 1.283674 -1.250990
O 8.19720130 0.00724086 8.14948962 -1.098025 0.454346 0.221205
O 6.11813628 1.49270971 8.83258048 -0.546436 0.837156 0.321766
O 2.03943689 1.56829531 8.20221376 1.667831 0.119294 -1.141585
O -1.67985281 0.06808860 7.16496298 -0.752680 -0.175257 0.763003
O 9.91440455 0.02262039 9.82932468 -0.412923 -0.426861 0.067013
O 4.47220656 1.53401032 7.20692296 -0.823163 -0.605326 0.937535
O 3.70298545 1.51322574 9.85078326 0.259799 1.534690 -1.393823
Ga 0.07025941 3.11587813 4.50852815 -0.135665 0.441868 0.753222
Ga 10.84687604 3.03024757 1.21518515 0.716243 -0.122755 -0.961446
Ga 6.14420308 4.59585066 4.52181401 0.596052 1.063993 0.443443
Ga 4.76511801 4.62411949 1.24173190 0.379582 -0.614496 -0.583325
Ga 1.49004488 3.12423361 1.76928463 -0.944039 -0.345618 1.281364
Ga 9.39493717 3.14825874 3.87712737 0.659065 -0.754353 -0.880298
Ga 7.67159747 4.64878428 1.75240600 0.777014 0.498095 -0.128039
Ga 3.21634508 4.56409162 3.77815968 0.168097 -1.094370 -0.341133
O 1.96564511 3.04299167 0.51978906 0.240768 0.309760 1.323791
O 9.00550973 3.09941627 5.12780833 -0.553993 0.656641 -0.806283
O 8.05209578 4.58256089 0.52195433 -0.040817 0.749707 0.444568
O 2.89360545 4.59593634 5.15947267 0.700065 -0.332163 -1.057720
O 1.37843174 3.11651511 3.16460540 -0.443179 1.283674 -1.250990
O 9.58812530 3.09436086 2.43385462 -1.098025 0.454346 0.221205
O 7.50906028 4.57982971 3.11694548 -0.546436 0.837156 0.321766
O 3.43036089 4.65541531 2.48657876 1.667831 0.119294 -1.141585
O -0.28892881 3.15520860 1.44932798 -0.752680 -0.175257 0.763003
O 11.30532855 3.10974039 4.11368968 -0.412923 -0.426861 0.067013
O 5.86313056 4.62113032 1.49128796 -0.823163 -0.605326 0.937535
O 5.09390945 4.60034574 4.13514826 0.259799 1.534690 -1.393823
Ga -1.32066459 3.11587813 10.22416315 -0.135665 0.441868 0.753222
Ga 9.45595204 3.03024757 6.93082015 0.716243 -0.122755 -0.961446
Ga 4.75327908 4.59585066 10.23744901 0.596052 1.063993 0.443443
Ga 3.37419401 4.62411949 6.95736690 0.379582 -0.614496 -0.583325
Ga 0.09912088 3.12423361 7.48491963 -0.944039 -0.345618 1.281364
Ga 8.00401317 3.14825874 9.59276237 0.659065 -0.754353 -0.880298
Ga 6.28067347 4.64878428 7.46804100 0.777014 0.498095 -0.128039
Ga 1.82542108 4.56409162 9.49379468 0.168097 -1.094370 -0.341133
O 0.57472111 3.04299167 6.23542406 0.240768 0.309760 1.323791
O 7.61458573 3.09941627 10.84344333 -0.553993 0.656641 -0.806283
O 6.66117178 4.58256089 6.23758933 -0.040817 0.749707 0.444568
O 1.50268145 4.59593634 10.87510767 0.700065 -0.332163 -1.057720
O -0.01249226 3.11651511 8.88024040 -0.443179 1.283674 -1.250990
O 8.19720130 3.09436086 8.14948962 -1.098025 0.454346 0.221205
O 6.11813628 4.57982971 8.83258048 -0.546436 0.837156 0.321766
O 2.03943689 4.65541531 8.20221376 1.667831 0.119294 -1.141585
O -1.67985281 3.15520860 7.16496298 -0.752680 -0.175257 0.763003
O 9.91440455 3.10974039 9.82932468 -0.412923 -0.426861 0.067013
O 4.47220656 4.62113032 7.20692296 -0.823163 -0.605326 0.937535
O 3.70298545 4.60034574 9.85078326 0.259799 1.534690 -1.393823
Ga 12.53912041 0.02875813 4.50852815 -0.135665 0.441868 0.753222
Ga 23.31573704 -0.05687243 1.21518515 0.716243 -0.122755 -0.961446
Ga 18.61306408 1.50873066 4.52181401 0.596052 1.063993 0.443443
Ga 17.23397901 1.53699949 1.24173190 0.379582 -0.614496 -0.583325
Ga 13.95890588 0.03711361 1.76928463 -0.944039 -0.345618 1.281364
Ga 21.86379817 0.06113874 3.87712737 0.659065 -0.754353 -0.880298
Ga 20.14045847 1.56166428 1.75240600 0.777014 0.498095 -0.128039
Ga 15.68520608 1.47697162 3.77815968 0.168097 -1.094370 -0.341133
O 14.43450611 -0.04412833 0.51978906 0.240768 0.309760 1.323791
O 21.47437073 0.01229627 5.12780833 -0.553993 0.656641 -0.806283
O 20.52095678 1.49544089 0.52195433 -0.040817 0.749707 0.444568
O 15.36246645 1.50881634 5.15947267 0.700065 -0.332163 -1.057720
O 13.84729274 0.02939511 3.16460540 -0.443179 1.283674 -1.250990
O 22.05698630 0.00724086 2.43385462 -1.098025 0.454346 0.221205
O 19.97792128 1.49270971 3.11694548 -0.546436 0.837156 0.321766
O 15.89922189 1.56829531 2.48657876 1.667831 0.119294 -1.141585
O 12.17993219 0.06808860 1.44932798 -0.752680 -0.175257 0.763003
O 23.77418955 0.02262039 4.11368968 -0.412923 -0.426861 0.067013
O 18.33199156 1.53401032 1.49128796 -0.823163 -0.605326 0.937535
O 17.56277045 1.51322574 4.13514826 0.259799 1.534690 -1.393823
Ga 11.14819641 0.02875813 10.22416315 -0.135665 0.441868 0.753222
Ga 21.92481304 -0.05687243 6.93082015 0.716243 -0.122755 -0.961446
Ga 17.22214008 1.50873066 10.23744901 0.596052 1.063993 0.443443
Ga 15.84305501 1.53699949 6.95736690 0.379582 -0.614496 -0.583325
Ga 12.56798188 0.03711361 7.48491963 -0.944039 -0.345618 1.281364
Ga 20.47287417 0.06113874 9.59276237 0.659065 -0.754353 -0.880298
Ga 18.74953447 1.56166428 7.46804100 0.777014 0.498095 -0.128039
Ga 14.29428208 1.47697162 9.49379468 0.168097 -1.094370 -0.341133
O 13.04358211 -0.04412833 6.23542406 0.240768 0.309760 1.323791
O 20.08344673 0.01229627 10.84344333 -0.553993 0.656641 -0.806283
O 19.13003278 1.49544089 6.23758933 -0.040817 0.749707 0.444568
O 13.97154245 1.50881634 10.87510767 0.700065 -0.332163 -1.057720
O 12.45636874 0.02939511 8.88024040 -0.443179 1.283674 -1.250990
O 20.66606230 0.00724086 8.14948962 -1.098025 0.454346 0.221205
O 18.58699728 1.49270971 8.83258048 -0.546436 0.837156 0.321766
O 14.50829789 1.56829531 8.20221376 1.667831 0.119294 -1.141585
O 10.78900819 0.06808860 7.16496298 -0.752680 -0.175257 0.763003
O 22.38326555 0.02262039 9.82932468 -0.412923 -0.426861 0.067013
O 16.94106756 1.53401032 7.20692296 -0.823163 -0.605326 0.937535
O 16.17184645 1.51322574 9.85078326 0.259799 1.534690 -1.393823
Ga 12.53912041 3.11587813 4.50852815 -0.135665 0.441868 0.753222
Ga 23.31573704 3.03024757 1.21518515 0.716243 -0.122755 -0.961446
Ga 18.61306408 4.59585066 4.52181401 0.596052 1.063993 0.443443
Ga 17.23397901 4.62411949 1.24173190 0.379582 -0.614496 -0.583325
Ga 13.95890588 3.12423361 1.76928463 -0.944039 -0.345618 1.281364
Ga 21.86379817 3.14825874 3.87712737 0.659065 -0.754353 -0.880298
Ga 20.14045847 4.64878428 1.75240600 0.777014 0.498095 -0.128039
Ga 15.68520608 4.56409162 3.77815968 0.168097 -1.094370 -0.341133
O 14.43450611 3.04299167 0.51978906 0.240768 0.309760 1.323791
O 21.47437073 3.09941627 5.12780833 -0.553993 0.656641 -0.806283
O 20.52095678 4.58256089 0.52195433 -0.040817 0.749707 0.444568
O 15.36246645 4.59593634 5.15947267 0.700065 -0.332163 -1.057720
O 13.84729274 3.11651511 3.16460540 -0.443179 1.283674 -1.250990
O 22.05698630 3.09436086 2.43385462 -1.098025 0.454346 0.221205
O 19.97792128 4.57982971 3.11694548 -0.546436 0.837156 0.321766
O 15.89922189 4.65541531 2.48657876 1.667831 0.119294 -1.141585
O 12.17993219 3.15520860 1.44932798 -0.752680 -0.175257 0.763003
O 23.77418955 3.10974039 4.11368968 -0.412923 -0.426861 0.067013
O 18.33199156 4.62113032 1.49128796 -0.823163 -0.605326 0.937535
O 17.56277045 4.60034574 4.13514826 0.259799 1.534690 -1.393823
Ga 11.14819641 3.11587813 10.22416315 -0.135665 0.441868 0.753222
Ga 21.92481304 3.03024757 6.93082015 0.716243 -0.122755 -0.961446
Ga 17.22214008 4.59585066 10.23744901 0.596052 1.063993 0.443443
Ga 15.84305501 4.62411949 6.95736690 0.379582 -0.614496 -0.583325
Ga 12.56798188 3.12423361 7.48491963 -0.944039 -0.345618 1.281364
Ga 20.47287417 3.14825874 9.59276237 0.659065 -0.754353 -0.880298
Ga 18.74953447 4.64878428 7.46804100 0.777014 0.498095 -0.128039
Ga 14.29428208 4.56409162 9.49379468 0.168097 -1.094370 -0.341133
O 13.04358211 3.04299167 6.23542406 0.240768 0.309760 1.323791
O 20.08344673 3.09941627 10.84344333 -0.553993 0.656641 -0.806283
O 19.13003278 4.58256089 6.23758933 -0.040817 0.749707 0.444568
O 13.97154245 4.59593634 10.87510767 0.700065 -0.332163 -1.057720
O 12.45636874 3.11651511 8.88024040 -0.443179 1.283674 -1.250990
O 20.66606230 3.09436086 8.14948962 -1.098025 0.454346 0.221205
O 18.58699728 4.57982971 8.83258048 -0.546436 0.837156 0.321766
O 14.50829789 4.65541531 8.20221376 1.667831 0.119294 -1.141585
O 10.78900819 3.15520860 7.16496298 -0.752680 -0.175257 0.763003
O 22.38326555 3.10974039 9.82932468 -0.412923 -0.426861 0.067013
O 16.94106756 4.62113032 7.20692296 -0.823163 -0.605326 0.937535
O 16.17184645 4.60034574 9.85078326 0.259799 1.534690 -1.393823
159
Lattice="24.448277 0.000000 0.000000 0.000000 6.053060 0.000000 -2.727249 0.000000 11.206911" Properties=species:S:1:pos:R:3:force:R:3 Energy=-628.180532 Virial="-0.625594 7.018492 -16.145966 -7.961850 21.090244 14.416916 -0.377660 9.445650 -14.462667" pbc="T T T"
Ga 10.82085220 0.01042651 1.09492907 -1.055508 -0.913758 0.329647
Ga 6.16361057 1.57112511 4.43192069 0.106226 1.114678 -0.280595
Ga 4.68128725 1.52438428 1.20914182 -0.415143 -0.872279 -0.935454
Ga 1.45230310 -0.04425233 1.74243869 0.293763 -0.280839 -0.331341
Ga 9.31740214 -0.03268742 3.75908465 0.403902 -0.226221 -0.458187
Ga 7.64592912 1.52681378 1.69265230 0.718636 -0.045788 1.062666
Ga 3.29643425 1.58050865 3.81281325 0.006541 0.362554 0.671289
O 1.92323951 -0.02291991 0.53396980 0.864149 -0.765862 0.616816
O 8.95050522 0.08857006 5.06488991 0.433294 0.892794 1.471371
O 7.99370500 1.48574746 0.60117777 0.369485 -1.821904 1.385284
O 2.94733081 1.57850212 5.11498822 1.048759 0.283036 1.813445
O 1.32888135 0.03311400 3.12644627 -1.695144 0.020306 -0.292869
O 9.55913668 0.04463608 2.45075714 -0.367053 0.711217 0.712946
O 7.50385544 1.54054633 3.01578547 -0.316714 -0.402400 -0.860514
O 3.42660833 1.49599313 2.44128606 -0.408955 -0.643662 0.301155
O -0.33392170 -0.00540972 1.45368749 -0.433910 0.413095 -0.198525
O 11.10608606 0.00759391 4.19204097 -0.095554 -0.403731 0.992829
O 5.88634945 1.47019735 1.42050061 -0.341622 -1.411044 -0.041980
O 5.05910256 1.55916133 4.15680169 -0.882397 0.659099 -1.010134
Ga -1.33503724 -0.03706852 10.21966065 0.210804 0.536236 1.341984
Ga 9.42992820 0.01042651 6.81056407 -1.055508 -0.913758 0.329647
Ga 4.77268657 1.57112511 10.14755569 0.106226 1.114678 -0.280595
Ga 3.29036325 1.52438428 6.92477682 -0.415143 -0.872279 -0.935454
Ga 0.06137910 -0.04425233 7.45807369 0.293763 -0.280839 -0.331341
Ga 7.92647814 -0.03268742 9.47471965 0.403902 -0.226221 -0.458187
Ga 6.25500512 1.52681378 7.40828730 0.718636 -0.045788 1.062666
Ga 1.90551025 1.58050865 9.52844825 0.006541 0.362554 0.671289
O 0.53231551 -0.02291991 6.24960480 0.864149 -0.765862 0.616816
O 7.55958122 0.08857006 10.78052491 0.433294 0.892794 1.471371
O 6.60278100 1.48574746 6.31681277 0.369485 -1.821904 1.385284
O 1.55640681 1.57850212 10.83062322 1.048759 0.283036 1.813445
O -0.06204265 0.03311400 8.84208127 -1.695144 0.020306 -0.292869
O 8.16821268 0.04463608 8.16639214 -0.367053 0.711217 0.712946
O 6.11293144 1.54054633 8.73142047 -0.316714 -0.402400 -0.860514
O 2.03568433 1.49599313 8.15692106 -0.408955 -0.643662 0.301155
O -1.72484570 -0.00540972 7.16932249 -0.433910 0.413095 -0.198525
O 9.71516206 0.00759391 9.90767597 -0.095554 -0.403731 0.992829
O 4.49542545 1.47019735 7.13613561 -0.341622 -1.411044 -0.041980
O 3.66817856 1.55916133 9.87243669 -0.882397 0.659099 -1.010134
Ga 0.05588676 3.05005148 4.50402565 0.210804 0.536236 1.341984
Ga 10.82085220 3.09754651 1.09492907 -1.055508 -0.913758 0.329647
Ga 6.16361057 4.65824511 4.43192069 0.106226 1.114678 -0.280595
Ga 4.68128725 4.61150428 1.20914182 -0.415143 -0.872279 -0.935454
Ga 1.45230310 3.04286767 1.74243869 0.293763 -0.280839 -0.331341
Ga 9.31740214 3.05443258 3.75908465 0.403902 -0.226221 -0.458187
Ga 7.64592912 4.61393378 1.69265230 0.718636 -0.045788 1.062666
Ga 3.29643425 4.66762865 3.81281325 0.006541 0.362554 0.671289
O 1.92323951 3.06420009 0.53396980 0.864149 -0.765862 0.616816
O 8.95050522 3.17569006 5.06488991 0.433294 0.892794 1.471371
O 7.99370500 4.57286746 0.60117777 0.369485 -1.821904 1.385284
O 2.94733081 4.66562212 5.11498822 1.048759 0.283036 1.813445
O 1.32888135 3.12023400 3.12644627 -1.695144 0.020306 -0.292869
O 9.55913668 3.13175608 2.45075714 -0.367053 0.711217 0.712946
O 7.50385544 4.62766633 3.01578547 -0.316714 -0.402400 -0.860514
O 3.42660833 4.58311313 2.44128606 -0.408955 -0.643662 0.301155
O -0.33392170 3.08171028 1.45368749 -0.433910 0.413095 -0.198525
O 11.10608606 3.09471391 4.19204097 -0.095554 -0.403731 0.992829
O 5.88634945 4.55731735 1.42050061 -0.341622 -1.411044 -0.041980
O 5.05910256 4.64628133 4.15680169 -0.882397 0.659099 -1.010134
Ga -1.33503724 3.05005148 10.21966065 0.210804 0.536236 1.341984
Ga 9.42992820 3.09754651 6.81056407 -1.055508 -0.913758 0.329647
Ga 4.77268657 4.65824511 10.14755569 0.106226 1.114678 -0.280595
Ga 3.29036325 4.61150428 6.92477682 -0.415143 -0.872279 -0.935454
Ga 0.06137910 3.04286767 7.45807369 0.293763 -0.280839 -0.331341
Ga 7.92647814 3.05443258 9.47471965 0.403902 -0.226221 -0.458187
Ga 6.25500512 4.61393378 7.40828730 0.718636 -0.045788 1.062666
Ga 1.90551025 4.66762865 9.52844825 0.006541 0.362554 0.671289
O 0.53231551 3.06420009 6.24960480 0.864149 -0.765862 0.616816
O 7.55958122 3.17569006 10.78052491 0.433294 0.892794 1.471371
O 6.60278100 4.57286746 6.31681277 0.369485 -1.821904 1.385284
O 1.55640681 4.66562212 10.83062322 1.048759 0.283036 1.813445
O -0.06204265 3.12023400 8.84208127 -1.695144 0.020306 -0.292869
O 8.16821268 3.13175608 8.16639214 -0.367053 0.711217 0.712946
O 6.11293144 4.62766633 8.73142047 -0.316714 -0.402400 -0.860514
O 2.03568433 4.58311313 8.15692106 -0.408955 -0.643662 0.301155
O -1.72484570 3.08171028 7.16932249 -0.433910 0.413095 -0.198525
O 9.71516206 3.09471391 9.90767597 -0.095554 -0.403731 0.992829
O 4.49542545 4.55731735 7.13613561 -0.341622 -1.411044 -0.041980
O 3.66817856 4.64628133 9.87243669 -0.882397 0.659099 -1.010134
Ga 12.52474776 -0.03706852 4.50402565 0.210804 0.536236 1.341984
Ga 23.28971320 0.01042651 1.09492907 -1.055508 -0.913758 0.329647
Ga 18.63247157 1.57112511 4.43192069 0.106226 1.114678 -0.280595
Ga 17.15014825 1.52438428 1.20914182 -0.415143 -0.872279 -0.935454
Ga 13.92116410 -0.04425233 1.74243869 0.293763 -0.280839 -0.331341
Ga 21.78626314 -0.03268742 3.75908465 0.403902 -0.226221 -0.458187
Ga 20.11479012 1.52681378 1.69265230 0.718636 -0.045788 1.062666
Ga 15.76529525 1.58050865 3.81281325 0.006541 0.362554 0.671289
O 14.39210051 -0.02291991 0.53396980 0.864149 -0.765862 0.616816
O 21.41936622 0.08857006 5.06488991 0.433294 0.892794 1.471371
O 20.46256600 1.48574746 0.60117777 0.369485 -1.821904 1.385284
O 15.41619181 1.57850212 5.11498822 1.048759 0.283036 1.813445
O 13.79774235 0.03311400 3.12644627 -1.695144 0.020306 -0.292869
O 22.02799768 0.04463608 2.45075714 -0.367053 0.711217 0.712946
O 19.97271644 1.54054633 3.01578547 -0.316714 -0.402400 -0.860514
O 15.89546933 1.49599313 2.44128606 -0.408955 -0.643662 0.301155
O 12.13493930 -0.00540972 1.45368749 -0.433910 0.413095 -0.198525
O 23.57494706 0.00759391 4.19204097 -0.095554 -0.403731 0.992829
O 18.35521045 1.47019735 1.42050061 -0.341622 -1.411044 -0.041980
O 17.52796356 1.55916133 4.15680169 -0.882397 0.659099 -1.010134
Ga 11.13382376 -0.03706852 10.21966065 0.210804 0.536236 1.341984
Ga 21.89878920 0.01042651 6.81056407 -1.055508 -0.913758 0.329647
Ga 17.24154757 1.57112511 10.14755569 0.106226 1.114678 -0.280595
Ga 15.75922425 1.52438428 6.92477682 -0.415143 -0.872279 -0.935454
Ga 12.53024010 -0.04425233 7.45807369 0.293763 -0.280839 -0.331341
Ga 20.39533914 -0.03268742 9.47471965 0.403902 -0.226221 -0.458187
Ga 18.72386612 1.52681378 7.40828730 0.718636 -0.045788 1.062666
Ga 14.37437125 1.58050865 9.52844825 0.006541 0.362554 0.671289
O 13.00117651 -0.02291991 6.24960480 0.864149 -0.765862 0.616816
O 20.02844222 0.08857006 10.78052491 0.433294 0.892794 1.471371
O 19.07164200 1.48574746 6.31681277 0.369485 -1.821904 1.385284
O 14.02526781 1.57850212 10.83062322 1.048759 0.283036 1.813445
O 12.40681835 0.03311400 8.84208127 -1.695144 0.020306 -0.292869
O 20.63707368 0.04463608 8.16639214 -0.367053 0.711217 0.712946
O 18.58179244 1.54054633 8.73142047 -0.316714 -0.402400 -0.860514
O 14.50454533 1.49599313 8.15692106 -0.408955 -0.643662 0.301155
O 10.74401530 -0.00540972 7.16932249 -0.433910 0.413095 -0.198525
O 22.18402306 0.00759391 9.90767597 -0.095554 -0.403731 0.992829
O 16.96428645 1.47019735 7.13613561 -0.341622 -1.411044 -0.041980
O 16.13703956 1.55916133 9.87243669 -0.882397 0.659099 -1.010134
Ga 12.52474776 3.05005148 4.50402565 0.210804 0.536236 1.341984
Ga 23.28971320 3.09754651 1.09492907 -1.055508 -0.913758 0.329647
Ga 18.63247157 4.65824511 4.43192069 0.106226 1.114678 -0.280595
Ga 17.15014825 4.61150428 1.20914182 -0.415143 -0.872279 -0.935454
Ga 13.92116410 3.04286767 1.74243869 0.293763 -0.280839 -0.331341
Ga 21.78626314 3.05443258 3.75908465 0.403902 -0.226221 -0.458187
Ga 20.11479012 4.61393378 1.69265230 0.718636 -0.045788 1.062666
Ga 15.76529525 4.66762865 3.81281325 0.006541 0.362554 0.671289
O 14.39210051 3.06420009 0.53396980 0.864149 -0.765862 0.616816
O 21.41936622 3.17569006 5.06488991 0.433294 0.892794 1.471371
O 20.46256600 4.57286746 0.60117777 0.369485 -1.821904 1.385284
O 15.41619181 4.66562212 5.11498822 1.048759 0.283036 1.813445
O 13.79774235 3.12023400 3.12644627 -1.695144 0.020306 -0.292869
O 22.02799768 3.13175608 2.45075714 -0.367053 0.711217 0.712946
O 19.97271644 4.62766633 3.01578547 -0.316714 -0.402400 -0.860514
O 15.89546933 4.58311313 2.44128606 -0.408955 -0.643662 0.301155
O 12.13493930 3.08171028 1.45368749 -0.433910 0.413095 -0.198525
O 23.57494706 3.09471391 4.19204097 -0.095554 -0.403731 0.992829
O 18.35521045 4.55731735 1.42050061 -0.341622 -1.411044 -0.041980
O 17.52796356 4.64628133 4.15680169 -0.882397 0.659099 -1.010134
Ga 11.13382376 3.05005148 10.21966065 0.210804 0.536236 1.341984
Ga 21.89878920 3.09754651 6.81056407 -1.055508 -0.913758 0.329647
Ga 17.24154757 4.65824511 10.14755569 0.106226 1.114678 -0.280595
Ga 15.75922425 4.61150428 6.92477682 -0.415143 -0.872279 -0.935454
Ga 12.53024010 3.04286767 7.45807369 0.293763 -0.280839 -0.331341
Ga 20.39533914 3.05443258 9.47471965 0.403902 -0.226221 -0.458187
Ga 18.72386612 4.61393378 7.40828730 0.718636 -0.045788 1.062666
Ga 14.37437125 4.66762865 9.52844825 0.006541 0.362554 0.671289
O 13.00117651 3.06420009 6.24960480 0.864149 -0.765862 0.616816
O 20.02844222 3.17569006 10.78052491 0.433294 0.892794 1.471371
O 19.07164200 4.57286746 6.31681277 0.369485 -1.821904 1.385284
O 14.02526781 4.66562212 10.83062322 1.048759 0.283036 1.813445
O 12.40681835 3.12023400 8.84208127 -1.695144 0.020306 -0.292869
O 20.63707368 3.13175608 8.16639214 -0.367053 0.711217 0.712946
O 18.58179244 4.62766633 8.73142047 -0.316714 -0.402400 -0.860514
O 14.50454533 4.58311313 8.15692106 -0.408955 -0.643662 0.301155
O 10.74401530 3.08171028 7.16932249 -0.433910 0.413095 -0.198525
O 22.18402306 3.09471391 9.90767597 -0.095554 -0.403731 0.992829
O 16.96428645 4.55731735 7.13613561 -0.341622 -1.411044 -0.041980
O 16.13703956 4.64628133 9.87243669 -0.882397 0.659099 -1.010134
159
Lattice="24.821845 0.000000 0.000000 0.000000 6.145550 0.000000 -2.768922 0.000000 11.378152" Properties=species:S:1:pos:R:3:force:R:3 Energy=-629.447652 Virial="-3.526278 -2.827567 12.402232 5.213751 -12.474260 12.213455 14.307439 16.216240 8.767126" pbc="T T T"
Ga 10.95858047 0.00563545 1.09779826 0.904811 0.660785 -0.769955
Ga 6.24148347 1.53048346 4.50189896 -0.903605 -0.392443 0.956968
Ga 4.73411646 1.55693157 1.14722780 0.494385 -0.437020 0.475137
Ga 1.48657796 -0.11489049 1.78640765 -0.200231 0.671235 0.763078
Ga 9.56397678 0.06645037 3.88328417 0.611563 -1.686314 -0.107864
Ga 7.71474773 1.55513854 1.74757282 0.238938 -0.127245 -0.471624
Ga 3.29969681 1.56703078 3.95064535 -1.121188 -0.536792 1.485416
O 1.90124541 -0.00814695 0.49965417 -0.377209 -0.523537 -0.188453
O 9.08813456 -0.00905916 5.16899741 -0.484887 0.749510 1.524983
O 8.14725654 1.50426041 0.59448102 -1.398269 2.228399 -0.434262
O 2.90490325 1.53553288 5.12441432 -0.489064 -1.259711 0.324608
O 1.27759043 0.03536182 3.20397798 -0.264663 -0.546515 -0.227824
O 9.64064821 0.00267963 2.53520961 0.032677 0.554211 -1.045762
O 7.51751979 1.51522546 3.20627481 -0.191667 1.095683 -0.000692
O 3.39626815 1.54812988 2.46030876 -0.795477 0.140934 -0.118080
O -0.28612098 -0.00142566 1.39179869 -0.913406 -0.502641 2.160502
O 11.37782911 -0.02938366 4.20026220 1.080148 -0.635961 -0.953913
O 5.90870517 1.58233306 1.41577109 0.217239 -0.230994 0.547869
O 5.12824614 1.55354023 4.26039653 -0.084407 0.215556 -0.616367
Ga -1.29244437 0.06172974 10.21662145 -0.304751 -0.915006 -0.326600
Ga 9.56765647 0.00563545 6.81343326 0.904811 0.660785 -0.769955
Ga 4.85055947 1.53048346 10.21753396 -0.903605 -0.392443 0.956968
Ga 3.34319246 1.55693157 6.86286280 0.494385 -0.437020 0.475137
Ga 0.09565396 -0.11489049 7.50204265 -0.200231 0.671235 0.763078
Ga 8.17305278 0.06645037 9.59891917 0.611563 -1.686314 -0.107864
Ga 6.32382373 1.55513854 7.46320782 0.238938 -0.127245 -0.471624
Ga 1.90877281 1.56703078 9.66628035 -1.121188 -0.536792 1.485416
O 0.51032141 -0.00814695 6.21528917 -0.377209 -0.523537 -0.188453
O 7.69721056 -0.00905916 10.88463241 -0.484887 0.749510 1.524983
O 6.75633254 1.50426041 6.31011602 -1.398269 2.228399 -0.434262
O 1.51397925 1.53553288 10.84004932 -0.489064 -1.259711 0.324608
O -0.11333357 0.03536182 8.91961298 -0.264663 -0.546515 -0.227824
O 8.24972421 0.00267963 8.25084461 0.032677 0.554211 -1.045762
O 6.12659579 1.51522546 8.92190981 -0.191667 1.095683 -0.000692
O 2.00534415 1.54812988 8.17594376 -0.795477 0.140934 -0.118080
O -1.67704498 -0.00142566 7.10743369 -0.913406 -0.502641 2.160502
O 9.98690511 -0.02938366 9.91589720 1.080148 -0.635961 -0.953913
O 4.51778117 1.58233306 7.13140609 0.217239 -0.230994 0.547869
O 3.73732214 1.55354023 9.97603153 -0.084407 0.215556 -0.616367
Ga 0.09847963 3.14884974 4.50098645 -0.304751 -0.915006 -0.326600
Ga 10.95858047 3.09275545 1.09779826 0.904811 0.660785 -0.769955
Ga 6.24148347 4.61760346 4.50189896 -0.903605 -0.392443 0.956968
Ga 4.73411646 4.64405157 1.14722780 0.494385 -0.437020 0.475137
Ga 1.48657796 2.97222951 1.78640765 -0.200231 0.671235 0.763078
Ga 9.56397678 3.15357037 3.88328417 0.611563 -1.686314 -0.107864
Ga 7.71474773 4.64225854 1.74757282 0.238938 -0.127245 -0.471624
Ga 3.29969681 4.65415078 3.95064535 -1.121188 -0.536792 1.485416
O 1.90124541 3.07897305 0.49965417 -0.377209 -0.523537 -0.188453
O 9.08813456 3.07806084 5.16899741 -0.484887 0.749510 1.524983
O 8.14725654 4.59138041 0.59448102 -1.398269 2.228399 -0.434262
O 2.90490325 4.62265288 5.12441432 -0.489064 -1.259711 0.324608
O 1.27759043 3.12248182 3.20397798 -0.264663 -0.546515 -0.227824
O 9.64064821 3.08979963 2.53520961 0.032677 0.554211 -1.045762
O 7.51751979 4.60234546 3.20627481 -0.191667 1.095683 -0.000692
O 3.39626815 4.63524988 2.46030876 -0.795477 0.140934 -0.118080
O -0.28612098 3.08569434 1.39179869 -0.913406 -0.502641 2.160502
O 11.37782911 3.05773634 4.20026220 1.080148 -0.635961 -0.953913
O 5.90870517 4.66945306 1.41577109 0.217239 -0.230994 0.547869
O 5.12824614 4.64066023 4.26039653 -0.084407 0.215556 -0.616367
Ga -1.29244437 3.14884974 10.21662145 -0.304751 -0.915006 -0.326600
Ga 9.56765647 3.09275545 6.81343326 0.904811 0.660785 -0.769955
Ga 4.85055947 4.61760346 10.21753396 -0.903605 -0.392443 0.956968
Ga 3.34319246 4.64405157 6.86286280 0.494385 -0.437020 0.475137
Ga 0.09565396 2.97222951 7.50204265 -0.200231 0.671235 0.763078
Ga 8.17305278 3.15357037 9.59891917 0.611563 -1.686314 -0.107864
Ga 6.32382373 4.64225854 7.46320782 0.238938 -0.127245 -0.471624
Ga 1.90877281 4.65415078 9.66628035 -1.121188 -0.536792 1.485416
O 0.51032141 3.07897305 6.21528917 -0.377209 -0.523537 -0.188453
O 7.69721056 3.07806084 10.88463241 -0.484887 0.749510 1.524983
O 6.75633254 4.59138041 6.31011602 -1.398269 2.228399 -0.434262
O 1.51397925 4.62265288 10.84004932 -0.489064 -1.259711 0.324608
O -0.11333357 3.12248182 8.91961298 -0.264663 -0.546515 -0.227824
O 8.24972421 3.08979963 8.25084461 0.032677 0.554211 -1.045762
O 6.12659579 4.60234546 8.92190981 -0.191667 1.095683 -0.000692
O 2.00534415 4.63524988 8.17594376 -0.795477 0.140934 -0.118080
O -1.67704498 3.08569434 7.10743369 -0.913406 -0.502641 2.160502
O 9.98690511 3.05773634 9.91589720 1.080148 -0.635961 -0.953913
O 4.51778117 4.66945306 7.13140609 0.217239 -0.230994 0.547869
O 3.73732214 4.64066023 9.97603153 -0.084407 0.215556 -0.616367
Ga 12.56734063 0.06172974 4.50098645 -0.304751 -0.915006 -0.326600
Ga 23.42744147 0.00563545 1.09779826 0.904811 0.660785 -0.769955
Ga 18.71034447 1.53048346 4.50189896 -0.903605 -0.392443 0.956968
Ga 17.20297746 1.55693157 1.14722780 0.494385 -0.437020 0.475137
Ga 13.95543896 -0.11489049 1.78640765 -0.200231 0.671235 0.763078
Ga 22.03283778 0.06645037 3.88328417 0.611563 -1.686314 -0.107864
Ga 20.18360873 1.55513854 1.74757282 0.238938 -0.127245 -0.471624
Ga 15.76855781 1.56703078 3.95064535 -1.121188 -0.536792 1.485416
O 14.37010641 -0.00814695 0.49965417 -0.377209 -0.523537 -0.188453
O 21.55699556 -0.00905916 5.16899741 -0.484887 0.749510 1.524983
O 20.61611754 1.50426041 0.59448102 -1.398269 2.228399 -0.434262
O 15.37376425 1.53553288 5.12441432 -0.489064 -1.259711 0.324608
O 13.74645143 0.03536182 3.20397798 -0.264663 -0.546515 -0.227824
O 22.10950921 0.00267963 2.53520961 0.032677 0.554211 -1.045762
O 19.98638079 1.51522546 3.20627481 -0.191667 1.095683 -0.000692
O 15.86512915 1.54812988 2.46030876 -0.795477 0.140934 -0.118080
O 12.18274002 -0.00142566 1.39179869 -0.913406 -0.502641 2.160502
O 23.84669011 -0.02938366 4.20026220 1.080148 -0.635961 -0.953913
O 18.37756617 1.58233306 1.41577109 0.217239 -0.230994 0.547869
O 17.59710714 1.55354023 4.26039653 -0.084407 0.215556 -0.616367
Ga 11.17641663 0.06172974 10.21662145 -0.304751 -0.915006 -0.326600
Ga 22.03651747 0.00563545 6.81343326 0.904811 0.660785 -0.769955
Ga 17.31942047 1.53048346 10.21753396 -0.903605 -0.392443 0.956968
Ga 15.81205346 1.55693157 6.86286280 0.494385 -0.437020 0.475137
Ga 12.56451496 -0.11489049 7.50204265 -0.200231 0.671235 0.763078
Ga 20.64191378 0.06645037 9.59891917 0.611563 -1.686314 -0.107864
Ga 18.79268473 1.55513854 7.46320782 0.238938 -0.127245 -0.471624
Ga 14.37763381 1.56703078 9.66628035 -1.121188 -0.536792 1.485416
O 12.97918241 -0.00814695 6.21528917 -0.377209 -0.523537 -0.188453
O 20.16607156 -0.00905916 10.88463241 -0.484887 0.749510 1.524983
O 19.22519354 1.50426041 6.31011602 -1.398269 2.228399 -0.434262
O 13.98284025 1.53553288 10.84004932 -0.489064 -1.259711 0.324608
O 12.35552743 0.03536182 8.91961298 -0.264663 -0.546515 -0.227824
O 20.71858521 0.00267963 8.25084461 0.032677 0.554211 -1.045762
O 18.59545679 1.51522546 8.92190981 -0.191667 1.095683 -0.000692
O 14.47420515 1.54812988 8.17594376 -0.795477 0.140934 -0.118080
O 10.79181602 -0.00142566 7.10743369 -0.913406 -0.502641 2.160502
O 22.45576611 -0.02938366 9.91589720 1.080148 -0.635961 -0.953913
O 16.98664217 1.58233306 7.13140609 0.217239 -0.230994 0.547869
O 16.20618314 1.55354023 9.97603153 -0.084407 0.215556 -0.616367
Ga 12.56734063 3.14884974 4.50098645 -0.304751 -0.915006 -0.326600
Ga 23.42744147 3.09275545 1.09779826 0.904811 0.660785 -0.769955
Ga 18.71034447 4.61760346 4.50189896 -0.903605 -0.392443 0.956968
Ga 17.20297746 4.64405157 1.14722780 0.494385 -0.437020 0.475137
Ga 13.95543896 2.97222951 1.78640765 -0.200231 0.671235 0.763078
Ga 22.03283778 3.15357037 3.88328417 0.611563 -1.686314 -0.107864
Ga 20.18360873 4.64225854 1.74757282 0.238938 -0.127245 -0.471624
Ga 15.76855781 4.65415078 3.95064535 -1.121188 -0.536792 1.485416
O 14.37010641 3.07897305 0.49965417 -0.377209 -0.523537 -0.188453
O 21.55699556 3.07806084 5.16899741 -0.484887 0.749510 1.524983
O 20.61611754 4.59138041 0.59448102 -1.398269 2.228399 -0.434262
O 15.37376425 4.62265288 5.12441432 -0.489064 -1.259711 0.324608
O 13.74645143 3.12248182 3.20397798 -0.264663 -0.546515 -0.227824
O 22.10950921 3.08979963 2.53520961 0.032677 0.554211 -1.045762
O 19.98638079 4.60234546 3.20627481 -0.191667 1.095683 -0.000692
O 15.86512915 4.63524988 2.46030876 -0.795477 0.140934 -0.118080
O 12.18274002 3.08569434 1.39179869 -0.913406 -0.502641 2.160502
O 23.84669011 3.05773634 4.20026220 1.080148 -0.635961 -0.953913
O 18.37756617 4.66945306 1.41577109 0.217239 -0.230994 0.547869
O 17.59710714 4.64066023 4.26039653 -0.084407 0.215556 -0.616367
Ga 11.17641663 3.14884974 10.21662145 -0.304751 -0.915006 -0.326600
Ga 22.03651747 3.09275545 6.81343326 0.904811 0.660785 -0.769955
Ga 17.31942047 4.61760346 10.21753396 -0.903605 -0.392443 0.956968
Ga 15.81205346 4.64405157 6.86286280 0.494385 -0.437020 0.475137
Ga 12.56451496 2.97222951 7.50204265 -0.200231 0.671235 0.763078
Ga 20.64191378 3.15357037 9.59891917 0.611563 -1.686314 -0.107864
Ga 18.79268473 4.64225854 7.46320782 0.238938 -0.127245 -0.471624
Ga 14.37763381 4.65415078 9.66628035 -1.121188 -0.536792 1.485416
O 12.97918241 3.07897305 6.21528917 -0.377209 -0.523537 -0.188453
O 20.16607156 3.07806084 10.88463241 -0.484887 0.749510 1.524983
O 19.22519354 4.59138041 6.31011602 -1.398269 2.228399 -0.434262
O 13.98284025 4.62265288 10.84004932 -0.489064 -1.259711 0.324608
O 12.35552743 3.12248182 8.91961298 -0.264663 -0.546515 -0.227824
O 20.71858521 3.08979963 8.25084461 0.032677 0.554211 -1.045762
O 18.59545679 4.60234546 8.92190981 -0.191667 1.095683 -0.000692
O 14.47420515 4.63524988 8.17594376 -0.795477 0.140934 -0.118080
O 10.79181602 3.08569434 7.10743369 -0.913406 -0.502641 2.160502
O 22.45576611 3.05773634 9.91589720 1.080148 -0.635961 -0.953913
O 16.98664217 4.66945306 7.13140609 0.217239 -0.230994 0.547869
O 16.20618314 4.64066023 9.97603153 -0.084407 0.215556 -0.616367
159
Lattice="24.506468 0.000000 0.000000 0.000000 6.067467 0.000000 -2.733741 0.000000 11.233585" Properties=species:S:1:pos:R:3:force:R:3 Energy=-628.651624 Virial="-0.414092 17.165861 21.491954 7.262045 12.092066 -11.841820 -21.001710 20.232040 -33.722426" pbc="T T T"
Ga 10.83039989 -0.05065362 1.15136950 0.651972 -0.044759 -0.305453
Ga 6.13148386 1.59726718 4.53389864 -0.235824 -0.242991 -0.038809
Ga 4.69556931 1.48843640 1.15663967 0.527473 1.141842 0.380103
Ga 1.56978121 0.00228053 1.73890721 -1.055970 0.090326 -0.483387
Ga 9.37011587 -0.02513939 3.87609526 0.460528 -0.028910 -0.185426
Ga 7.61214813 1.49644936 1.81127419 -1.538865 1.301942 -0.568960
Ga 3.21511921 1.45902169 3.85579592 1.121605 -0.013337 1.083246
O 1.86662523 0.02045662 0.54067772 -0.377219 0.117066 -0.609839
O 9.00404239 -0.00244174 5.05937982 -1.166539 0.278695 -0.778636
O 8.01099538 1.55211820 0.48904098 0.429937 -1.570812 -0.016148
O 2.87848590 1.55840236 5.10903112 -0.195980 -0.635186 0.082451
O 1.40947431 -0.02272569 3.06093944 -2.054089 1.861579 -0.070301
O 9.53729397 0.01450283 2.53735971 0.493993 -0.346071 0.771868
O 7.53123856 1.53833655 3.16478578 -0.446195 -1.231261 -0.519587
O 3.39497771 1.46810222 2.48733168 -2.056615 -0.025510 0.377959
O -0.26160285 0.02625443 1.47125174 0.331318 -0.303222 0.320379
O 11.17015885 -0.01062187 4.19823058 0.618174 1.525568 0.085673
O 5.80385027 1.49623812 1.44981873 -0.369802 0.208588 -0.749745
O 5.09108892 1.50888566 4.13236599 1.379413 -0.453710 -1.147186
Ga -1.35294199 0.07246019 10.17543323 -0.424750 -0.391756 -0.921769
Ga 9.43947589 -0.05065362 6.86700450 0.651972 -0.044759 -0.305453
Ga 4.74055986 1.59726718 10.24953364 -0.235824 -0.242991 -0.038809
Ga 3.30464531 1.48843640 6.87227467 0.527473 1.141842 0.380103
Ga 0.17885721 0.00228053 7.45454221 -1.055970 0.090326 -0.483387
Ga 7.97919187 -0.02513939 9.59173026 0.460528 -0.028910 -0.185426
Ga 6.22122413 1.49644936 7.52690919 -1.538865 1.301942 -0.568960
Ga 1.82419521 1.45902169 9.57143092 1.121605 -0.013337 1.083246
O 0.47570123 0.02045662 6.25631272 -0.377219 0.117066 -0.609839
O 7.61311839 -0.00244174 10.77501482 -1.166539 0.278695 -0.778636
O 6.62007138 1.55211820 6.20467598 0.429937 -1.570812 -0.016148
O 1.48756190 1.55840236 10.82466612 -0.195980 -0.635186 0.082451
O 0.01855031 -0.02272569 8.77657444 -2.054089 1.861579 -0.070301
O 8.14636997 0.01450283 8.25299471 0.493993 -0.346071 0.771868
O 6.14031456 1.53833655 8.88042078 -0.446195 -1.231261 -0.519587
O 2.00405371 1.46810222 8.20296668 -2.056615 -0.025510 0.377959
O -1.65252685 0.02625443 7.18688674 0.331318 -0.303222 0.320379
O 9.77923485 -0.01062187 9.91386558 0.618174 1.525568 0.085673
O 4.41292627 1.49623812 7.16545373 -0.369802 0.208588 -0.749745
O 3.70016492 1.50888566 9.84800099 1.379413 -0.453710 -1.147186
Ga 0.03798201 3.15958019 4.45979823 -0.424750 -0.391756 -0.921769
Ga 10.83039989 3.03646638 1.15136950 0.651972 -0.044759 -0.305453
Ga 6.13148386 4.68438718 4.53389864 -0.235824 -0.242991 -0.038809
Ga 4.69556931 4.57555640 1.15663967 0.527473 1.141842 0.380103
Ga 1.56978121 3.08940053 1.73890721 -1.055970 0.090326 -0.483387
Ga 9.37011587 3.06198061 3.87609526 0.460528 -0.028910 -0.185426
Ga 7.61214813 4.58356936 1.81127419 -1.538865 1.301942 -0.568960
Ga 3.21511921 4.54614169 3.85579592 1.121605 -0.013337 1.083246
O 1.86662523 3.10757662 0.54067772 -0.377219 0.117066 -0.609839
O 9.00404239 3.08467826 5.05937982 -1.166539 0.278695 -0.778636
O 8.01099538 4.63923820 0.48904098 0.429937 -1.570812 -0.016148
O 2.87848590 4.64552236 5.10903112 -0.195980 -0.635186 0.082451
O 1.40947431 3.06439431 3.06093944 -2.054089 1.861579 -0.070301
O 9.53729397 3.10162283 2.53735971 0.493993 -0.346071 0.771868
O 7.53123856 4.62545655 3.16478578 -0.446195 -1.231261 -0.519587
O 3.39497771 4.55522222 2.48733168 -2.056615 -0.025510 0.377959
O -0.26160285 3.11337443 1.47125174 0.331318 -0.303222 0.320379
O 11.17015885 3.07649813 4.19823058 0.618174 1.525568 0.085673
O 5.80385027 4.58335812 1.44981873 -0.369802 0.208588 -0.749745
O 5.09108892 4.59600566 4.13236599 1.379413 -0.453710 -1.147186
Ga -1.35294199 3.15958019 10.17543323 -0.424750 -0.391756 -0.921769
Ga 9.43947589 3.03646638 6.86700450 0.651972 -0.044759 -0.305453
Ga 4.74055986 4.68438718 10.24953364 -0.235824 -0.242991 -0.038809
Ga 3.30464531 4.57555640 6.87227467 0.527473 1.141842 0.380103
Ga 0.17885721 3.08940053 7.45454221 -1.055970 0.090326 -0.483387
Ga 7.97919187 3.06198061 9.59173026 0.460528 -0.028910 -0.185426
Ga 6.22122413 4.58356936 7.52690919 -1.538865 1.301942 -0.568960
Ga 1.82419521 4.54614169 9.57143092 1.121605 -0.013337 1.083246
O 0.47570123 3.10757662 6.25631272 -0.377219 0.117066 -0.609839
O 7.61311839 3.08467826 10.77501482 -1.166539 0.278695 -0.778636
O 6.62007138 4.63923820 6.20467598 0.429937 -1.570812 -0.016148
O 1.48756190 4.64552236 10.82466612 -0.195980 -0.635186 0.082451
O 0.01855031 3.06439431 8.77657444 -2.054089 1.861579 -0.070301
O 8.14636997 3.10162283 8.25299471 0.493993 -0.346071 0.771868
O 6.14031456 4.62545655 8.88042078 -0.446195 -1.231261 -0.519587
O 2.00405371 4.55522222 8.20296668 -2.056615 -0.025510 0.377959
O -1.65252685 3.11337443 7.18688674 0.331318 -0.303222 0.320379
O 9.77923485 3.07649813 9.91386558 0.618174 1.525568 0.085673
O 4.41292627 4.58335812 7.16545373 -0.369802 0.208588 -0.749745
O 3.70016492 4.59600566 9.84800099 1.379413 -0.453710 -1.147186
Ga 12.50684301 0.07246019 4.45979823 -0.424750 -0.391756 -0.921769
Ga 23.29926089 -0.05065362 1.15136950 0.651972 -0.044759 -0.305453
Ga 18.60034486 1.59726718 4.53389864 -0.235824 -0.242991 -0.038809
Ga 17.16443031 1.48843640 1.15663967 0.527473 1.141842 0.380103
Ga 14.03864221 0.00228053 1.73890721 -1.055970 0.090326 -0.483387
Ga 21.83897687 -0.02513939 3.87609526 0.460528 -0.028910 -0.185426
Ga 20.08100913 1.49644936 1.81127419 -1.538865 1.301942 -0.568960
Ga 15.68398021 1.45902169 3.85579592 1.121605 -0.013337 1.083246
O 14.33548623 0.02045662 0.54067772 -0.377219 0.117066 -0.609839
O 21.47290339 -0.00244174 5.05937982 -1.166539 0.278695 -0.778636
O 20.47985638 1.55211820 0.48904098 0.429937 -1.570812 -0.016148
O 15.34734690 1.55840236 5.10903112 -0.195980 -0.635186 0.082451
O 13.87833531 -0.02272569 3.06093944 -2.054089 1.861579 -0.070301
O 22.00615497 0.01450283 2.53735971 0.493993 -0.346071 0.771868
O 20.00009956 1.53833655 3.16478578 -0.446195 -1.231261 -0.519587
O 15.86383871 1.46810222 2.48733168 -2.056615 -0.025510 0.377959
O 12.20725815 0.02625443 1.47125174 0.331318 -0.303222 0.320379
O 23.63901985 -0.01062187 4.19823058 0.618174 1.525568 0.085673
O 18.27271127 1.49623812 1.44981873 -0.369802 0.208588 -0.749745
O 17.55994992 1.50888566 4.13236599 1.379413 -0.453710 -1.147186
Ga 11.11591901 0.07246019 10.17543323 -0.424750 -0.391756 -0.921769
Ga 21.90833689 -0.05065362 6.86700450 0.651972 -0.044759 -0.305453
Ga 17.20942086 1.59726718 10.24953364 -0.235824 -0.242991 -0.038809
Ga 15.77350631 1.48843640 6.87227467 0.527473 1.141842 0.380103
Ga 12.64771821 0.00228053 7.45454221 -1.055970 0.090326 -0.483387
Ga 20.44805287 -0.02513939 9.59173026 0.460528 -0.028910 -0.185426
Ga 18.69008513 1.49644936 7.52690919 -1.538865 1.301942 -0.568960
Ga 14.29305621 1.45902169 9.57143092 1.121605 -0.013337 1.083246
O 12.94456223 0.02045662 6.25631272 -0.377219 0.117066 -0.609839
O 20.08197939 -0.00244174 10.77501482 -1.166539 0.278695 -0.778636
O 19.08893238 1.55211820 6.20467598 0.429937 -1.570812 -0.016148
O 13.95642290 1.55840236 10.82466612 -0.195980 -0.635186 0.082451
O 12.48741131 -0.02272569 8.77657444 -2.054089 1.861579 -0.070301
O 20.61523097 0.01450283 8.25299471 0.493993 -0.346071 0.771868
O 18.60917556 1.53833655 8.88042078 -0.446195 -1.231261 -0.519587
O 14.47291471 1.46810222 8.20296668 -2.056615 -0.025510 0.377959
O 10.81633415 0.02625443 7.18688674 0.331318 -0.303222 0.320379
O 22.24809585 -0.01062187 9.91386558 0.618174 1.525568 0.085673
O 16.88178727 1.49623812 7.16545373 -0.369802 0.208588 -0.749745
O 16.16902592 1.50888566 9.84800099 1.379413 -0.453710 -1.147186
Ga 12.50684301 3.15958019 4.45979823 -0.424750 -0.391756 -0.921769
Ga 23.29926089 3.03646638 1.15136950 0.651972 -0.044759 -0.305453
Ga 18.60034486 4.68438718 4.53389864 -0.235824 -0.242991 -0.038809
Ga 17.16443031 4.57555640 1.15663967 0.527473 1.141842 0.380103
Ga 14.03864221 3.08940053 1.73890721 -1.055970 0.090326 -0.483387
Ga 21.83897687 3.06198061 3.87609526 0.460528 -0.028910 -0.185426
Ga 20.08100913 4.58356936 1.81127419 -1.538865 1.301942 -0.568960
Ga 15.68398021 4.54614169 3.85579592 1.121605 -0.013337 1.083246
O 14.33548623 3.10757662 0.54067772 -0.377219 0.117066 -0.609839
O 21.47290339 3.08467826 5.05937982 -1.166539 0.278695 -0.778636
O 20.47985638 4.63923820 0.48904098 0.429937 -1.570812 -0.016148
O 15.34734690 4.64552236 5.10903112 -0.195980 -0.635186 0.082451
O 13.87833531 3.06439431 3.06093944 -2.054089 1.861579 -0.070301
O 22.00615497 3.10162283 2.53735971 0.493993 -0.346071 0.771868
O 20.00009956 4.62545655 3.16478578 -0.446195 -1.231261 -0.519587
O 15.86383871 4.55522222 2.48733168 -2.056615 -0.025510 0.377959
O 12.20725815 3.11337443 1.47125174 0.331318 -0.303222 0.320379
O 23.63901985 3.07649813 4.19823058 0.618174 1.525568 0.085673
O 18.27271127 4.58335812 1.44981873 -0.369802 0.208588 -0.749745
O 17.55994992 4.59600566 4.13236599 1.379413 -0.453710 -1.147186
Ga 11.11591901 3.15958019 10.17543323 -0.424750 -0.391756 -0.921769
Ga 21.90833689 3.03646638 6.86700450 0.651972 -0.044759 -0.305453
Ga 17.20942086 4.68438718 10.24953364 -0.235824 -0.242991 -0.038809
Ga 15.77350631 4.57555640 6.87227467 0.527473 1.141842 0.380103
Ga 12.64771821 3.08940053 7.45454221 -1.055970 0.090326 -0.483387
Ga 20.44805287 3.06198061 9.59173026 0.460528 -0.028910 -0.185426
Ga 18.69008513 4.58356936 7.52690919 -1.538865 1.301942 -0.568960
Ga 14.29305621 4.54614169 9.57143092 1.121605 -0.013337 1.083246
O 12.94456223 3.10757662 6.25631272 -0.377219 0.117066 -0.609839
O 20.08197939 3.08467826 10.77501482 -1.166539 0.278695 -0.778636
O 19.08893238 4.63923820 6.20467598 0.429937 -1.570812 -0.016148
O 13.95642290 4.64552236 10.82466612 -0.195980 -0.635186 0.082451
O 12.48741131 3.06439431 8.77657444 -2.054089 1.861579 -0.070301
O 20.61523097 3.10162283 8.25299471 0.493993 -0.346071 0.771868
O 18.60917556 4.62545655 8.88042078 -0.446195 -1.231261 -0.519587
O 14.47291471 4.55522222 8.20296668 -2.056615 -0.025510 0.377959
O 10.81633415 3.11337443 7.18688674 0.331318 -0.303222 0.320379
O 22.24809585 3.07649813 9.91386558 0.618174 1.525568 0.085673
O 16.88178727 4.58335812 7.16545373 -0.369802 0.208588 -0.749745
O 16.16902592 4.59600566 9.84800099 1.379413 -0.453710 -1.147186
159
Lattice="25.052734 0.000000 0.000000 0.000000 6.202715 0.000000 -2.794678 0.000000 11.483989" Properties=species:S:1:pos:R:3:force:R:3 Energy=-629.114305 Virial="-15.900747 1.081288 -12.806789 -1.621463 10.557284 1.248682 13.541885 -9.262097 -9.607417" pbc="T T T"
Ga 11.12381143 -0.04249574 1.19653764 0.728815 0.753117 -0.950766
Ga 6.27900794 1.59010798 4.61008515 -1.333847 0.229117 -0.957998
Ga 4.94611640 1.57386410 1.19243721 1.129247 0.032608 0.010834
Ga 1.55541319 -0.01412665 1.81767469 0.371482 1.569606 -1.748258
Ga 9.56957370 0.00673844 3.99056363 -1.033547 0.177076 -0.003522
Ga 7.77055982 1.59627392 1.85681993 -0.977244 -1.105172 0.039694
Ga 3.31348331 1.46580458 3.91354685 0.775753 0.601547 0.442488
O 1.97485367 -0.00091472 0.49977576 0.220246 -0.712917 -1.563273
O 9.18586268 0.03362480 5.22411655 1.232348 -0.234391 0.956354
O 8.17660031 1.53600580 0.52407752 -0.565485 -0.321381 0.877404
O 2.90597357 1.61529380 5.18935439 -0.081814 -0.022156 -1.265890
O 1.43603230 0.06085264 3.24396535 -0.342944 -0.275744 -0.119561
O 9.72441680 0.01614920 2.53699432 -1.042373 0.439158 -0.476894
O 7.61438159 1.56365315 3.15687132 -0.333589 0.938971 -0.008249
O 3.52600509 1.53209408 2.54600853 1.167923 0.968374 1.043423
O -0.29628166 -0.01035620 1.49341893 1.186563 -0.131076 -0.110020
O 11.41764460 0.03485189 4.21820469 -0.524903 0.651018 -1.421416
O 5.96062471 1.62823594 1.42993792 -0.296997 -0.093108 0.219550
O 5.14634825 1.57123509 4.27922715 -0.189144 -0.126333 -0.517877
Ga -1.36664421 0.05648882 10.27503905 -0.599026 -0.566391 0.913846
Ga 9.73288743 -0.04249574 6.91217264 0.728815 0.753117 -0.950766
Ga 4.88808394 1.59010798 10.32572015 -1.333847 0.229117 -0.957998
Ga 3.55519240 1.57386410 6.90807221 1.129247 0.032608 0.010834
Ga 0.16448919 -0.01412665 7.53330969 0.371482 1.569606 -1.748258
Ga 8.17864970 0.00673844 9.70619863 -1.033547 0.177076 -0.003522
Ga 6.37963582 1.59627392 7.57245493 -0.977244 -1.105172 0.039694
Ga 1.92255931 1.46580458 9.62918185 0.775753 0.601547 0.442488
O 0.58392967 -0.00091472 6.21541076 0.220246 -0.712917 -1.563273
O 7.79493868 0.03362480 10.93975155 1.232348 -0.234391 0.956354
O 6.78567631 1.53600580 6.23971252 -0.565485 -0.321381 0.877404
O 1.51504957 1.61529380 10.90498939 -0.081814 -0.022156 -1.265890
O 0.04510830 0.06085264 8.95960035 -0.342944 -0.275744 -0.119561
O 8.33349280 0.01614920 8.25262932 -1.042373 0.439158 -0.476894
O 6.22345759 1.56365315 8.87250632 -0.333589 0.938971 -0.008249
O 2.13508109 1.53209408 8.26164353 1.167923 0.968374 1.043423
O -1.68720566 -0.01035620 7.20905393 1.186563 -0.131076 -0.110020
O 10.02672060 0.03485189 9.93383969 -0.524903 0.651018 -1.421416
O 4.56970071 1.62823594 7.14557292 -0.296997 -0.093108 0.219550
O 3.75542425 1.57123509 9.99486215 -0.189144 -0.126333 -0.517877
Ga 0.02427979 3.14360882 4.55940405 -0.599026 -0.566391 0.913846
Ga 11.12381143 3.04462426 1.19653764 0.728815 0.753117 -0.950766
Ga 6.27900794 4.67722798 4.61008515 -1.333847 0.229117 -0.957998
Ga 4.94611640 4.66098410 1.19243721 1.129247 0.032608 0.010834
Ga 1.55541319 3.07299335 1.81767469 0.371482 1.569606 -1.748258
Ga 9.56957370 3.09385844 3.99056363 -1.033547 0.177076 -0.003522
Ga 7.77055982 4.68339392 1.85681993 -0.977244 -1.105172 0.039694
Ga 3.31348331 4.55292458 3.91354685 0.775753 0.601547 0.442488
O 1.97485367 3.08620528 0.49977576 0.220246 -0.712917 -1.563273
O 9.18586268 3.12074480 5.22411655 1.232348 -0.234391 0.956354
O 8.17660031 4.62312580 0.52407752 -0.565485 -0.321381 0.877404
O 2.90597357 4.70241380 5.18935439 -0.081814 -0.022156 -1.265890
O 1.43603230 3.14797264 3.24396535 -0.342944 -0.275744 -0.119561
O 9.72441680 3.10326920 2.53699432 -1.042373 0.439158 -0.476894
O 7.61438159 4.65077315 3.15687132 -0.333589 0.938971 -0.008249
O 3.52600509 4.61921408 2.54600853 1.167923 0.968374 1.043423
O -0.29628166 3.07676380 1.49341893 1.186563 -0.131076 -0.110020
O 11.41764460 3.12197189 4.21820469 -0.524903 0.651018 -1.421416
O 5.96062471 4.71535594 1.42993792 -0.296997 -0.093108 0.219550
O 5.14634825 4.65835509 4.27922715 -0.189144 -0.126333 -0.517877
Ga -1.36664421 3.14360882 10.27503905 -0.599026 -0.566391 0.913846
Ga 9.73288743 3.04462426 6.91217264 0.728815 0.753117 -0.950766
Ga 4.88808394 4.67722798 10.32572015 -1.333847 0.229117 -0.957998
Ga 3.55519240 4.66098410 6.90807221 1.129247 0.032608 0.010834
Ga 0.16448919 3.07299335 7.53330969 0.371482 1.569606 -1.748258
Ga 8.17864970 3.09385844 9.70619863 -1.033547 0.177076 -0.003522
Ga 6.37963582 4.68339392 7.57245493 -0.977244 -1.105172 0.039694
Ga 1.92255931 4.55292458 9.62918185 0.775753 0.601547 0.442488
O 0.58392967 3.08620528 6.21541076 0.220246 -0.712917 -1.563273
O 7.79493868 3.12074480 10.93975155 1.232348 -0.234391 0.956354
O 6.78567631 4.62312580 6.23971252 -0.565485 -0.321381 0.877404
O 1.51504957 4.70241380 10.90498939 -0.081814 -0.022156 -1.265890
O 0.04510830 3.14797264 8.95960035 -0.342944 -0.275744 -0.119561
O 8.33349280 3.10326920 8.25262932 -1.042373 0.439158 -0.476894
O 6.22345759 4.65077315 8.87250632 -0.333589 0.938971 -0.008249
O 2.13508109 4.61921408 8.26164353 1.167923 0.968374 1.043423
O -1.68720566 3.07676380 7.20905393 1.186563 -0.131076 -0.110020
O 10.02672060 3.12197189 9.93383969 -0.524903 0.651018 -1.421416
O 4.56970071 4.71535594 7.14557292 -0.296997 -0.093108 0.219550
O 3.75542425 4.65835509 9.99486215 -0.189144 -0.126333 -0.517877
Ga 12.49314079 0.05648882 4.55940405 -0.599026 -0.566391 0.913846
Ga 23.59267243 -0.04249574 1.19653764 0.728815 0.753117 -0.950766
Ga 18.74786894 1.59010798 4.61008515 -1.333847 0.229117 -0.957998
Ga 17.41497740 1.57386410 1.19243721 1.129247 0.032608 0.010834
Ga 14.02427419 -0.01412665 1.81767469 0.371482 1.569606 -1.748258
Ga 22.03843470 0.00673844 3.99056363 -1.033547 0.177076 -0.003522
Ga 20.23942082 1.59627392 1.85681993 -0.977244 -1.105172 0.039694
Ga 15.78234431 1.46580458 3.91354685 0.775753 0.601547 0.442488
O 14.44371467 -0.00091472 0.49977576 0.220246 -0.712917 -1.563273
O 21.65472368 0.03362480 5.22411655 1.232348 -0.234391 0.956354
O 20.64546131 1.53600580 0.52407752 -0.565485 -0.321381 0.877404
O 15.37483457 1.61529380 5.18935439 -0.081814 -0.022156 -1.265890
O 13.90489330 0.06085264 3.24396535 -0.342944 -0.275744 -0.119561
O 22.19327780 0.01614920 2.53699432 -1.042373 0.439158 -0.476894
O 20.08324259 1.56365315 3.15687132 -0.333589 0.938971 -0.008249
O 15.99486609 1.53209408 2.54600853 1.167923 0.968374 1.043423
O 12.17257934 -0.01035620 1.49341893 1.186563 -0.131076 -0.110020
O 23.88650560 0.03485189 4.21820469 -0.524903 0.651018 -1.421416
O 18.42948571 1.62823594 1.42993792 -0.296997 -0.093108 0.219550
O 17.61520925 1.57123509 4.27922715 -0.189144 -0.126333 -0.517877
Ga 11.10221679 0.05648882 10.27503905 -0.599026 -0.566391 0.913846
Ga 22.20174843 -0.04249574 6.91217264 0.728815 0.753117 -0.950766
Ga 17.35694494 1.59010798 10.32572015 -1.333847 0.229117 -0.957998
Ga 16.02405340 1.57386410 6.90807221 1.129247 0.032608 0.010834
Ga 12.63335019 -0.01412665 7.53330969 0.371482 1.569606 -1.748258
Ga 20.64751070 0.00673844 9.70619863 -1.033547 0.177076 -0.003522
Ga 18.84849682 1.59627392 7.57245493 -0.977244 -1.105172 0.039694
Ga 14.39142031 1.46580458 9.62918185 0.775753 0.601547 0.442488
O 13.05279067 -0.00091472 6.21541076 0.220246 -0.712917 -1.563273
O 20.26379968 0.03362480 10.93975155 1.232348 -0.234391 0.956354
O 19.25453731 1.53600580 6.23971252 -0.565485 -0.321381 0.877404
O 13.98391057 1.61529380 10.90498939 -0.081814 -0.022156 -1.265890
O 12.51396930 0.06085264 8.95960035 -0.342944 -0.275744 -0.119561
O 20.80235380 0.01614920 8.25262932 -1.042373 0.439158 -0.476894
O 18.69231859 1.56365315 8.87250632 -0.333589 0.938971 -0.008249
O 14.60394209 1.53209408 8.26164353 1.167923 0.968374 1.043423
O 10.78165534 -0.01035620 7.20905393 1.186563 -0.131076 -0.110020
O 22.49558160 0.03485189 9.93383969 -0.524903 0.651018 -1.421416
O 17.03856171 1.62823594 7.14557292 -0.296997 -0.093108 0.219550
O 16.22428525 1.57123509 9.99486215 -0.189144 -0.126333 -0.517877
Ga 12.49314079 3.14360882 4.55940405 -0.599026 -0.566391 0.913846
Ga 23.59267243 3.04462426 1.19653764 0.728815 0.753117 -0.950766
Ga 18.74786894 4.67722798 4.61008515 -1.333847 0.229117 -0.957998
Ga 17.41497740 4.66098410 1.19243721 1.129247 0.032608 0.010834
Ga 14.02427419 3.07299335 1.81767469 0.371482 1.569606 -1.748258
Ga 22.03843470 3.09385844 3.99056363 -1.033547 0.177076 -0.003522
Ga 20.23942082 4.68339392 1.85681993 -0.977244 -1.105172 0.039694
Ga 15.78234431 4.55292458 3.91354685 0.775753 0.601547 0.442488
O 14.44371467 3.08620528 0.49977576 0.220246 -0.712917 -1.563273
O 21.65472368 3.12074480 5.22411655 1.232348 -0.234391 0.956354
O 20.64546131 4.62312580 0.52407752 -0.565485 -0.321381 0.877404
O 15.37483457 4.70241380 5.18935439 -0.081814 -0.022156 -1.265890
O 13.90489330 3.14797264 3.24396535 -0.342944 -0.275744 -0.119561
O 22.19327780 3.10326920 2.53699432 -1.042373 0.439158 -0.476894
O 20.08324259 4.65077315 3.15687132 -0.333589 0.938971 -0.008249
O 15.99486609 4.61921408 2.54600853 1.167923 0.968374 1.043423
O 12.17257934 3.07676380 1.49341893 1.186563 -0.131076 -0.110020
O 23.88650560 3.12197189 4.21820469 -0.524903 0.651018 -1.421416
O 18.42948571 4.71535594 1.42993792 -0.296997 -0.093108 0.219550
O 17.61520925 4.65835509 4.27922715 -0.189144 -0.126333 -0.517877
Ga 11.10221679 3.14360882 10.27503905 -0.599026 -0.566391 0.913846
Ga 22.20174843 3.04462426 6.91217264 0.728815 0.753117 -0.950766
Ga 17.35694494 4.67722798 10.32572015 -1.333847 0.229117 -0.957998
Ga 16.02405340 4.66098410 6.90807221 1.129247 0.032608 0.010834
Ga 12.63335019 3.07299335 7.53330969 0.371482 1.569606 -1.748258
Ga 20.64751070 3.09385844 9.70619863 -1.033547 0.177076 -0.003522
Ga 18.84849682 4.68339392 7.57245493 -0.977244 -1.105172 0.039694
Ga 14.39142031 4.55292458 9.62918185 0.775753 0.601547 0.442488
O 13.05279067 3.08620528 6.21541076 0.220246 -0.712917 -1.563273
O 20.26379968 3.12074480 10.93975155 1.232348 -0.234391 0.956354
O 19.25453731 4.62312580 6.23971252 -0.565485 -0.321381 0.877404
O 13.98391057 4.70241380 10.90498939 -0.081814 -0.022156 -1.265890
O 12.51396930 3.14797264 8.95960035 -0.342944 -0.275744 -0.119561
O 20.80235380 3.10326920 8.25262932 -1.042373 0.439158 -0.476894
O 18.69231859 4.65077315 8.87250632 -0.333589 0.938971 -0.008249
O 14.60394209 4.61921408 8.26164353 1.167923 0.968374 1.043423
O 10.78165534 3.07676380 7.20905393 1.186563 -0.131076 -0.110020
O 22.49558160 3.12197189 9.93383969 -0.524903 0.651018 -1.421416
O 17.03856171 4.71535594 7.14557292 -0.296997 -0.093108 0.219550
O 16.22428525 4.65835509 9.99486215 -0.189144 -0.126333 -0.517877
159
Lattice="25.308003 0.000000 0.000000 0.000000 6.265916 0.000000 -2.823153 0.000000 11.601003" Properties=species:S:1:pos:R:3:force:R:3 Energy=-628.726928 Virial="-20.667652 -1.313851 2.311861 11.680967 -15.855515 -12.826180 3.413112 15.944361 10.388276" pbc="T T T"
Ga 11.25224496 0.01090791 1.21743790 2.112225 0.404681 -0.143385
Ga 6.31189598 1.57248450 4.54088400 -0.225509 0.126423 1.746205
Ga 4.80079607 1.57211219 1.23544653 0.268286 -0.136193 1.204834
Ga 1.57352458 -0.00253784 1.81501678 0.310113 -0.828544 -0.172821
Ga 9.64131447 -0.00887444 3.99485100 0.264075 -0.792543 1.144425
Ga 7.87299917 1.59650253 1.83035715 -0.428945 0.383405 0.218719
Ga 3.36469531 1.60202557 3.95691341 0.806460 -0.024703 0.760669
O 1.96894281 -0.01545907 0.55882806 -0.370394 -0.325774 0.175650
O 9.27402576 -0.03642815 5.25892888 0.227152 -0.336112 0.475311
O 8.19416053 1.55462836 0.48099240 -0.619561 0.231592 0.562006
O 3.00402502 1.60848348 5.22069624 0.058938 0.968518 0.555848
O 1.41861451 0.03596543 3.27277842 1.855265 1.174453 1.493507
O 9.84952023 0.02937219 2.53784887 -0.670212 -1.676504 -0.033564
O 7.73180784 1.54779492 3.20732814 0.496058 -0.032852 -1.252690
O 3.51538379 1.58038027 2.61036247 -0.176704 0.844538 -0.906692
O -0.30014131 0.02567722 1.51106023 -0.068856 0.070238 -0.660981
O 11.66067310 -0.07240130 4.28805552 -0.090750 -0.631499 0.479477
O 6.07521465 1.55239853 1.52036103 0.919277 1.127974 -1.641661
O 5.23537217 1.65068715 4.27105070 -1.064753 -0.181939 -0.817352
Ga -1.33843104 0.02669843 10.27623055 -0.150472 0.702233 0.673838
Ga 9.86132096 0.01090791 6.93307290 2.112225 0.404681 -0.143385
Ga 4.92097198 1.57248450 10.25651900 -0.225509 0.126423 1.746205
Ga 3.40987207 1.57211219 6.95108153 0.268286 -0.136193 1.204834
Ga 0.18260058 -0.00253784 7.53065178 0.310113 -0.828544 -0.172821
Ga 8.25039047 -0.00887444 9.71048600 0.264075 -0.792543 1.144425
Ga 6.48207517 1.59650253 7.54599215 -0.428945 0.383405 0.218719
Ga 1.97377131 1.60202557 9.67254841 0.806460 -0.024703 0.760669
O 0.57801881 -0.01545907 6.27446306 -0.370394 -0.325774 0.175650
O 7.88310176 -0.03642815 10.97456388 0.227152 -0.336112 0.475311
O 6.80323653 1.55462836 6.19662740 -0.619561 0.231592 0.562006
O 1.61310102 1.60848348 10.93633124 0.058938 0.968518 0.555848
O 0.02769051 0.03596543 8.98841342 1.855265 1.174453 1.493507
O 8.45859623 0.02937219 8.25348387 -0.670212 -1.676504 -0.033564
O 6.34088384 1.54779492 8.92296314 0.496058 -0.032852 -1.252690
O 2.12445979 1.58038027 8.32599747 -0.176704 0.844538 -0.906692
O -1.69106531 0.02567722 7.22669523 -0.068856 0.070238 -0.660981
O 10.26974910 -0.07240130 10.00369052 -0.090750 -0.631499 0.479477
O 4.68429065 1.55239853 7.23599603 0.919277 1.127974 -1.641661
O 3.84444817 1.65068715 9.98668570 -1.064753 -0.181939 -0.817352
Ga 0.05249296 3.11381843 4.56059555 -0.150472 0.702233 0.673838
Ga 11.25224496 3.09802791 1.21743790 2.112225 0.404681 -0.143385
Ga 6.31189598 4.65960450 4.54088400 -0.225509 0.126423 1.746205
Ga 4.80079607 4.65923219 1.23544653 0.268286 -0.136193 1.204834
Ga 1.57352458 3.08458216 1.81501678 0.310113 -0.828544 -0.172821
Ga 9.64131447 3.07824556 3.99485100 0.264075 -0.792543 1.144425
Ga 7.87299917 4.68362253 1.83035715 -0.428945 0.383405 0.218719
Ga 3.36469531 4.68914557 3.95691341 0.806460 -0.024703 0.760669
O 1.96894281 3.07166093 0.55882806 -0.370394 -0.325774 0.175650
O 9.27402576 3.05069185 5.25892888 0.227152 -0.336112 0.475311
O 8.19416053 4.64174836 0.48099240 -0.619561 0.231592 0.562006
O 3.00402502 4.69560348 5.22069624 0.058938 0.968518 0.555848
O 1.41861451 3.12308543 3.27277842 1.855265 1.174453 1.493507
O 9.84952023 3.11649219 2.53784887 -0.670212 -1.676504 -0.033564
O 7.73180784 4.63491492 3.20732814 0.496058 -0.032852 -1.252690
O 3.51538379 4.66750027 2.61036247 -0.176704 0.844538 -0.906692
O -0.30014131 3.11279722 1.51106023 -0.068856 0.070238 -0.660981
O 11.66067310 3.01471870 4.28805552 -0.090750 -0.631499 0.479477
O 6.07521465 4.63951853 1.52036103 0.919277 1.127974 -1.641661
O 5.23537217 4.73780715 4.27105070 -1.064753 -0.181939 -0.817352
Ga -1.33843104 3.11381843 10.27623055 -0.150472 0.702233 0.673838
Ga 9.86132096 3.09802791 6.93307290 2.112225 0.404681 -0.143385
Ga 4.92097198 4.65960450 10.25651900 -0.225509 0.126423 1.746205
Ga 3.40987207 4.65923219 6.95108153 0.268286 -0.136193 1.204834
Ga 0.18260058 3.08458216 7.53065178 0.310113 -0.828544 -0.172821
Ga 8.25039047 3.07824556 9.71048600 0.264075 -0.792543 1.144425
Ga 6.48207517 4.68362253 7.54599215 -0.428945 0.383405 0.218719
Ga 1.97377131 4.68914557 9.67254841 0.806460 -0.024703 0.760669
O 0.57801881 3.07166093 6.27446306 -0.370394 -0.325774 0.175650
O 7.88310176 3.05069185 10.97456388 0.227152 -0.336112 0.475311
O 6.80323653 4.64174836 6.19662740 -0.619561 0.231592 0.562006
O 1.61310102 4.69560348 10.93633124 0.058938 0.968518 0.555848
O 0.02769051 3.12308543 8.98841342 1.855265 1.174453 1.493507
O 8.45859623 3.11649219 8.25348387 -0.670212 -1.676504 -0.033564
O 6.34088384 4.63491492 8.92296314 0.496058 -0.032852 -1.252690
O 2.12445979 4.66750027 8.32599747 -0.176704 0.844538 -0.906692
O -1.69106531 3.11279722 7.22669523 -0.068856 0.070238 -0.660981
O 10.26974910 3.01471870 10.00369052 -0.090750 -0.631499 0.479477
O 4.68429065 4.63951853 7.23599603 0.919277 1.127974 -1.641661
O 3.84444817 4.73780715 9.98668570 -1.064753 -0.181939 -0.817352
Ga 12.52135396 0.02669843 4.56059555 -0.150472 0.702233 0.673838
Ga 23.72110596 0.01090791 1.21743790 2.112225 0.404681 -0.143385
Ga 18.78075698 1.57248450 4.54088400 -0.225509 0.126423 1.746205
Ga 17.26965707 1.57211219 1.23544653 0.268286 -0.136193 1.204834
Ga 14.04238558 -0.00253784 1.81501678 0.310113 -0.828544 -0.172821
Ga 22.11017547 -0.00887444 3.99485100 0.264075 -0.792543 1.144425
Ga 20.34186017 1.59650253 1.83035715 -0.428945 0.383405 0.218719
Ga 15.83355631 1.60202557 3.95691341 0.806460 -0.024703 0.760669
O 14.43780381 -0.01545907 0.55882806 -0.370394 -0.325774 0.175650
O 21.74288676 -0.03642815 5.25892888 0.227152 -0.336112 0.475311
O 20.66302153 1.55462836 0.48099240 -0.619561 0.231592 0.562006
O 15.47288602 1.60848348 5.22069624 0.058938 0.968518 0.555848
O 13.88747551 0.03596543 3.27277842 1.855265 1.174453 1.493507
O 22.31838123 0.02937219 2.53784887 -0.670212 -1.676504 -0.033564
O 20.20066884 1.54779492 3.20732814 0.496058 -0.032852 -1.252690
O 15.98424479 1.58038027 2.61036247 -0.176704 0.844538 -0.906692
O 12.16871969 0.02567722 1.51106023 -0.068856 0.070238 -0.660981
O 24.12953410 -0.07240130 4.28805552 -0.090750 -0.631499 0.479477
O 18.54407565 1.55239853 1.52036103 0.919277 1.127974 -1.641661
O 17.70423317 1.65068715 4.27105070 -1.064753 -0.181939 -0.817352
Ga 11.13042996 0.02669843 10.27623055 -0.150472 0.702233 0.673838
Ga 22.33018196 0.01090791 6.93307290 2.112225 0.404681 -0.143385
Ga 17.38983298 1.57248450 10.25651900 -0.225509 0.126423 1.746205
Ga 15.87873307 1.57211219 6.95108153 0.268286 -0.136193 1.204834
Ga 12.65146158 -0.00253784 7.53065178 0.310113 -0.828544 -0.172821
Ga 20.71925147 -0.00887444 9.71048600 0.264075 -0.792543 1.144425
Ga 18.95093617 1.59650253 7.54599215 -0.428945 0.383405 0.218719
Ga 14.44263231 1.60202557 9.67254841 0.806460 -0.024703 0.760669
O 13.04687981 -0.01545907 6.27446306 -0.370394 -0.325774 0.175650
O 20.35196276 -0.03642815 10.97456388 0.227152 -0.336112 0.475311
O 19.27209753 1.55462836 6.19662740 -0.619561 0.231592 0.562006
O 14.08196202 1.60848348 10.93633124 0.058938 0.968518 0.555848
O 12.49655151 0.03596543 8.98841342 1.855265 1.174453 1.493507
O 20.92745723 0.02937219 8.25348387 -0.670212 -1.676504 -0.033564
O 18.80974484 1.54779492 8.92296314 0.496058 -0.032852 -1.252690
O 14.59332079 1.58038027 8.32599747 -0.176704 0.844538 -0.906692
O 10.77779569 0.02567722 7.22669523 -0.068856 0.070238 -0.660981
O 22.73861010 -0.07240130 10.00369052 -0.090750 -0.631499 0.479477
O 17.15315165 1.55239853 7.23599603 0.919277 1.127974 -1.641661
O 16.31330917 1.65068715 9.98668570 -1.064753 -0.181939 -0.817352
Ga 12.52135396 3.11381843 4.56059555 -0.150472 0.702233 0.673838
Ga 23.72110596 3.09802791 1.21743790 2.112225 0.404681 -0.143385
Ga 18.78075698 4.65960450 4.54088400 -0.225509 0.126423 1.746205
Ga 17.26965707 4.65923219 1.23544653 0.268286 -0.136193 1.204834
Ga 14.04238558 3.08458216 1.81501678 0.310113 -0.828544 -0.172821
Ga 22.11017547 3.07824556 3.99485100 0.264075 -0.792543 1.144425
Ga 20.34186017 4.68362253 1.83035715 -0.428945 0.383405 0.218719
Ga 15.83355631 4.68914557 3.95691341 0.806460 -0.024703 0.760669
O 14.43780381 3.07166093 0.55882806 -0.370394 -0.325774 0.175650
O 21.74288676 3.05069185 5.25892888 0.227152 -0.336112 0.475311
O 20.66302153 4.64174836 0.48099240 -0.619561 0.231592 0.562006
O 15.47288602 4.69560348 5.22069624 0.058938 0.968518 0.555848
O 13.88747551 3.12308543 3.27277842 1.855265 1.174453 1.493507
O 22.31838123 3.11649219 2.53784887 -0.670212 -1.676504 -0.033564
O 20.20066884 4.63491492 3.20732814 0.496058 -0.032852 -1.252690
O 15.98424479 4.66750027 2.61036247 -0.176704 0.844538 -0.906692
O 12.16871969 3.11279722 1.51106023 -0.068856 0.070238 -0.660981
O 24.12953410 3.01471870 4.28805552 -0.090750 -0.631499 0.479477
O 18.54407565 4.63951853 1.52036103 0.919277 1.127974 -1.641661
O 17.70423317 4.73780715 4.27105070 -1.064753 -0.181939 -0.817352
Ga 11.13042996 3.11381843 10.27623055 -0.150472 0.702233 0.673838
Ga 22.33018196 3.09802791 6.93307290 2.112225 0.404681 -0.143385
Ga 17.38983298 4.65960450 10.25651900 -0.225509 0.126423 1.746205
Ga 15.87873307 4.65923219 6.95108153 0.268286 -0.136193 1.204834
Ga 12.65146158 3.08458216 7.53065178 0.310113 -0.828544 -0.172821
Ga 20.71925147 3.07824556 9.71048600 0.264075 -0.792543 1.144425
Ga 18.95093617 4.68362253 7.54599215 -0.428945 0.383405 0.218719
Ga 14.44263231 4.68914557 9.67254841 0.806460 -0.024703 0.760669
O 13.04687981 3.07166093 6.27446306 -0.370394 -0.325774 0.175650
O 20.35196276 3.05069185 10.97456388 0.227152 -0.336112 0.475311
O 19.27209753 4.64174836 6.19662740 -0.619561 0.231592 0.562006
O 14.08196202 4.69560348 10.93633124 0.058938 0.968518 0.555848
O 12.49655151 3.12308543 8.98841342 1.855265 1.174453 1.493507
O 20.92745723 3.11649219 8.25348387 -0.670212 -1.676504 -0.033564
O 18.80974484 4.63491492 8.92296314 0.496058 -0.032852 -1.252690
O 14.59332079 4.66750027 8.32599747 -0.176704 0.844538 -0.906692
O 10.77779569 3.11279722 7.22669523 -0.068856 0.070238 -0.660981
O 22.73861010 3.01471870 10.00369052 -0.090750 -0.631499 0.479477
O 17.15315165 4.63951853 7.23599603 0.919277 1.127974 -1.641661
O 16.31330917 4.73780715 9.98668570 -1.064753 -0.181939 -0.817352
159
Lattice="25.068703 0.000000 0.000000 0.000000 6.206669 0.000000 -2.796459 0.000000 11.491309" Properties=species:S:1:pos:R:3:force:R:3 Energy=-629.858567 Virial="-14.965683 4.669755 -3.371348 23.285943 -9.002490 -3.954201 9.946619 -1.044283 -35.077163" pbc="T T T"
Ga 11.04871717 -0.00984250 1.14642729 0.112539 1.820555 -0.240040
Ga 6.37733869 1.54463181 4.57042628 -0.197834 -0.842613 -0.482777
Ga 4.86768010 1.55341134 1.24795920 -0.750791 0.385935 0.664587
Ga 1.52371837 0.00778430 1.77558654 0.214818 -0.167719 -1.123631
Ga 9.53469643 -0.02447076 3.93888841 0.199087 -0.637353 1.090537
Ga 7.79862837 1.52397040 1.74903266 -1.120643 -0.380258 0.454231
Ga 3.31699699 1.49147843 3.97077212 -0.472691 0.212445 -0.994611
O 1.92749726 -0.05830206 0.52772354 1.124208 0.146778 -0.231633
O 9.18183574 0.01276698 5.25918136 -0.738182 0.263396 1.131227
O 8.11636889 1.55626829 0.53368659 0.415971 -0.511019 -0.763334
O 2.97159949 1.56019511 5.17548456 0.115240 -1.466702 1.247983
O 1.37546815 -0.03184103 3.24911558 0.734311 -0.456453 0.346482
O 9.74874383 0.07604763 2.53715352 0.672935 -0.618115 -0.499725
O 7.62707015 1.49111867 3.13394971 -0.220091 0.089984 0.205610
O 3.41734981 1.56235231 2.55992895 -1.118044 -1.068396 -0.716385
O -0.37105689 0.03580153 1.45156574 1.462397 -0.730193 -0.408780
O 11.44980265 0.06448883 4.31064063 -0.227641 -1.271078 -0.044136
O 5.94862462 1.51601955 1.38481557 1.255114 0.228142 0.750585
O 5.14798969 1.54322203 4.23527988 0.477635 1.255280 -0.634377
Ga -1.30199954 0.02968510 10.28415043 -0.210426 0.299967 1.211540
Ga 9.65779317 -0.00984250 6.86206229 0.112539 1.820555 -0.240040
Ga 4.98641469 1.54463181 10.28606128 -0.197834 -0.842613 -0.482777
Ga 3.47675610 1.55341134 6.96359420 -0.750791 0.385935 0.664587
Ga 0.13279437 0.00778430 7.49122154 0.214818 -0.167719 -1.123631
Ga 8.14377243 -0.02447076 9.65452341 0.199087 -0.637353 1.090537
Ga 6.40770437 1.52397040 7.46466766 -1.120643 -0.380258 0.454231
Ga 1.92607299 1.49147843 9.68640712 -0.472691 0.212445 -0.994611
O 0.53657326 -0.05830206 6.24335854 1.124208 0.146778 -0.231633
O 7.79091174 0.01276698 10.97481636 -0.738182 0.263396 1.131227
O 6.72544489 1.55626829 6.24932159 0.415971 -0.511019 -0.763334
O 1.58067549 1.56019511 10.89111956 0.115240 -1.466702 1.247983
O -0.01545585 -0.03184103 8.96475058 0.734311 -0.456453 0.346482
O 8.35781983 0.07604763 8.25278852 0.672935 -0.618115 -0.499725
O 6.23614615 1.49111867 8.84958471 -0.220091 0.089984 0.205610
O 2.02642581 1.56235231 8.27556395 -1.118044 -1.068396 -0.716385
O -1.76198089 0.03580153 7.16720074 1.462397 -0.730193 -0.408780
O 10.05887865 0.06448883 10.02627563 -0.227641 -1.271078 -0.044136
O 4.55770062 1.51601955 7.10045057 1.255114 0.228142 0.750585
O 3.75706569 1.54322203 9.95091488 0.477635 1.255280 -0.634377
Ga 0.08892446 3.11680510 4.56851543 -0.210426 0.299967 1.211540
Ga 11.04871717 3.07727750 1.14642729 0.112539 1.820555 -0.240040
Ga 6.37733869 4.63175181 4.57042628 -0.197834 -0.842613 -0.482777
Ga 4.86768010 4.64053134 1.24795920 -0.750791 0.385935 0.664587
Ga 1.52371837 3.09490430 1.77558654 0.214818 -0.167719 -1.123631
Ga 9.53469643 3.06264924 3.93888841 0.199087 -0.637353 1.090537
Ga 7.79862837 4.61109040 1.74903266 -1.120643 -0.380258 0.454231
Ga 3.31699699 4.57859843 3.97077212 -0.472691 0.212445 -0.994611
O 1.92749726 3.02881794 0.52772354 1.124208 0.146778 -0.231633
O 9.18183574 3.09988698 5.25918136 -0.738182 0.263396 1.131227
O 8.11636889 4.64338829 0.53368659 0.415971 -0.511019 -0.763334
O 2.97159949 4.64731511 5.17548456 0.115240 -1.466702 1.247983
O 1.37546815 3.05527897 3.24911558 0.734311 -0.456453 0.346482
O 9.74874383 3.16316763 2.53715352 0.672935 -0.618115 -0.499725
O 7.62707015 4.57823867 3.13394971 -0.220091 0.089984 0.205610
O 3.41734981 4.64947231 2.55992895 -1.118044 -1.068396 -0.716385
O -0.37105689 3.12292153 1.45156574 1.462397 -0.730193 -0.408780
O 11.44980265 3.15160883 4.31064063 -0.227641 -1.271078 -0.044136
O 5.94862462 4.60313955 1.38481557 1.255114 0.228142 0.750585
O 5.14798969 4.63034203 4.23527988 0.477635 1.255280 -0.634377
Ga -1.30199954 3.11680510 10.28415043 -0.210426 0.299967 1.211540
Ga 9.65779317 3.07727750 6.86206229 0.112539 1.820555 -0.240040
Ga 4.98641469 4.63175181 10.28606128 -0.197834 -0.842613 -0.482777
Ga 3.47675610 4.64053134 6.96359420 -0.750791 0.385935 0.664587
Ga 0.13279437 3.09490430 7.49122154 0.214818 -0.167719 -1.123631
Ga 8.14377243 3.06264924 9.65452341 0.199087 -0.637353 1.090537
Ga 6.40770437 4.61109040 7.46466766 -1.120643 -0.380258 0.454231
Ga 1.92607299 4.57859843 9.68640712 -0.472691 0.212445 -0.994611
O 0.53657326 3.02881794 6.24335854 1.124208 0.146778 -0.231633
O 7.79091174 3.09988698 10.97481636 -0.738182 0.263396 1.131227
O 6.72544489 4.64338829 6.24932159 0.415971 -0.511019 -0.763334
O 1.58067549 4.64731511 10.89111956 0.115240 -1.466702 1.247983
O -0.01545585 3.05527897 8.96475058 0.734311 -0.456453 0.346482
O 8.35781983 3.16316763 8.25278852 0.672935 -0.618115 -0.499725
O 6.23614615 4.57823867 8.84958471 -0.220091 0.089984 0.205610
O 2.02642581 4.64947231 8.27556395 -1.118044 -1.068396 -0.716385
O -1.76198089 3.12292153 7.16720074 1.462397 -0.730193 -0.408780
O 10.05887865 3.15160883 10.02627563 -0.227641 -1.271078 -0.044136
O 4.55770062 4.60313955 7.10045057 1.255114 0.228142 0.750585
O 3.75706569 4.63034203 9.95091488 0.477635 1.255280 -0.634377
Ga 12.55778546 0.02968510 4.56851543 -0.210426 0.299967 1.211540
Ga 23.51757817 -0.00984250 1.14642729 0.112539 1.820555 -0.240040
Ga 18.84619969 1.54463181 4.57042628 -0.197834 -0.842613 -0.482777
Ga 17.33654110 1.55341134 1.24795920 -0.750791 0.385935 0.664587
Ga 13.99257937 0.00778430 1.77558654 0.214818 -0.167719 -1.123631
Ga 22.00355743 -0.02447076 3.93888841 0.199087 -0.637353 1.090537
Ga 20.26748937 1.52397040 1.74903266 -1.120643 -0.380258 0.454231
Ga 15.78585799 1.49147843 3.97077212 -0.472691 0.212445 -0.994611
O 14.39635826 -0.05830206 0.52772354 1.124208 0.146778 -0.231633
O 21.65069674 0.01276698 5.25918136 -0.738182 0.263396 1.131227
O 20.58522989 1.55626829 0.53368659 0.415971 -0.511019 -0.763334
O 15.44046049 1.56019511 5.17548456 0.115240 -1.466702 1.247983
O 13.84432915 -0.03184103 3.24911558 0.734311 -0.456453 0.346482
O 22.21760483 0.07604763 2.53715352 0.672935 -0.618115 -0.499725
O 20.09593115 1.49111867 3.13394971 -0.220091 0.089984 0.205610
O 15.88621081 1.56235231 2.55992895 -1.118044 -1.068396 -0.716385
O 12.09780411 0.03580153 1.45156574 1.462397 -0.730193 -0.408780
O 23.91866365 0.06448883 4.31064063 -0.227641 -1.271078 -0.044136
O 18.41748562 1.51601955 1.38481557 1.255114 0.228142 0.750585
O 17.61685069 1.54322203 4.23527988 0.477635 1.255280 -0.634377
Ga 11.16686146 0.02968510 10.28415043 -0.210426 0.299967 1.211540
Ga 22.12665417 -0.00984250 6.86206229 0.112539 1.820555 -0.240040
Ga 17.45527569 1.54463181 10.28606128 -0.197834 -0.842613 -0.482777
Ga 15.94561710 1.55341134 6.96359420 -0.750791 0.385935 0.664587
Ga 12.60165537 0.00778430 7.49122154 0.214818 -0.167719 -1.123631
Ga 20.61263343 -0.02447076 9.65452341 0.199087 -0.637353 1.090537
Ga 18.87656537 1.52397040 7.46466766 -1.120643 -0.380258 0.454231
Ga 14.39493399 1.49147843 9.68640712 -0.472691 0.212445 -0.994611
O 13.00543426 -0.05830206 6.24335854 1.124208 0.146778 -0.231633
O 20.25977274 0.01276698 10.97481636 -0.738182 0.263396 1.131227
O 19.19430589 1.55626829 6.24932159 0.415971 -0.511019 -0.763334
O 14.04953649 1.56019511 10.89111956 0.115240 -1.466702 1.247983
O 12.45340515 -0.03184103 8.96475058 0.734311 -0.456453 0.346482
O 20.82668083 0.07604763 8.25278852 0.672935 -0.618115 -0.499725
O 18.70500715 1.49111867 8.84958471 -0.220091 0.089984 0.205610
O 14.49528681 1.56235231 8.27556395 -1.118044 -1.068396 -0.716385
O 10.70688011 0.03580153 7.16720074 1.462397 -0.730193 -0.408780
O 22.52773965 0.06448883 10.02627563 -0.227641 -1.271078 -0.044136
O 17.02656162 1.51601955 7.10045057 1.255114 0.228142 0.750585
O 16.22592669 1.54322203 9.95091488 0.477635 1.255280 -0.634377
Ga 12.55778546 3.11680510 4.56851543 -0.210426 0.299967 1.211540
Ga 23.51757817 3.07727750 1.14642729 0.112539 1.820555 -0.240040
Ga 18.84619969 4.63175181 4.57042628 -0.197834 -0.842613 -0.482777
Ga 17.33654110 4.64053134 1.24795920 -0.750791 0.385935 0.664587
Ga 13.99257937 3.09490430 1.77558654 0.214818 -0.167719 -1.123631
Ga 22.00355743 3.06264924 3.93888841 0.199087 -0.637353 1.090537
Ga 20.26748937 4.61109040 1.74903266 -1.120643 -0.380258 0.454231
Ga 15.78585799 4.57859843 3.97077212 -0.472691 0.212445 -0.994611
O 14.39635826 3.02881794 0.52772354 1.124208 0.146778 -0.231633
O 21.65069674 3.09988698 5.25918136 -0.738182 0.263396 1.131227
O 20.58522989 4.64338829 0.53368659 0.415971 -0.511019 -0.763334
O 15.44046049 4.64731511 5.17548456 0.115240 -1.466702 1.247983
O 13.84432915 3.05527897 3.24911558 0.734311 -0.456453 0.346482
O 22.21760483 3.16316763 2.53715352 0.672935 -0.618115 -0.499725
O 20.09593115 4.57823867 3.13394971 -0.220091 0.089984 0.205610
O 15.88621081 4.64947231 2.55992895 -1.118044 -1.068396 -0.716385
O 12.09780411 3.12292153 1.45156574 1.462397 -0.730193 -0.408780
O 23.91866365 3.15160883 4.31064063 -0.227641 -1.271078 -0.044136
O 18.41748562 4.60313955 1.38481557 1.255114 0.228142 0.750585
O 17.61685069 4.63034203 4.23527988 0.477635 1.255280 -0.634377
Ga 11.16686146 3.11680510 10.28415043 -0.210426 0.299967 1.211540
Ga 22.12665417 3.07727750 6.86206229 0.112539 1.820555 -0.240040
Ga 17.45527569 4.63175181 10.28606128 -0.197834 -0.842613 -0.482777
Ga 15.94561710 4.64053134 6.96359420 -0.750791 0.385935 0.664587
Ga 12.60165537 3.09490430 7.49122154 0.214818 -0.167719 -1.123631
Ga 20.61263343 3.06264924 9.65452341 0.199087 -0.637353 1.090537
Ga 18.87656537 4.61109040 7.46466766 -1.120643 -0.380258 0.454231
Ga 14.39493399 4.57859843 9.68640712 -0.472691 0.212445 -0.994611
O 13.00543426 3.02881794 6.24335854 1.124208 0.146778 -0.231633
O 20.25977274 3.09988698 10.97481636 -0.738182 0.263396 1.131227
O 19.19430589 4.64338829 6.24932159 0.415971 -0.511019 -0.763334
O 14.04953649 4.64731511 10.89111956 0.115240 -1.466702 1.247983
O 12.45340515 3.05527897 8.96475058 0.734311 -0.456453 0.346482
O 20.82668083 3.16316763 8.25278852 0.672935 -0.618115 -0.499725
O 18.70500715 4.57823867 8.84958471 -0.220091 0.089984 0.205610
O 14.49528681 4.64947231 8.27556395 -1.118044 -1.068396 -0.716385
O 10.70688011 3.12292153 7.16720074 1.462397 -0.730193 -0.408780
O 22.52773965 3.15160883 10.02627563 -0.227641 -1.271078 -0.044136
O 17.02656162 4.60313955 7.10045057 1.255114 0.228142 0.750585
O 16.22592669 4.63034203 9.95091488 0.477635 1.255280 -0.634377
159
Lattice="25.188275 0.000000 0.000000 0.000000 6.236273 0.000000 -2.809798 0.000000 11.546120" Properties=species:S:1:pos:R:3:force:R:3 Energy=-628.749637 Virial="0.882182 23.123171 -0.316245 16.205947 36.638320 0.013084 18.361677 8.022965 -11.002199" pbc="T T T"
Ga 11.21208511 0.04704700 1.11642689 0.308732 0.928995 -0.114596
Ga 6.32877417 1.58942588 4.60253599 -0.353341 -0.895588 -0.572411
Ga 4.89419702 1.56140238 1.15599486 0.355592 0.661340 0.347795
Ga 1.48812703 -0.02582278 1.92102055 -0.423950 0.585751 0.496041
Ga 9.61380141 -0.07837561 3.98847050 -1.720251 0.181573 -0.224056
Ga 7.88729841 1.61056131 1.83273529 0.515848 -0.105736 0.762191
Ga 3.36998243 1.63267702 3.92934559 0.026355 -1.543160 0.438809
O 1.89562363 -0.04378346 0.53203723 -0.094837 -0.655641 -0.231819
O 9.31319762 0.02112273 5.24994034 0.424436 1.064693 0.845232
O 8.15767443 1.53134086 0.46924171 -0.208030 0.199796 -1.780750
O 3.00564147 1.62249420 5.26157533 0.508898 -0.427149 -1.312815
O 1.35538040 0.05928090 3.21123733 0.149798 1.192182 -0.593829
O 9.74580817 -0.03857617 2.53448689 -0.097681 0.002353 0.566578
O 7.69390407 1.55261457 3.16486079 1.292710 0.382148 0.340640
O 3.54585011 1.55304410 2.52314300 0.060198 1.197256 0.641410
O -0.26486534 -0.04733625 1.41274837 0.858178 1.363553 0.059634
O 11.54941532 0.07565551 4.27667286 -1.032106 -0.067164 -1.752705
O 5.98595184 1.51320175 1.47812368 0.272531 1.295811 -0.457952
O 5.18241953 1.55498320 4.31152704 -0.041004 -0.766186 -0.949924
Ga -1.34700990 -0.00673233 10.35196566 -0.188065 -0.388461 -0.878320
Ga 9.82116111 0.04704700 6.83206189 0.308732 0.928995 -0.114596
Ga 4.93785017 1.58942588 10.31817099 -0.353341 -0.895588 -0.572411
Ga 3.50327302 1.56140238 6.87162986 0.355592 0.661340 0.347795
Ga 0.09720303 -0.02582278 7.63665555 -0.423950 0.585751 0.496041
Ga 8.22287741 -0.07837561 9.70410550 -1.720251 0.181573 -0.224056
Ga 6.49637441 1.61056131 7.54837029 0.515848 -0.105736 0.762191
Ga 1.97905843 1.63267702 9.64498059 0.026355 -1.543160 0.438809
O 0.50469963 -0.04378346 6.24767223 -0.094837 -0.655641 -0.231819
O 7.92227362 0.02112273 10.96557534 0.424436 1.064693 0.845232
O 6.76675043 1.53134086 6.18487671 -0.208030 0.199796 -1.780750
O 1.61471747 1.62249420 10.97721033 0.508898 -0.427149 -1.312815
O -0.03554360 0.05928090 8.92687233 0.149798 1.192182 -0.593829
O 8.35488417 -0.03857617 8.25012189 -0.097681 0.002353 0.566578
O 6.30298007 1.55261457 8.88049579 1.292710 0.382148 0.340640
O 2.15492611 1.55304410 8.23877800 0.060198 1.197256 0.641410
O -1.65578934 -0.04733625 7.12838337 0.858178 1.363553 0.059634
O 10.15849132 0.07565551 9.99230786 -1.032106 -0.067164 -1.752705
O 4.59502784 1.51320175 7.19375868 0.272531 1.295811 -0.457952
O 3.79149553 1.55498320 10.02716204 -0.041004 -0.766186 -0.949924
Ga 0.04391410 3.08038767 4.63633066 -0.188065 -0.388461 -0.878320
Ga 11.21208511 3.13416700 1.11642689 0.308732 0.928995 -0.114596
Ga 6.32877417 4.67654588 4.60253599 -0.353341 -0.895588 -0.572411
Ga 4.89419702 4.64852238 1.15599486 0.355592 0.661340 0.347795
Ga 1.48812703 3.06129722 1.92102055 -0.423950 0.585751 0.496041
Ga 9.61380141 3.00874439 3.98847050 -1.720251 0.181573 -0.224056
Ga 7.88729841 4.69768131 1.83273529 0.515848 -0.105736 0.762191
Ga 3.36998243 4.71979702 3.92934559 0.026355 -1.543160 0.438809
O 1.89562363 3.04333654 0.53203723 -0.094837 -0.655641 -0.231819
O 9.31319762 3.10824273 5.24994034 0.424436 1.064693 0.845232
O 8.15767443 4.61846086 0.46924171 -0.208030 0.199796 -1.780750
O 3.00564147 4.70961420 5.26157533 0.508898 -0.427149 -1.312815
O 1.35538040 3.14640090 3.21123733 0.149798 1.192182 -0.593829
O 9.74580817 3.04854383 2.53448689 -0.097681 0.002353 0.566578
O 7.69390407 4.63973457 3.16486079 1.292710 0.382148 0.340640
O 3.54585011 4.64016410 2.52314300 0.060198 1.197256 0.641410
O -0.26486534 3.03978375 1.41274837 0.858178 1.363553 0.059634
O 11.54941532 3.16277551 4.27667286 -1.032106 -0.067164 -1.752705
O 5.98595184 4.60032175 1.47812368 0.272531 1.295811 -0.457952
O 5.18241953 4.64210320 4.31152704 -0.041004 -0.766186 -0.949924
Ga -1.34700990 3.08038767 10.35196566 -0.188065 -0.388461 -0.878320
Ga 9.82116111 3.13416700 6.83206189 0.308732 0.928995 -0.114596
Ga 4.93785017 4.67654588 10.31817099 -0.353341 -0.895588 -0.572411
Ga 3.50327302 4.64852238 6.87162986 0.355592 0.661340 0.347795
Ga 0.09720303 3.06129722 7.63665555 -0.423950 0.585751 0.496041
Ga 8.22287741 3.00874439 9.70410550 -1.720251 0.181573 -0.224056
Ga 6.49637441 4.69768131 7.54837029 0.515848 -0.105736 0.762191
Ga 1.97905843 4.71979702 9.64498059 0.026355 -1.543160 0.438809
O 0.50469963 3.04333654 6.24767223 -0.094837 -0.655641 -0.231819
O 7.92227362 3.10824273 10.96557534 0.424436 1.064693 0.845232
O 6.76675043 4.61846086 6.18487671 -0.208030 0.199796 -1.780750
O 1.61471747 4.70961420 10.97721033 0.508898 -0.427149 -1.312815
O -0.03554360 3.14640090 8.92687233 0.149798 1.192182 -0.593829
O 8.35488417 3.04854383 8.25012189 -0.097681 0.002353 0.566578
O 6.30298007 4.63973457 8.88049579 1.292710 0.382148 0.340640
O 2.15492611 4.64016410 8.23877800 0.060198 1.197256 0.641410
O -1.65578934 3.03978375 7.12838337 0.858178 1.363553 0.059634
O 10.15849132 3.16277551 9.99230786 -1.032106 -0.067164 -1.752705
O 4.59502784 4.60032175 7.19375868 0.272531 1.295811 -0.457952
O 3.79149553 4.64210320 10.02716204 -0.041004 -0.766186 -0.949924
Ga 12.51277510 -0.00673233 4.63633066 -0.188065 -0.388461 -0.878320
Ga 23.68094611 0.04704700 1.11642689 0.308732 0.928995 -0.114596
Ga 18.79763517 1.58942588 4.60253599 -0.353341 -0.895588 -0.572411
Ga 17.36305802 1.56140238 1.15599486 0.355592 0.661340 0.347795
Ga 13.95698803 -0.02582278 1.92102055 -0.423950 0.585751 0.496041
Ga 22.08266241 -0.07837561 3.98847050 -1.720251 0.181573 -0.224056
Ga 20.35615941 1.61056131 1.83273529 0.515848 -0.105736 0.762191
Ga 15.83884343 1.63267702 3.92934559 0.026355 -1.543160 0.438809
O 14.36448463 -0.04378346 0.53203723 -0.094837 -0.655641 -0.231819
O 21.78205862 0.02112273 5.24994034 0.424436 1.064693 0.845232
O 20.62653543 1.53134086 0.46924171 -0.208030 0.199796 -1.780750
O 15.47450247 1.62249420 5.26157533 0.508898 -0.427149 -1.312815
O 13.82424140 0.05928090 3.21123733 0.149798 1.192182 -0.593829
O 22.21466917 -0.03857617 2.53448689 -0.097681 0.002353 0.566578
O 20.16276507 1.55261457 3.16486079 1.292710 0.382148 0.340640
O 16.01471111 1.55304410 2.52314300 0.060198 1.197256 0.641410
O 12.20399566 -0.04733625 1.41274837 0.858178 1.363553 0.059634
O 24.01827632 0.07565551 4.27667286 -1.032106 -0.067164 -1.752705
O 18.45481284 1.51320175 1.47812368 0.272531 1.295811 -0.457952
O 17.65128053 1.55498320 4.31152704 -0.041004 -0.766186 -0.949924
Ga 11.12185110 -0.00673233 10.35196566 -0.188065 -0.388461 -0.878320
Ga 22.29002211 0.04704700 6.83206189 0.308732 0.928995 -0.114596
Ga 17.40671117 1.58942588 10.31817099 -0.353341 -0.895588 -0.572411
Ga 15.97213402 1.56140238 6.87162986 0.355592 0.661340 0.347795
Ga 12.56606403 -0.02582278 7.63665555 -0.423950 0.585751 0.496041
Ga 20.69173841 -0.07837561 9.70410550 -1.720251 0.181573 -0.224056
Ga 18.96523541 1.61056131 7.54837029 0.515848 -0.105736 0.762191
Ga 14.44791943 1.63267702 9.64498059 0.026355 -1.543160 0.438809
O 12.97356063 -0.04378346 6.24767223 -0.094837 -0.655641 -0.231819
O 20.39113462 0.02112273 10.96557534 0.424436 1.064693 0.845232
O 19.23561143 1.53134086 6.18487671 -0.208030 0.199796 -1.780750
O 14.08357847 1.62249420 10.97721033 0.508898 -0.427149 -1.312815
O 12.43331740 0.05928090 8.92687233 0.149798 1.192182 -0.593829
O 20.82374517 -0.03857617 8.25012189 -0.097681 0.002353 0.566578
O 18.77184107 1.55261457 8.88049579 1.292710 0.382148 0.340640
O 14.62378711 1.55304410 8.23877800 0.060198 1.197256 0.641410
O 10.81307166 -0.04733625 7.12838337 0.858178 1.363553 0.059634
O 22.62735232 0.07565551 9.99230786 -1.032106 -0.067164 -1.752705
O 17.06388884 1.51320175 7.19375868 0.272531 1.295811 -0.457952
O 16.26035653 1.55498320 10.02716204 -0.041004 -0.766186 -0.949924
Ga 12.51277510 3.08038767 4.63633066 -0.188065 -0.388461 -0.878320
Ga 23.68094611 3.13416700 1.11642689 0.308732 0.928995 -0.114596
Ga 18.79763517 4.67654588 4.60253599 -0.353341 -0.895588 -0.572411
Ga 17.36305802 4.64852238 1.15599486 0.355592 0.661340 0.347795
Ga 13.95698803 3.06129722 1.92102055 -0.423950 0.585751 0.496041
Ga 22.08266241 3.00874439 3.98847050 -1.720251 0.181573 -0.224056
Ga 20.35615941 4.69768131 1.83273529 0.515848 -0.105736 0.762191
Ga 15.83884343 4.71979702 3.92934559 0.026355 -1.543160 0.438809
O 14.36448463 3.04333654 0.53203723 -0.094837 -0.655641 -0.231819
O 21.78205862 3.10824273 5.24994034 0.424436 1.064693 0.845232
O 20.62653543 4.61846086 0.46924171 -0.208030 0.199796 -1.780750
O 15.47450247 4.70961420 5.26157533 0.508898 -0.427149 -1.312815
O 13.82424140 3.14640090 3.21123733 0.149798 1.192182 -0.593829
O 22.21466917 3.04854383 2.53448689 -0.097681 0.002353 0.566578
O 20.16276507 4.63973457 3.16486079 1.292710 0.382148 0.340640
O 16.01471111 4.64016410 2.52314300 0.060198 1.197256 0.641410
O 12.20399566 3.03978375 1.41274837 0.858178 1.363553 0.059634
O 24.01827632 3.16277551 4.27667286 -1.032106 -0.067164 -1.752705
O 18.45481284 4.60032175 1.47812368 0.272531 1.295811 -0.457952
O 17.65128053 4.64210320 4.31152704 -0.041004 -0.766186 -0.949924
Ga 11.12185110 3.08038767 10.35196566 -0.188065 -0.388461 -0.878320
Ga 22.29002211 3.13416700 6.83206189 0.308732 0.928995 -0.114596
Ga 17.40671117 4.67654588 10.31817099 -0.353341 -0.895588 -0.572411
Ga 15.97213402 4.64852238 6.87162986 0.355592 0.661340 0.347795
Ga 12.56606403 3.06129722 7.63665555 -0.423950 0.585751 0.496041
Ga 20.69173841 3.00874439 9.70410550 -1.720251 0.181573 -0.224056
Ga 18.96523541 4.69768131 7.54837029 0.515848 -0.105736 0.762191
Ga 14.44791943 4.71979702 9.64498059 0.026355 -1.543160 0.438809
O 12.97356063 3.04333654 6.24767223 -0.094837 -0.655641 -0.231819
O 20.39113462 3.10824273 10.96557534 0.424436 1.064693 0.845232
O 19.23561143 4.61846086 6.18487671 -0.208030 0.199796 -1.780750
O 14.08357847 4.70961420 10.97721033 0.508898 -0.427149 -1.312815
O 12.43331740 3.14640090 8.92687233 0.149798 1.192182 -0.593829
O 20.82374517 3.04854383 8.25012189 -0.097681 0.002353 0.566578
O 18.77184107 4.63973457 8.88049579 1.292710 0.382148 0.340640
O 14.62378711 4.64016410 8.23877800 0.060198 1.197256 0.641410
O 10.81307166 3.03978375 7.12838337 0.858178 1.363553 0.059634
O 22.62735232 3.16277551 9.99230786 -1.032106 -0.067164 -1.752705
O 17.06388884 4.60032175 7.19375868 0.272531 1.295811 -0.457952
O 16.26035653 4.64210320 10.02716204 -0.041004 -0.766186 -0.949924
159
Lattice="24.477867 0.000000 0.000000 0.000000 6.060386 0.000000 -2.730550 0.000000 11.220475" Properties=species:S:1:pos:R:3:force:R:3 Energy=-630.475052 Virial="21.646632 -18.901620 -6.299001 -0.316867 37.249143 9.702603 18.340285 -6.982111 0.043631" pbc="T T T"
Ga 10.91482785 0.02243678 1.14052321 0.315682 0.205851 -2.022430
Ga 6.17012041 1.50174373 4.50482035 -0.591953 0.427393 -0.432015
Ga 4.74620153 1.51080442 1.17025110 -0.524332 -0.345866 0.718163
Ga 1.44929028 -0.04507070 1.71498018 -0.128927 -0.145000 -0.824891
Ga 9.36725047 0.06930060 3.93675260 1.084795 -0.266507 0.447804
Ga 7.65711447 1.53513029 1.69069487 -1.261158 0.619093 1.376945
Ga 3.22035870 1.48358516 3.82266669 -0.688692 -0.416943 -0.490929
O 1.87212309 -0.01888362 0.44819066 -0.374289 -0.914490 0.220022
O 9.02472564 -0.04290972 5.09244500 -1.213902 -0.139679 -0.400838
O 8.08127925 1.47832112 0.42615115 0.735170 0.542047 0.353100
O 2.86390197 1.55913489 5.16120902 -0.032452 1.155781 0.280566
O 1.30632958 0.01986797 3.11189994 0.377751 1.046113 0.103984
O 9.51390858 0.10577373 2.41960661 1.194107 0.047948 -0.338610
O 7.48512825 1.53380423 3.17394381 0.270171 1.062515 0.278889
O 3.40259874 1.52741853 2.46405948 1.180172 -0.899062 1.224585
O -0.28978953 -0.01372769 1.46108418 1.074743 -0.492841 0.094687
O 11.15942827 0.01508402 4.17284596 -1.623343 0.412589 -0.469663
O 5.86395352 1.51304076 1.36530000 -0.077029 1.108281 1.083393
O 5.10522342 1.47886722 4.14786582 0.344709 -0.189907 0.709585
Ga -1.37168240 -0.01480044 10.16317852 -0.864332 0.605223 -0.933629
Ga 9.52390385 0.02243678 6.85615821 0.315682 0.205851 -2.022430
Ga 4.77919641 1.50174373 10.22045535 -0.591953 0.427393 -0.432015
Ga 3.35527753 1.51080442 6.88588610 -0.524332 -0.345866 0.718163
Ga 0.05836628 -0.04507070 7.43061518 -0.128927 -0.145000 -0.824891
Ga 7.97632647 0.06930060 9.65238760 1.084795 -0.266507 0.447804
Ga 6.26619047 1.53513029 7.40632987 -1.261158 0.619093 1.376945
Ga 1.82943470 1.48358516 9.53830169 -0.688692 -0.416943 -0.490929
O 0.48119909 -0.01888362 6.16382566 -0.374289 -0.914490 0.220022
O 7.63380164 -0.04290972 10.80808000 -1.213902 -0.139679 -0.400838
O 6.69035525 1.47832112 6.14178615 0.735170 0.542047 0.353100
O 1.47297797 1.55913489 10.87684402 -0.032452 1.155781 0.280566
O -0.08459442 0.01986797 8.82753494 0.377751 1.046113 0.103984
O 8.12298458 0.10577373 8.13524161 1.194107 0.047948 -0.338610
O 6.09420425 1.53380423 8.88957881 0.270171 1.062515 0.278889
O 2.01167474 1.52741853 8.17969448 1.180172 -0.899062 1.224585
O -1.68071353 -0.01372769 7.17671918 1.074743 -0.492841 0.094687
O 9.76850427 0.01508402 9.88848096 -1.623343 0.412589 -0.469663
O 4.47302952 1.51304076 7.08093500 -0.077029 1.108281 1.083393
O 3.71429942 1.47886722 9.86350082 0.344709 -0.189907 0.709585
Ga 0.01924160 3.07231956 4.44754352 -0.864332 0.605223 -0.933629
Ga 10.91482785 3.10955678 1.14052321 0.315682 0.205851 -2.022430
Ga 6.17012041 4.58886373 4.50482035 -0.591953 0.427393 -0.432015
Ga 4.74620153 4.59792442 1.17025110 -0.524332 -0.345866 0.718163
Ga 1.44929028 3.04204930 1.71498018 -0.128927 -0.145000 -0.824891
Ga 9.36725047 3.15642060 3.93675260 1.084795 -0.266507 0.447804
Ga 7.65711447 4.62225029 1.69069487 -1.261158 0.619093 1.376945
Ga 3.22035870 4.57070516 3.82266669 -0.688692 -0.416943 -0.490929
O 1.87212309 3.06823638 0.44819066 -0.374289 -0.914490 0.220022
O 9.02472564 3.04421028 5.09244500 -1.213902 -0.139679 -0.400838
O 8.08127925 4.56544112 0.42615115 0.735170 0.542047 0.353100
O 2.86390197 4.64625489 5.16120902 -0.032452 1.155781 0.280566
O 1.30632958 3.10698797 3.11189994 0.377751 1.046113 0.103984
O 9.51390858 3.19289373 2.41960661 1.194107 0.047948 -0.338610
O 7.48512825 4.62092423 3.17394381 0.270171 1.062515 0.278889
O 3.40259874 4.61453853 2.46405948 1.180172 -0.899062 1.224585
O -0.28978953 3.07339231 1.46108418 1.074743 -0.492841 0.094687
O 11.15942827 3.10220402 4.17284596 -1.623343 0.412589 -0.469663
O 5.86395352 4.60016076 1.36530000 -0.077029 1.108281 1.083393
O 5.10522342 4.56598722 4.14786582 0.344709 -0.189907 0.709585
Ga -1.37168240 3.07231956 10.16317852 -0.864332 0.605223 -0.933629
Ga 9.52390385 3.10955678 6.85615821 0.315682 0.205851 -2.022430
Ga 4.77919641 4.58886373 10.22045535 -0.591953 0.427393 -0.432015
Ga 3.35527753 4.59792442 6.88588610 -0.524332 -0.345866 0.718163
Ga 0.05836628 3.04204930 7.43061518 -0.128927 -0.145000 -0.824891
Ga 7.97632647 3.15642060 9.65238760 1.084795 -0.266507 0.447804
Ga 6.26619047 4.62225029 7.40632987 -1.261158 0.619093 1.376945
Ga 1.82943470 4.57070516 9.53830169 -0.688692 -0.416943 -0.490929
O 0.48119909 3.06823638 6.16382566 -0.374289 -0.914490 0.220022
O 7.63380164 3.04421028 10.80808000 -1.213902 -0.139679 -0.400838
O 6.69035525 4.56544112 6.14178615 0.735170 0.542047 0.353100
O 1.47297797 4.64625489 10.87684402 -0.032452 1.155781 0.280566
O -0.08459442 3.10698797 8.82753494 0.377751 1.046113 0.103984
O 8.12298458 3.19289373 8.13524161 1.194107 0.047948 -0.338610
O 6.09420425 4.62092423 8.88957881 0.270171 1.062515 0.278889
O 2.01167474 4.61453853 8.17969448 1.180172 -0.899062 1.224585
O -1.68071353 3.07339231 7.17671918 1.074743 -0.492841 0.094687
O 9.76850427 3.10220402 9.88848096 -1.623343 0.412589 -0.469663
O 4.47302952 4.60016076 7.08093500 -0.077029 1.108281 1.083393
O 3.71429942 4.56598722 9.86350082 0.344709 -0.189907 0.709585
Ga 12.48810260 -0.01480044 4.44754352 -0.864332 0.605223 -0.933629
Ga 23.38368885 0.02243678 1.14052321 0.315682 0.205851 -2.022430
Ga 18.63898141 1.50174373 4.50482035 -0.591953 0.427393 -0.432015
Ga 17.21506253 1.51080442 1.17025110 -0.524332 -0.345866 0.718163
Ga 13.91815128 -0.04507070 1.71498018 -0.128927 -0.145000 -0.824891
Ga 21.83611147 0.06930060 3.93675260 1.084795 -0.266507 0.447804
Ga 20.12597547 1.53513029 1.69069487 -1.261158 0.619093 1.376945
Ga 15.68921970 1.48358516 3.82266669 -0.688692 -0.416943 -0.490929
O 14.34098409 -0.01888362 0.44819066 -0.374289 -0.914490 0.220022
O 21.49358664 -0.04290972 5.09244500 -1.213902 -0.139679 -0.400838
O 20.55014025 1.47832112 0.42615115 0.735170 0.542047 0.353100
O 15.33276297 1.55913489 5.16120902 -0.032452 1.155781 0.280566
O 13.77519058 0.01986797 3.11189994 0.377751 1.046113 0.103984
O 21.98276958 0.10577373 2.41960661 1.194107 0.047948 -0.338610
O 19.95398925 1.53380423 3.17394381 0.270171 1.062515 0.278889
O 15.87145974 1.52741853 2.46405948 1.180172 -0.899062 1.224585
O 12.17907147 -0.01372769 1.46108418 1.074743 -0.492841 0.094687
O 23.62828927 0.01508402 4.17284596 -1.623343 0.412589 -0.469663
O 18.33281452 1.51304076 1.36530000 -0.077029 1.108281 1.083393
O 17.57408442 1.47886722 4.14786582 0.344709 -0.189907 0.709585
Ga 11.09717860 -0.01480044 10.16317852 -0.864332 0.605223 -0.933629
Ga 21.99276485 0.02243678 6.85615821 0.315682 0.205851 -2.022430
Ga 17.24805741 1.50174373 10.22045535 -0.591953 0.427393 -0.432015
Ga 15.82413853 1.51080442 6.88588610 -0.524332 -0.345866 0.718163
Ga 12.52722728 -0.04507070 7.43061518 -0.128927 -0.145000 -0.824891
Ga 20.44518747 0.06930060 9.65238760 1.084795 -0.266507 0.447804
Ga 18.73505147 1.53513029 7.40632987 -1.261158 0.619093 1.376945
Ga 14.29829570 1.48358516 9.53830169 -0.688692 -0.416943 -0.490929
O 12.95006009 -0.01888362 6.16382566 -0.374289 -0.914490 0.220022
O 20.10266264 -0.04290972 10.80808000 -1.213902 -0.139679 -0.400838
O 19.15921625 1.47832112 6.14178615 0.735170 0.542047 0.353100
O 13.94183897 1.55913489 10.87684402 -0.032452 1.155781 0.280566
O 12.38426658 0.01986797 8.82753494 0.377751 1.046113 0.103984
O 20.59184558 0.10577373 8.13524161 1.194107 0.047948 -0.338610
O 18.56306525 1.53380423 8.88957881 0.270171 1.062515 0.278889
O 14.48053574 1.52741853 8.17969448 1.180172 -0.899062 1.224585
O 10.78814747 -0.01372769 7.17671918 1.074743 -0.492841 0.094687
O 22.23736527 0.01508402 9.88848096 -1.623343 0.412589 -0.469663
O 16.94189052 1.51304076 7.08093500 -0.077029 1.108281 1.083393
O 16.18316042 1.47886722 9.86350082 0.344709 -0.189907 0.709585
Ga 12.48810260 3.07231956 4.44754352 -0.864332 0.605223 -0.933629
Ga 23.38368885 3.10955678 1.14052321 0.315682 0.205851 -2.022430
Ga 18.63898141 4.58886373 4.50482035 -0.591953 0.427393 -0.432015
Ga 17.21506253 4.59792442 1.17025110 -0.524332 -0.345866 0.718163
Ga 13.91815128 3.04204930 1.71498018 -0.128927 -0.145000 -0.824891
Ga 21.83611147 3.15642060 3.93675260 1.084795 -0.266507 0.447804
Ga 20.12597547 4.62225029 1.69069487 -1.261158 0.619093 1.376945
Ga 15.68921970 4.57070516 3.82266669 -0.688692 -0.416943 -0.490929
O 14.34098409 3.06823638 0.44819066 -0.374289 -0.914490 0.220022
O 21.49358664 3.04421028 5.09244500 -1.213902 -0.139679 -0.400838
O 20.55014025 4.56544112 0.42615115 0.735170 0.542047 0.353100
O 15.33276297 4.64625489 5.16120902 -0.032452 1.155781 0.280566
O 13.77519058 3.10698797 3.11189994 0.377751 1.046113 0.103984
O 21.98276958 3.19289373 2.41960661 1.194107 0.047948 -0.338610
O 19.95398925 4.62092423 3.17394381 0.270171 1.062515 0.278889
O 15.87145974 4.61453853 2.46405948 1.180172 -0.899062 1.224585
O 12.17907147 3.07339231 1.46108418 1.074743 -0.492841 0.094687
O 23.62828927 3.10220402 4.17284596 -1.623343 0.412589 -0.469663
O 18.33281452 4.60016076 1.36530000 -0.077029 1.108281 1.083393
O 17.57408442 4.56598722 4.14786582 0.344709 -0.189907 0.709585
Ga 11.09717860 3.07231956 10.16317852 -0.864332 0.605223 -0.933629
Ga 21.99276485 3.10955678 6.85615821 0.315682 0.205851 -2.022430
Ga 17.24805741 4.58886373 10.22045535 -0.591953 0.427393 -0.432015
Ga 15.82413853 4.59792442 6.88588610 -0.524332 -0.345866 0.718163
Ga 12.52722728 3.04204930 7.43061518 -0.128927 -0.145000 -0.824891
Ga 20.44518747 3.15642060 9.65238760 1.084795 -0.266507 0.447804
Ga 18.73505147 4.62225029 7.40632987 -1.261158 0.619093 1.376945
Ga 14.29829570 4.57070516 9.53830169 -0.688692 -0.416943 -0.490929
O 12.95006009 3.06823638 6.16382566 -0.374289 -0.914490 0.220022
O 20.10266264 3.04421028 10.80808000 -1.213902 -0.139679 -0.400838
O 19.15921625 4.56544112 6.14178615 0.735170 0.542047 0.353100
O 13.94183897 4.64625489 10.87684402 -0.032452 1.155781 0.280566
O 12.38426658 3.10698797 8.82753494 0.377751 1.046113 0.103984
O 20.59184558 3.19289373 8.13524161 1.194107 0.047948 -0.338610
O 18.56306525 4.62092423 8.88957881 0.270171 1.062515 0.278889
O 14.48053574 4.61453853 8.17969448 1.180172 -0.899062 1.224585
O 10.78814747 3.07339231 7.17671918 1.074743 -0.492841 0.094687
O 22.23736527 3.10220402 9.88848096 -1.623343 0.412589 -0.469663
O 16.94189052 4.60016076 7.08093500 -0.077029 1.108281 1.083393
O 16.18316042 4.56598722 9.86350082 0.344709 -0.189907 0.709585
159
Lattice="25.198869 0.000000 0.000000 0.000000 6.238896 0.000000 -2.810979 0.000000 11.550976" Properties=species:S:1:pos:R:3:force:R:3 Energy=-631.641424 Virial="-12.151729 -27.148583 -28.615543 -6.610601 -7.823917 38.807367 -13.361038 -9.919354 -15.511222" pbc="T T T"
Ga 11.15970862 0.04775825 1.17280904 0.239561 0.741884 -1.336568
Ga 6.33975143 1.61940083 4.63583601 0.315145 0.372207 -1.324975
Ga 4.86260267 1.55431388 1.22642761 -0.530137 -1.129560 -0.104799
Ga 1.64999513 0.00769131 1.89294159 0.926138 -0.157612 -0.834378
Ga 9.62762243 0.03807841 4.00487590 1.067398 0.168028 -0.548782
Ga 7.83998444 1.52984093 1.86047461 -0.341916 -0.242065 -0.648579
Ga 3.31629922 1.52395005 3.93347129 0.251016 0.278325 -0.126100
O 1.91276626 0.03426468 0.56349796 1.136532 1.301721 -1.771827
O 9.28837989 0.01685519 5.20883886 0.404327 1.793833 -0.781635
O 8.26179242 1.60702220 0.56627638 1.048157 1.317475 0.449221
O 2.97802228 1.52904187 5.24106515 -1.190031 -1.549431 0.365096
O 1.36262884 -0.00096111 3.15711170 0.804610 0.602944 -0.190753
O 9.73320353 -0.00764191 2.53082876 0.579130 -0.318783 -1.003196
O 7.69942749 1.55433331 3.22393000 0.915211 0.926037 -0.626009
O 3.52313265 1.54119329 2.54398859 0.053045 0.031271 -0.606082
O -0.25120667 0.00012337 1.47135714 0.847824 0.095831 -0.157055
O 11.50665238 -0.00645457 4.26858027 1.372216 0.245441 0.129371
O 5.95038779 1.52918680 1.51344232 0.146682 -0.579068 0.491396
O 5.17843916 1.55352706 4.32499261 -0.508989 -0.418080 -0.156022
Ga -1.35785816 -0.09678981 10.41347663 -0.614780 -0.619472 -1.033907
Ga 9.76878462 0.04775825 6.88844404 0.239561 0.741884 -1.336568
Ga 4.94882743 1.61940083 10.35147101 0.315145 0.372207 -1.324975
Ga 3.47167867 1.55431388 6.94206261 -0.530137 -1.129560 -0.104799
Ga 0.25907113 0.00769131 7.60857659 0.926138 -0.157612 -0.834378
Ga 8.23669843 0.03807841 9.72051090 1.067398 0.168028 -0.548782
Ga 6.44906044 1.52984093 7.57610961 -0.341916 -0.242065 -0.648579
Ga 1.92537522 1.52395005 9.64910629 0.251016 0.278325 -0.126100
O 0.52184226 0.03426468 6.27913296 1.136532 1.301721 -1.771827
O 7.89745589 0.01685519 10.92447386 0.404327 1.793833 -0.781635
O 6.87086842 1.60702220 6.28191138 1.048157 1.317475 0.449221
O 1.58709828 1.52904187 10.95670015 -1.190031 -1.549431 0.365096
O -0.02829516 -0.00096111 8.87274670 0.804610 0.602944 -0.190753
O 8.34227953 -0.00764191 8.24646376 0.579130 -0.318783 -1.003196
O 6.30850349 1.55433331 8.93956500 0.915211 0.926037 -0.626009
O 2.13220865 1.54119329 8.25962359 0.053045 0.031271 -0.606082
O -1.64213067 0.00012337 7.18699214 0.847824 0.095831 -0.157055
O 10.11572838 -0.00645457 9.98421527 1.372216 0.245441 0.129371
O 4.55946379 1.52918680 7.22907732 0.146682 -0.579068 0.491396
O 3.78751516 1.55352706 10.04062761 -0.508989 -0.418080 -0.156022
Ga 0.03306584 2.99033019 4.69784163 -0.614780 -0.619472 -1.033907
Ga 11.15970862 3.13487825 1.17280904 0.239561 0.741884 -1.336568
Ga 6.33975143 4.70652083 4.63583601 0.315145 0.372207 -1.324975
Ga 4.86260267 4.64143388 1.22642761 -0.530137 -1.129560 -0.104799
Ga 1.64999513 3.09481131 1.89294159 0.926138 -0.157612 -0.834378
Ga 9.62762243 3.12519841 4.00487590 1.067398 0.168028 -0.548782
Ga 7.83998444 4.61696093 1.86047461 -0.341916 -0.242065 -0.648579
Ga 3.31629922 4.61107005 3.93347129 0.251016 0.278325 -0.126100
O 1.91276626 3.12138468 0.56349796 1.136532 1.301721 -1.771827
O 9.28837989 3.10397519 5.20883886 0.404327 1.793833 -0.781635
O 8.26179242 4.69414220 0.56627638 1.048157 1.317475 0.449221
O 2.97802228 4.61616187 5.24106515 -1.190031 -1.549431 0.365096
O 1.36262884 3.08615889 3.15711170 0.804610 0.602944 -0.190753
O 9.73320353 3.07947809 2.53082876 0.579130 -0.318783 -1.003196
O 7.69942749 4.64145331 3.22393000 0.915211 0.926037 -0.626009
O 3.52313265 4.62831329 2.54398859 0.053045 0.031271 -0.606082
O -0.25120667 3.08724337 1.47135714 0.847824 0.095831 -0.157055
O 11.50665238 3.08066543 4.26858027 1.372216 0.245441 0.129371
O 5.95038779 4.61630680 1.51344232 0.146682 -0.579068 0.491396
O 5.17843916 4.64064706 4.32499261 -0.508989 -0.418080 -0.156022
Ga -1.35785816 2.99033019 10.41347663 -0.614780 -0.619472 -1.033907
Ga 9.76878462 3.13487825 6.88844404 0.239561 0.741884 -1.336568
Ga 4.94882743 4.70652083 10.35147101 0.315145 0.372207 -1.324975
Ga 3.47167867 4.64143388 6.94206261 -0.530137 -1.129560 -0.104799
Ga 0.25907113 3.09481131 7.60857659 0.926138 -0.157612 -0.834378
Ga 8.23669843 3.12519841 9.72051090 1.067398 0.168028 -0.548782
Ga 6.44906044 4.61696093 7.57610961 -0.341916 -0.242065 -0.648579
Ga 1.92537522 4.61107005 9.64910629 0.251016 0.278325 -0.126100
O 0.52184226 3.12138468 6.27913296 1.136532 1.301721 -1.771827
O 7.89745589 3.10397519 10.92447386 0.404327 1.793833 -0.781635
O 6.87086842 4.69414220 6.28191138 1.048157 1.317475 0.449221
O 1.58709828 4.61616187 10.95670015 -1.190031 -1.549431 0.365096
O -0.02829516 3.08615889 8.87274670 0.804610 0.602944 -0.190753
O 8.34227953 3.07947809 8.24646376 0.579130 -0.318783 -1.003196
O 6.30850349 4.64145331 8.93956500 0.915211 0.926037 -0.626009
O 2.13220865 4.62831329 8.25962359 0.053045 0.031271 -0.606082
O -1.64213067 3.08724337 7.18699214 0.847824 0.095831 -0.157055
O 10.11572838 3.08066543 9.98421527 1.372216 0.245441 0.129371
O 4.55946379 4.61630680 7.22907732 0.146682 -0.579068 0.491396
O 3.78751516 4.64064706 10.04062761 -0.508989 -0.418080 -0.156022
Ga 12.50192684 -0.09678981 4.69784163 -0.614780 -0.619472 -1.033907
Ga 23.62856962 0.04775825 1.17280904 0.239561 0.741884 -1.336568
Ga 18.80861243 1.61940083 4.63583601 0.315145 0.372207 -1.324975
Ga 17.33146367 1.55431388 1.22642761 -0.530137 -1.129560 -0.104799
Ga 14.11885613 0.00769131 1.89294159 0.926138 -0.157612 -0.834378
Ga 22.09648343 0.03807841 4.00487590 1.067398 0.168028 -0.548782
Ga 20.30884544 1.52984093 1.86047461 -0.341916 -0.242065 -0.648579
Ga 15.78516022 1.52395005 3.93347129 0.251016 0.278325 -0.126100
O 14.38162726 0.03426468 0.56349796 1.136532 1.301721 -1.771827
O 21.75724089 0.01685519 5.20883886 0.404327 1.793833 -0.781635
O 20.73065342 1.60702220 0.56627638 1.048157 1.317475 0.449221
O 15.44688328 1.52904187 5.24106515 -1.190031 -1.549431 0.365096
O 13.83148984 -0.00096111 3.15711170 0.804610 0.602944 -0.190753
O 22.20206453 -0.00764191 2.53082876 0.579130 -0.318783 -1.003196
O 20.16828849 1.55433331 3.22393000 0.915211 0.926037 -0.626009
O 15.99199365 1.54119329 2.54398859 0.053045 0.031271 -0.606082
O 12.21765433 0.00012337 1.47135714 0.847824 0.095831 -0.157055
O 23.97551338 -0.00645457 4.26858027 1.372216 0.245441 0.129371
O 18.41924879 1.52918680 1.51344232 0.146682 -0.579068 0.491396
O 17.64730016 1.55352706 4.32499261 -0.508989 -0.418080 -0.156022
Ga 11.11100284 -0.09678981 10.41347663 -0.614780 -0.619472 -1.033907
Ga 22.23764562 0.04775825 6.88844404 0.239561 0.741884 -1.336568
Ga 17.41768843 1.61940083 10.35147101 0.315145 0.372207 -1.324975
Ga 15.94053967 1.55431388 6.94206261 -0.530137 -1.129560 -0.104799
Ga 12.72793213 0.00769131 7.60857659 0.926138 -0.157612 -0.834378
Ga 20.70555943 0.03807841 9.72051090 1.067398 0.168028 -0.548782
Ga 18.91792144 1.52984093 7.57610961 -0.341916 -0.242065 -0.648579
Ga 14.39423622 1.52395005 9.64910629 0.251016 0.278325 -0.126100
O 12.99070326 0.03426468 6.27913296 1.136532 1.301721 -1.771827
O 20.36631689 0.01685519 10.92447386 0.404327 1.793833 -0.781635
O 19.33972942 1.60702220 6.28191138 1.048157 1.317475 0.449221
O 14.05595928 1.52904187 10.95670015 -1.190031 -1.549431 0.365096
O 12.44056584 -0.00096111 8.87274670 0.804610 0.602944 -0.190753
O 20.81114053 -0.00764191 8.24646376 0.579130 -0.318783 -1.003196
O 18.77736449 1.55433331 8.93956500 0.915211 0.926037 -0.626009
O 14.60106965 1.54119329 8.25962359 0.053045 0.031271 -0.606082
O 10.82673033 0.00012337 7.18699214 0.847824 0.095831 -0.157055
O 22.58458938 -0.00645457 9.98421527 1.372216 0.245441 0.129371
O 17.02832479 1.52918680 7.22907732 0.146682 -0.579068 0.491396
O 16.25637616 1.55352706 10.04062761 -0.508989 -0.418080 -0.156022
Ga 12.50192684 2.99033019 4.69784163 -0.614780 -0.619472 -1.033907
Ga 23.62856962 3.13487825 1.17280904 0.239561 0.741884 -1.336568
Ga 18.80861243 4.70652083 4.63583601 0.315145 0.372207 -1.324975
Ga 17.33146367 4.64143388 1.22642761 -0.530137 -1.129560 -0.104799
Ga 14.11885613 3.09481131 1.89294159 0.926138 -0.157612 -0.834378
Ga 22.09648343 3.12519841 4.00487590 1.067398 0.168028 -0.548782
Ga 20.30884544 4.61696093 1.86047461 -0.341916 -0.242065 -0.648579
Ga 15.78516022 4.61107005 3.93347129 0.251016 0.278325 -0.126100
O 14.38162726 3.12138468 0.56349796 1.136532 1.301721 -1.771827
O 21.75724089 3.10397519 5.20883886 0.404327 1.793833 -0.781635
O 20.73065342 4.69414220 0.56627638 1.048157 1.317475 0.449221
O 15.44688328 4.61616187 5.24106515 -1.190031 -1.549431 0.365096
O 13.83148984 3.08615889 3.15711170 0.804610 0.602944 -0.190753
O 22.20206453 3.07947809 2.53082876 0.579130 -0.318783 -1.003196
O 20.16828849 4.64145331 3.22393000 0.915211 0.926037 -0.626009
O 15.99199365 4.62831329 2.54398859 0.053045 0.031271 -0.606082
O 12.21765433 3.08724337 1.47135714 0.847824 0.095831 -0.157055
O 23.97551338 3.08066543 4.26858027 1.372216 0.245441 0.129371
O 18.41924879 4.61630680 1.51344232 0.146682 -0.579068 0.491396
O 17.64730016 4.64064706 4.32499261 -0.508989 -0.418080 -0.156022
Ga 11.11100284 2.99033019 10.41347663 -0.614780 -0.619472 -1.033907
Ga 22.23764562 3.13487825 6.88844404 0.239561 0.741884 -1.336568
Ga 17.41768843 4.70652083 10.35147101 0.315145 0.372207 -1.324975
Ga 15.94053967 4.64143388 6.94206261 -0.530137 -1.129560 -0.104799
Ga 12.72793213 3.09481131 7.60857659 0.926138 -0.157612 -0.834378
Ga 20.70555943 3.12519841 9.72051090 1.067398 0.168028 -0.548782
Ga 18.91792144 4.61696093 7.57610961 -0.341916 -0.242065 -0.648579
Ga 14.39423622 4.61107005 9.64910629 0.251016 0.278325 -0.126100
O 12.99070326 3.12138468 6.27913296 1.136532 1.301721 -1.771827
O 20.36631689 3.10397519 10.92447386 0.404327 1.793833 -0.781635
O 19.33972942 4.69414220 6.28191138 1.048157 1.317475 0.449221
O 14.05595928 4.61616187 10.95670015 -1.190031 -1.549431 0.365096
O 12.44056584 3.08615889 8.87274670 0.804610 0.602944 -0.190753
O 20.81114053 3.07947809 8.24646376 0.579130 -0.318783 -1.003196
O 18.77736449 4.64145331 8.93956500 0.915211 0.926037 -0.626009
O 14.60106965 4.62831329 8.25962359 0.053045 0.031271 -0.606082
O 10.82673033 3.08724337 7.18699214 0.847824 0.095831 -0.157055
O 22.58458938 3.08066543 9.98421527 1.372216 0.245441 0.129371
O 17.02832479 4.61630680 7.22907732 0.146682 -0.579068 0.491396
O 16.25637616 4.64064706 10.04062761 -0.508989 -0.418080 -0.156022
159
Lattice="25.342822 0.000000 0.000000 0.000000 6.274537 0.000000 -2.827038 0.000000 11.616964" Properties=species:S:1:pos:R:3:force:R:3 Energy=-629.827976 Virial="-25.914244 3.574065 -8.312372 0.153842 -32.001548 6.540713 -16.470466 2.453112 11.607171" pbc="T T T"
Ga 11.18474061 0.00239731 1.20415690 0.009709 -0.854576 -0.475298
Ga 6.41371210 1.51628145 4.49463998 0.074905 -0.526581 0.482734
Ga 4.90596011 1.64065472 1.24261968 1.116943 -1.007378 0.002967
Ga 1.57394447 -0.01966545 1.85731053 0.491000 0.506864 0.602045
Ga 9.65339194 0.01905431 4.00367547 -0.826206 1.118109 2.377574
Ga 7.94367233 1.67902067 1.84072227 -0.021745 0.526293 -0.372733
Ga 3.33626940 1.56761130 3.91269363 -1.103623 -1.595406 0.751533
O 1.91745170 -0.01637130 0.52503411 -1.288183 -0.898784 -0.396493
O 9.31874585 -0.03289680 5.30732587 -0.370575 0.716547 0.029220
O 8.28095435 1.56826226 0.53288186 0.178881 0.004468 -1.175736
O 2.98315344 1.60163820 5.22779943 0.502579 -0.415916 0.728094
O 1.37708554 -0.01214904 3.18729795 -0.853431 0.239416 0.718025
O 9.82171137 -0.01904883 2.60232507 -0.103365 0.087917 0.095781
O 7.74961849 1.57637786 3.27516870 1.685640 0.521484 0.729548
O 3.51328097 1.58425286 2.56322064 0.591395 0.504766 0.820263
O -0.30056057 -0.02331035 1.38941923 1.221747 -0.451268 -0.571164
O 11.56369578 0.05690993 4.35855899 0.975103 0.542332 0.870269
O 6.06314566 1.61807950 1.49051822 -1.296215 -0.390637 0.646462
O 5.24125475 1.54392819 4.30886746 0.158274 0.406796 -0.684238
Ga -1.37792366 -0.08015449 10.35647219 -1.192727 -0.181082 1.201575
Ga 9.79381661 0.00239731 6.91979190 0.009709 -0.854576 -0.475298
Ga 5.02278810 1.51628145 10.21027498 0.074905 -0.526581 0.482734
Ga 3.51503611 1.64065472 6.95825468 1.116943 -1.007378 0.002967
Ga 0.18302047 -0.01966545 7.57294553 0.491000 0.506864 0.602045
Ga 8.26246794 0.01905431 9.71931047 -0.826206 1.118109 2.377574
Ga 6.55274833 1.67902067 7.55635727 -0.021745 0.526293 -0.372733
Ga 1.94534540 1.56761130 9.62832863 -1.103623 -1.595406 0.751533
O 0.52652770 -0.01637130 6.24066911 -1.288183 -0.898784 -0.396493
O 7.92782185 -0.03289680 11.02296087 -0.370575 0.716547 0.029220
O 6.89003035 1.56826226 6.24851686 0.178881 0.004468 -1.175736
O 1.59222944 1.60163820 10.94343443 0.502579 -0.415916 0.728094
O -0.01383846 -0.01214904 8.90293295 -0.853431 0.239416 0.718025
O 8.43078737 -0.01904883 8.31796007 -0.103365 0.087917 0.095781
O 6.35869449 1.57637786 8.99080370 1.685640 0.521484 0.729548
O 2.12235697 1.58425286 8.27885564 0.591395 0.504766 0.820263
O -1.69148457 -0.02331035 7.10505423 1.221747 -0.451268 -0.571164
O 10.17277178 0.05690993 10.07419399 0.975103 0.542332 0.870269
O 4.67222166 1.61807950 7.20615322 -1.296215 -0.390637 0.646462
O 3.85033075 1.54392819 10.02450246 0.158274 0.406796 -0.684238
Ga 0.01300034 3.00696551 4.64083719 -1.192727 -0.181082 1.201575
Ga 11.18474061 3.08951731 1.20415690 0.009709 -0.854576 -0.475298
Ga 6.41371210 4.60340145 4.49463998 0.074905 -0.526581 0.482734
Ga 4.90596011 4.72777472 1.24261968 1.116943 -1.007378 0.002967
Ga 1.57394447 3.06745455 1.85731053 0.491000 0.506864 0.602045
Ga 9.65339194 3.10617431 4.00367547 -0.826206 1.118109 2.377574
Ga 7.94367233 4.76614067 1.84072227 -0.021745 0.526293 -0.372733
Ga 3.33626940 4.65473130 3.91269363 -1.103623 -1.595406 0.751533
O 1.91745170 3.07074870 0.52503411 -1.288183 -0.898784 -0.396493
O 9.31874585 3.05422320 5.30732587 -0.370575 0.716547 0.029220
O 8.28095435 4.65538226 0.53288186 0.178881 0.004468 -1.175736
O 2.98315344 4.68875820 5.22779943 0.502579 -0.415916 0.728094
O 1.37708554 3.07497096 3.18729795 -0.853431 0.239416 0.718025
O 9.82171137 3.06807117 2.60232507 -0.103365 0.087917 0.095781
O 7.74961849 4.66349786 3.27516870 1.685640 0.521484 0.729548
O 3.51328097 4.67137286 2.56322064 0.591395 0.504766 0.820263
O -0.30056057 3.06380965 1.38941923 1.221747 -0.451268 -0.571164
O 11.56369578 3.14402993 4.35855899 0.975103 0.542332 0.870269
O 6.06314566 4.70519950 1.49051822 -1.296215 -0.390637 0.646462
O 5.24125475 4.63104819 4.30886746 0.158274 0.406796 -0.684238
Ga -1.37792366 3.00696551 10.35647219 -1.192727 -0.181082 1.201575
Ga 9.79381661 3.08951731 6.91979190 0.009709 -0.854576 -0.475298
Ga 5.02278810 4.60340145 10.21027498 0.074905 -0.526581 0.482734
Ga 3.51503611 4.72777472 6.95825468 1.116943 -1.007378 0.002967
Ga 0.18302047 3.06745455 7.57294553 0.491000 0.506864 0.602045
Ga 8.26246794 3.10617431 9.71931047 -0.826206 1.118109 2.377574
Ga 6.55274833 4.76614067 7.55635727 -0.021745 0.526293 -0.372733
Ga 1.94534540 4.65473130 9.62832863 -1.103623 -1.595406 0.751533
O 0.52652770 3.07074870 6.24066911 -1.288183 -0.898784 -0.396493
O 7.92782185 3.05422320 11.02296087 -0.370575 0.716547 0.029220
O 6.89003035 4.65538226 6.24851686 0.178881 0.004468 -1.175736
O 1.59222944 4.68875820 10.94343443 0.502579 -0.415916 0.728094
O -0.01383846 3.07497096 8.90293295 -0.853431 0.239416 0.718025
O 8.43078737 3.06807117 8.31796007 -0.103365 0.087917 0.095781
O 6.35869449 4.66349786 8.99080370 1.685640 0.521484 0.729548
O 2.12235697 4.67137286 8.27885564 0.591395 0.504766 0.820263
O -1.69148457 3.06380965 7.10505423 1.221747 -0.451268 -0.571164
O 10.17277178 3.14402993 10.07419399 0.975103 0.542332 0.870269
O 4.67222166 4.70519950 7.20615322 -1.296215 -0.390637 0.646462
O 3.85033075 4.63104819 10.02450246 0.158274 0.406796 -0.684238
Ga 12.48186134 -0.08015449 4.64083719 -1.192727 -0.181082 1.201575
Ga 23.65360161 0.00239731 1.20415690 0.009709 -0.854576 -0.475298
Ga 18.88257310 1.51628145 4.49463998 0.074905 -0.526581 0.482734
Ga 17.37482111 1.64065472 1.24261968 1.116943 -1.007378 0.002967
Ga 14.04280547 -0.01966545 1.85731053 0.491000 0.506864 0.602045
Ga 22.12225294 0.01905431 4.00367547 -0.826206 1.118109 2.377574
Ga 20.41253333 1.67902067 1.84072227 -0.021745 0.526293 -0.372733
Ga 15.80513040 1.56761130 3.91269363 -1.103623 -1.595406 0.751533
O 14.38631270 -0.01637130 0.52503411 -1.288183 -0.898784 -0.396493
O 21.78760685 -0.03289680 5.30732587 -0.370575 0.716547 0.029220
O 20.74981535 1.56826226 0.53288186 0.178881 0.004468 -1.175736
O 15.45201444 1.60163820 5.22779943 0.502579 -0.415916 0.728094
O 13.84594654 -0.01214904 3.18729795 -0.853431 0.239416 0.718025
O 22.29057237 -0.01904883 2.60232507 -0.103365 0.087917 0.095781
O 20.21847949 1.57637786 3.27516870 1.685640 0.521484 0.729548
O 15.98214197 1.58425286 2.56322064 0.591395 0.504766 0.820263
O 12.16830043 -0.02331035 1.38941923 1.221747 -0.451268 -0.571164
O 24.03255678 0.05690993 4.35855899 0.975103 0.542332 0.870269
O 18.53200666 1.61807950 1.49051822 -1.296215 -0.390637 0.646462
O 17.71011575 1.54392819 4.30886746 0.158274 0.406796 -0.684238
Ga 11.09093734 -0.08015449 10.35647219 -1.192727 -0.181082 1.201575
Ga 22.26267761 0.00239731 6.91979190 0.009709 -0.854576 -0.475298
Ga 17.49164910 1.51628145 10.21027498 0.074905 -0.526581 0.482734
Ga 15.98389711 1.64065472 6.95825468 1.116943 -1.007378 0.002967
Ga 12.65188147 -0.01966545 7.57294553 0.491000 0.506864 0.602045
Ga 20.73132894 0.01905431 9.71931047 -0.826206 1.118109 2.377574
Ga 19.02160933 1.67902067 7.55635727 -0.021745 0.526293 -0.372733
Ga 14.41420640 1.56761130 9.62832863 -1.103623 -1.595406 0.751533
O 12.99538870 -0.01637130 6.24066911 -1.288183 -0.898784 -0.396493
O 20.39668285 -0.03289680 11.02296087 -0.370575 0.716547 0.029220
O 19.35889135 1.56826226 6.24851686 0.178881 0.004468 -1.175736
O 14.06109044 1.60163820 10.94343443 0.502579 -0.415916 0.728094
O 12.45502254 -0.01214904 8.90293295 -0.853431 0.239416 0.718025
O 20.89964837 -0.01904883 8.31796007 -0.103365 0.087917 0.095781
O 18.82755549 1.57637786 8.99080370 1.685640 0.521484 0.729548
O 14.59121797 1.58425286 8.27885564 0.591395 0.504766 0.820263
O 10.77737643 -0.02331035 7.10505423 1.221747 -0.451268 -0.571164
O 22.64163278 0.05690993 10.07419399 0.975103 0.542332 0.870269
O 17.14108266 1.61807950 7.20615322 -1.296215 -0.390637 0.646462
O 16.31919175 1.54392819 10.02450246 0.158274 0.406796 -0.684238
Ga 12.48186134 3.00696551 4.64083719 -1.192727 -0.181082 1.201575
Ga 23.65360161 3.08951731 1.20415690 0.009709 -0.854576 -0.475298
Ga 18.88257310 4.60340145 4.49463998 0.074905 -0.526581 0.482734
Ga 17.37482111 4.72777472 1.24261968 1.116943 -1.007378 0.002967
Ga 14.04280547 3.06745455 1.85731053 0.491000 0.506864 0.602045
Ga 22.12225294 3.10617431 4.00367547 -0.826206 1.118109 2.377574
Ga 20.41253333 4.76614067 1.84072227 -0.021745 0.526293 -0.372733
Ga 15.80513040 4.65473130 3.91269363 -1.103623 -1.595406 0.751533
O 14.38631270 3.07074870 0.52503411 -1.288183 -0.898784 -0.396493
O 21.78760685 3.05422320 5.30732587 -0.370575 0.716547 0.029220
O 20.74981535 4.65538226 0.53288186 0.178881 0.004468 -1.175736
O 15.45201444 4.68875820 5.22779943 0.502579 -0.415916 0.728094
O 13.84594654 3.07497096 3.18729795 -0.853431 0.239416 0.718025
O 22.29057237 3.06807117 2.60232507 -0.103365 0.087917 0.095781
O 20.21847949 4.66349786 3.27516870 1.685640 0.521484 0.729548
O 15.98214197 4.67137286 2.56322064 0.591395 0.504766 0.820263
O 12.16830043 3.06380965 1.38941923 1.221747 -0.451268 -0.571164
O 24.03255678 3.14402993 4.35855899 0.975103 0.542332 0.870269
O 18.53200666 4.70519950 1.49051822 -1.296215 -0.390637 0.646462
O 17.71011575 4.63104819 4.30886746 0.158274 0.406796 -0.684238
Ga 11.09093734 3.00696551 10.35647219 -1.192727 -0.181082 1.201575
Ga 22.26267761 3.08951731 6.91979190 0.009709 -0.854576 -0.475298
Ga 17.49164910 4.60340145 10.21027498 0.074905 -0.526581 0.482734
Ga 15.98389711 4.72777472 6.95825468 1.116943 -1.007378 0.002967
Ga 12.65188147 3.06745455 7.57294553 0.491000 0.506864 0.602045
Ga 20.73132894 3.10617431 9.71931047 -0.826206 1.118109 2.377574
Ga 19.02160933 4.76614067 7.55635727 -0.021745 0.526293 -0.372733
Ga 14.41420640 4.65473130 9.62832863 -1.103623 -1.595406 0.751533
O 12.99538870 3.07074870 6.24066911 -1.288183 -0.898784 -0.396493
O 20.39668285 3.05422320 11.02296087 -0.370575 0.716547 0.029220
O 19.35889135 4.65538226 6.24851686 0.178881 0.004468 -1.175736
O 14.06109044 4.68875820 10.94343443 0.502579 -0.415916 0.728094
O 12.45502254 3.07497096 8.90293295 -0.853431 0.239416 0.718025
O 20.89964837 3.06807117 8.31796007 -0.103365 0.087917 0.095781
O 18.82755549 4.66349786 8.99080370 1.685640 0.521484 0.729548
O 14.59121797 4.67137286 8.27885564 0.591395 0.504766 0.820263
O 10.77737643 3.06380965 7.10505423 1.221747 -0.451268 -0.571164
O 22.64163278 3.14402993 10.07419399 0.975103 0.542332 0.870269
O 17.14108266 4.70519950 7.20615322 -1.296215 -0.390637 0.646462
O 16.31919175 4.63104819 10.02450246 0.158274 0.406796 -0.684238
159
Lattice="25.218845 0.000000 0.000000 0.000000 6.243842 0.000000 -2.813208 0.000000 11.560133" Properties=species:S:1:pos:R:3:force:R:3 Energy=-629.904000 Virial="-15.129510 -22.703498 16.042351 -6.085471 6.925187 18.031146 -3.547436 11.144689 -8.207874" pbc="T T T"
Ga 11.17435347 -0.11330078 1.18790098 0.201097 1.817733 0.754707
Ga 6.27051674 1.55258238 4.53665918 0.657531 0.096527 0.194883
Ga 4.81798215 1.61036535 1.17442167 0.913852 -0.549146 -1.276815
Ga 1.54203287 0.01930096 1.80127395 0.720463 -0.308894 0.050407
Ga 9.72907097 -0.01092079 3.97857454 0.493558 -0.138314 0.802812
Ga 7.90144847 1.62505061 1.78641732 -0.298736 -0.706595 0.647511
Ga 3.32348872 1.61194416 3.99637202 -0.291361 -1.475887 0.643252
O 1.97873112 -0.05474818 0.60524661 1.641858 -0.704237 0.571569
O 9.23663770 0.00769172 5.23081156 0.807589 1.004456 0.683017
O 8.20529622 1.50445905 0.47357270 -1.101862 -0.239385 -0.686070
O 2.96714328 1.49994772 5.19138785 0.869256 0.645997 -0.359113
O 1.38782326 -0.10555234 3.25643629 -0.123027 1.340113 0.529299
O 9.70987786 -0.00309490 2.55539076 -1.057782 -0.804123 0.479403
O 7.72277862 1.55929325 3.30599342 0.258807 0.412987 1.903983
O 3.51021461 1.60310498 2.52585148 0.321449 0.217433 1.011027
O -0.30482252 0.06190280 1.47018982 -0.370118 0.370512 0.021661
O 11.52016026 0.03923414 4.27068029 -0.858745 -0.159151 0.220634
O 5.90859524 1.57118343 1.51924439 -0.937506 0.708903 -0.077401
O 5.15370259 1.58776928 4.32744813 -0.162113 0.326272 1.061903
Ga -1.38498282 0.00559108 10.32479375 -0.927399 0.188160 0.831671
Ga 9.78342947 -0.11330078 6.90353598 0.201097 1.817733 0.754707
Ga 4.87959274 1.55258238 10.25229418 0.657531 0.096527 0.194883
Ga 3.42705815 1.61036535 6.89005667 0.913852 -0.549146 -1.276815
Ga 0.15110887 0.01930096 7.51690895 0.720463 -0.308894 0.050407
Ga 8.33814697 -0.01092079 9.69420954 0.493558 -0.138314 0.802812
Ga 6.51052447 1.62505061 7.50205232 -0.298736 -0.706595 0.647511
Ga 1.93256472 1.61194416 9.71200702 -0.291361 -1.475887 0.643252
O 0.58780712 -0.05474818 6.32088161 1.641858 -0.704237 0.571569
O 7.84571370 0.00769172 10.94644656 0.807589 1.004456 0.683017
O 6.81437222 1.50445905 6.18920770 -1.101862 -0.239385 -0.686070
O 1.57621928 1.49994772 10.90702285 0.869256 0.645997 -0.359113
O -0.00310074 -0.10555234 8.97207129 -0.123027 1.340113 0.529299
O 8.31895386 -0.00309490 8.27102576 -1.057782 -0.804123 0.479403
O 6.33185462 1.55929325 9.02162842 0.258807 0.412987 1.903983
O 2.11929061 1.60310498 8.24148648 0.321449 0.217433 1.011027
O -1.69574652 0.06190280 7.18582482 -0.370118 0.370512 0.021661
O 10.12923626 0.03923414 9.98631529 -0.858745 -0.159151 0.220634
O 4.51767124 1.57118343 7.23487939 -0.937506 0.708903 -0.077401
O 3.76277859 1.58776928 10.04308313 -0.162113 0.326272 1.061903
Ga 0.00594118 3.09271108 4.60915875 -0.927399 0.188160 0.831671
Ga 11.17435347 2.97381922 1.18790098 0.201097 1.817733 0.754707
Ga 6.27051674 4.63970238 4.53665918 0.657531 0.096527 0.194883
Ga 4.81798215 4.69748535 1.17442167 0.913852 -0.549146 -1.276815
Ga 1.54203287 3.10642096 1.80127395 0.720463 -0.308894 0.050407
Ga 9.72907097 3.07619921 3.97857454 0.493558 -0.138314 0.802812
Ga 7.90144847 4.71217061 1.78641732 -0.298736 -0.706595 0.647511
Ga 3.32348872 4.69906416 3.99637202 -0.291361 -1.475887 0.643252
O 1.97873112 3.03237182 0.60524661 1.641858 -0.704237 0.571569
O 9.23663770 3.09481172 5.23081156 0.807589 1.004456 0.683017
O 8.20529622 4.59157905 0.47357270 -1.101862 -0.239385 -0.686070
O 2.96714328 4.58706772 5.19138785 0.869256 0.645997 -0.359113
O 1.38782326 2.98156766 3.25643629 -0.123027 1.340113 0.529299
O 9.70987786 3.08402510 2.55539076 -1.057782 -0.804123 0.479403
O 7.72277862 4.64641325 3.30599342 0.258807 0.412987 1.903983
O 3.51021461 4.69022498 2.52585148 0.321449 0.217433 1.011027
O -0.30482252 3.14902280 1.47018982 -0.370118 0.370512 0.021661
O 11.52016026 3.12635414 4.27068029 -0.858745 -0.159151 0.220634
O 5.90859524 4.65830343 1.51924439 -0.937506 0.708903 -0.077401
O 5.15370259 4.67488928 4.32744813 -0.162113 0.326272 1.061903
Ga -1.38498282 3.09271108 10.32479375 -0.927399 0.188160 0.831671
Ga 9.78342947 2.97381922 6.90353598 0.201097 1.817733 0.754707
Ga 4.87959274 4.63970238 10.25229418 0.657531 0.096527 0.194883
Ga 3.42705815 4.69748535 6.89005667 0.913852 -0.549146 -1.276815
Ga 0.15110887 3.10642096 7.51690895 0.720463 -0.308894 0.050407
Ga 8.33814697 3.07619921 9.69420954 0.493558 -0.138314 0.802812
Ga 6.51052447 4.71217061 7.50205232 -0.298736 -0.706595 0.647511
Ga 1.93256472 4.69906416 9.71200702 -0.291361 -1.475887 0.643252
O 0.58780712 3.03237182 6.32088161 1.641858 -0.704237 0.571569
O 7.84571370 3.09481172 10.94644656 0.807589 1.004456 0.683017
O 6.81437222 4.59157905 6.18920770 -1.101862 -0.239385 -0.686070
O 1.57621928 4.58706772 10.90702285 0.869256 0.645997 -0.359113
O -0.00310074 2.98156766 8.97207129 -0.123027 1.340113 0.529299
O 8.31895386 3.08402510 8.27102576 -1.057782 -0.804123 0.479403
O 6.33185462 4.64641325 9.02162842 0.258807 0.412987 1.903983
O 2.11929061 4.69022498 8.24148648 0.321449 0.217433 1.011027
O -1.69574652 3.14902280 7.18582482 -0.370118 0.370512 0.021661
O 10.12923626 3.12635414 9.98631529 -0.858745 -0.159151 0.220634
O 4.51767124 4.65830343 7.23487939 -0.937506 0.708903 -0.077401
O 3.76277859 4.67488928 10.04308313 -0.162113 0.326272 1.061903
Ga 12.47480218 0.00559108 4.60915875 -0.927399 0.188160 0.831671
Ga 23.64321447 -0.11330078 1.18790098 0.201097 1.817733 0.754707
Ga 18.73937774 1.55258238 4.53665918 0.657531 0.096527 0.194883
Ga 17.28684315 1.61036535 1.17442167 0.913852 -0.549146 -1.276815
Ga 14.01089387 0.01930096 1.80127395 0.720463 -0.308894 0.050407
Ga 22.19793197 -0.01092079 3.97857454 0.493558 -0.138314 0.802812
Ga 20.37030947 1.62505061 1.78641732 -0.298736 -0.706595 0.647511
Ga 15.79234972 1.61194416 3.99637202 -0.291361 -1.475887 0.643252
O 14.44759212 -0.05474818 0.60524661 1.641858 -0.704237 0.571569
O 21.70549870 0.00769172 5.23081156 0.807589 1.004456 0.683017
O 20.67415722 1.50445905 0.47357270 -1.101862 -0.239385 -0.686070
O 15.43600428 1.49994772 5.19138785 0.869256 0.645997 -0.359113
O 13.85668426 -0.10555234 3.25643629 -0.123027 1.340113 0.529299
O 22.17873886 -0.00309490 2.55539076 -1.057782 -0.804123 0.479403
O 20.19163962 1.55929325 3.30599342 0.258807 0.412987 1.903983
O 15.97907561 1.60310498 2.52585148 0.321449 0.217433 1.011027
O 12.16403848 0.06190280 1.47018982 -0.370118 0.370512 0.021661
O 23.98902126 0.03923414 4.27068029 -0.858745 -0.159151 0.220634
O 18.37745624 1.57118343 1.51924439 -0.937506 0.708903 -0.077401
O 17.62256359 1.58776928 4.32744813 -0.162113 0.326272 1.061903
Ga 11.08387818 0.00559108 10.32479375 -0.927399 0.188160 0.831671
Ga 22.25229047 -0.11330078 6.90353598 0.201097 1.817733 0.754707
Ga 17.34845374 1.55258238 10.25229418 0.657531 0.096527 0.194883
Ga 15.89591915 1.61036535 6.89005667 0.913852 -0.549146 -1.276815
Ga 12.61996987 0.01930096 7.51690895 0.720463 -0.308894 0.050407
Ga 20.80700797 -0.01092079 9.69420954 0.493558 -0.138314 0.802812
Ga 18.97938547 1.62505061 7.50205232 -0.298736 -0.706595 0.647511
Ga 14.40142572 1.61194416 9.71200702 -0.291361 -1.475887 0.643252
O 13.05666812 -0.05474818 6.32088161 1.641858 -0.704237 0.571569
O 20.31457470 0.00769172 10.94644656 0.807589 1.004456 0.683017
O 19.28323322 1.50445905 6.18920770 -1.101862 -0.239385 -0.686070
O 14.04508028 1.49994772 10.90702285 0.869256 0.645997 -0.359113
O 12.46576026 -0.10555234 8.97207129 -0.123027 1.340113 0.529299
O 20.78781486 -0.00309490 8.27102576 -1.057782 -0.804123 0.479403
O 18.80071562 1.55929325 9.02162842 0.258807 0.412987 1.903983
O 14.58815161 1.60310498 8.24148648 0.321449 0.217433 1.011027
O 10.77311448 0.06190280 7.18582482 -0.370118 0.370512 0.021661
O 22.59809726 0.03923414 9.98631529 -0.858745 -0.159151 0.220634
O 16.98653224 1.57118343 7.23487939 -0.937506 0.708903 -0.077401
O 16.23163959 1.58776928 10.04308313 -0.162113 0.326272 1.061903
Ga 12.47480218 3.09271108 4.60915875 -0.927399 0.188160 0.831671
Ga 23.64321447 2.97381922 1.18790098 0.201097 1.817733 0.754707
Ga 18.73937774 4.63970238 4.53665918 0.657531 0.096527 0.194883
Ga 17.28684315 4.69748535 1.17442167 0.913852 -0.549146 -1.276815
Ga 14.01089387 3.10642096 1.80127395 0.720463 -0.308894 0.050407
Ga 22.19793197 3.07619921 3.97857454 0.493558 -0.138314 0.802812
Ga 20.37030947 4.71217061 1.78641732 -0.298736 -0.706595 0.647511
Ga 15.79234972 4.69906416 3.99637202 -0.291361 -1.475887 0.643252
O 14.44759212 3.03237182 0.60524661 1.641858 -0.704237 0.571569
O 21.70549870 3.09481172 5.23081156 0.807589 1.004456 0.683017
O 20.67415722 4.59157905 0.47357270 -1.101862 -0.239385 -0.686070
O 15.43600428 4.58706772 5.19138785 0.869256 0.645997 -0.359113
O 13.85668426 2.98156766 3.25643629 -0.123027 1.340113 0.529299
O 22.17873886 3.08402510 2.55539076 -1.057782 -0.804123 0.479403
O 20.19163962 4.64641325 3.30599342 0.258807 0.412987 1.903983
O 15.97907561 4.69022498 2.52585148 0.321449 0.217433 1.011027
O 12.16403848 3.14902280 1.47018982 -0.370118 0.370512 0.021661
O 23.98902126 3.12635414 4.27068029 -0.858745 -0.159151 0.220634
O 18.37745624 4.65830343 1.51924439 -0.937506 0.708903 -0.077401
O 17.62256359 4.67488928 4.32744813 -0.162113 0.326272 1.061903
Ga 11.08387818 3.09271108 10.32479375 -0.927399 0.188160 0.831671
Ga 22.25229047 2.97381922 6.90353598 0.201097 1.817733 0.754707
Ga 17.34845374 4.63970238 10.25229418 0.657531 0.096527 0.194883
Ga 15.89591915 4.69748535 6.89005667 0.913852 -0.549146 -1.276815
Ga 12.61996987 3.10642096 7.51690895 0.720463 -0.308894 0.050407
Ga 20.80700797 3.07619921 9.69420954 0.493558 -0.138314 0.802812
Ga 18.97938547 4.71217061 7.50205232 -0.298736 -0.706595 0.647511
Ga 14.40142572 4.69906416 9.71200702 -0.291361 -1.475887 0.643252
O 13.05666812 3.03237182 6.32088161 1.641858 -0.704237 0.571569
O 20.31457470 3.09481172 10.94644656 0.807589 1.004456 0.683017
O 19.28323322 4.59157905 6.18920770 -1.101862 -0.239385 -0.686070
O 14.04508028 4.58706772 10.90702285 0.869256 0.645997 -0.359113
O 12.46576026 2.98156766 8.97207129 -0.123027 1.340113 0.529299
O 20.78781486 3.08402510 8.27102576 -1.057782 -0.804123 0.479403
O 18.80071562 4.64641325 9.02162842 0.258807 0.412987 1.903983
O 14.58815161 4.69022498 8.24148648 0.321449 0.217433 1.011027
O 10.77311448 3.14902280 7.18582482 -0.370118 0.370512 0.021661
O 22.59809726 3.12635414 9.98631529 -0.858745 -0.159151 0.220634
O 16.98653224 4.65830343 7.23487939 -0.937506 0.708903 -0.077401
O 16.23163959 4.67488928 10.04308313 -0.162113 0.326272 1.061903
159
Lattice="24.895823 0.000000 0.000000 0.000000 6.163866 0.000000 -2.777174 0.000000 11.412063" Properties=species:S:1:pos:R:3:force:R:3 Energy=-628.293615 Virial="50.477474 17.117799 3.163501 -11.266788 -28.059148 8.264362 -19.817717 -9.971984 -14.364916" pbc="T T T"
Ga 10.97043162 -0.00703418 1.23847730 -0.955798 -0.137741 -1.387517
Ga 6.24795557 1.55019459 4.48360668 -0.599148 -1.130114 0.275979
Ga 4.78754962 1.52595870 1.15930989 -0.364811 -0.247286 -0.741162
Ga 1.58921040 0.02230764 1.74837734 0.335763 0.642758 1.716411
Ga 9.53123973 0.01992887 3.95880206 -0.266495 0.377297 0.170046
Ga 7.82512237 1.50036279 1.76040136 -0.783443 -0.206868 -1.007460
Ga 3.24712033 1.53160576 3.93185044 -0.635063 0.191711 1.245089
O 1.95042329 -0.00303804 0.52357339 -0.394303 0.333170 -0.162233
O 9.15446460 -0.03340572 5.25324602 0.064479 -0.480137 -0.205768
O 8.07057957 1.54835618 0.61731154 -0.072459 0.726550 -0.352488
O 2.92471017 1.53336500 5.15536665 0.202768 -0.744408 0.953366
O 1.37144106 0.05491394 3.09549092 1.182484 -0.481480 0.654288
O 9.74200481 -0.05695829 2.51140028 -0.742900 -0.379676 -0.399038
O 7.58544305 1.56450869 3.12004042 -0.861391 0.044282 1.143260
O 3.47519827 1.62193894 2.46753941 1.316627 0.382113 -1.631210
O -0.29809828 -0.02647929 1.47778006 0.455012 0.383640 1.574327
O 11.36577663 -0.02565948 4.26480208 -0.710006 -0.563864 1.183957
O 5.99044249 1.53333041 1.48953489 0.894954 0.735799 -0.476497
O 5.08932470 1.50270910 4.26418344 -0.410066 -0.088079 -1.811625
Ga -1.43179515 -0.03313988 10.24551808 -0.822718 -0.601932 0.565566
Ga 9.57950762 -0.00703418 6.95411230 -0.955798 -0.137741 -1.387517
Ga 4.85703157 1.55019459 10.19924168 -0.599148 -1.130114 0.275979
Ga 3.39662562 1.52595870 6.87494489 -0.364811 -0.247286 -0.741162
Ga 0.19828640 0.02230764 7.46401234 0.335763 0.642758 1.716411
Ga 8.14031573 0.01992887 9.67443706 -0.266495 0.377297 0.170046
Ga 6.43419837 1.50036279 7.47603636 -0.783443 -0.206868 -1.007460
Ga 1.85619633 1.53160576 9.64748544 -0.635063 0.191711 1.245089
O 0.55949929 -0.00303804 6.23920839 -0.394303 0.333170 -0.162233
O 7.76354060 -0.03340572 10.96888102 0.064479 -0.480137 -0.205768
O 6.67965557 1.54835618 6.33294654 -0.072459 0.726550 -0.352488
O 1.53378617 1.53336500 10.87100165 0.202768 -0.744408 0.953366
O -0.01948294 0.05491394 8.81112592 1.182484 -0.481480 0.654288
O 8.35108081 -0.05695829 8.22703528 -0.742900 -0.379676 -0.399038
O 6.19451905 1.56450869 8.83567542 -0.861391 0.044282 1.143260
O 2.08427427 1.62193894 8.18317441 1.316627 0.382113 -1.631210
O -1.68902228 -0.02647929 7.19341506 0.455012 0.383640 1.574327
O 9.97485263 -0.02565948 9.98043708 -0.710006 -0.563864 1.183957
O 4.59951849 1.53333041 7.20516989 0.894954 0.735799 -0.476497
O 3.69840070 1.50270910 9.97981844 -0.410066 -0.088079 -1.811625
Ga -0.04087115 3.05398012 4.52988308 -0.822718 -0.601932 0.565566
Ga 10.97043162 3.08008582 1.23847730 -0.955798 -0.137741 -1.387517
Ga 6.24795557 4.63731459 4.48360668 -0.599148 -1.130114 0.275979
Ga 4.78754962 4.61307870 1.15930989 -0.364811 -0.247286 -0.741162
Ga 1.58921040 3.10942764 1.74837734 0.335763 0.642758 1.716411
Ga 9.53123973 3.10704887 3.95880206 -0.266495 0.377297 0.170046
Ga 7.82512237 4.58748279 1.76040136 -0.783443 -0.206868 -1.007460
Ga 3.24712033 4.61872576 3.93185044 -0.635063 0.191711 1.245089
O 1.95042329 3.08408196 0.52357339 -0.394303 0.333170 -0.162233
O 9.15446460 3.05371428 5.25324602 0.064479 -0.480137 -0.205768
O 8.07057957 4.63547618 0.61731154 -0.072459 0.726550 -0.352488
O 2.92471017 4.62048500 5.15536665 0.202768 -0.744408 0.953366
O 1.37144106 3.14203394 3.09549092 1.182484 -0.481480 0.654288
O 9.74200481 3.03016171 2.51140028 -0.742900 -0.379676 -0.399038
O 7.58544305 4.65162869 3.12004042 -0.861391 0.044282 1.143260
O 3.47519827 4.70905894 2.46753941 1.316627 0.382113 -1.631210
O -0.29809828 3.06064071 1.47778006 0.455012 0.383640 1.574327
O 11.36577663 3.06146052 4.26480208 -0.710006 -0.563864 1.183957
O 5.99044249 4.62045041 1.48953489 0.894954 0.735799 -0.476497
O 5.08932470 4.58982910 4.26418344 -0.410066 -0.088079 -1.811625
Ga -1.43179515 3.05398012 10.24551808 -0.822718 -0.601932 0.565566
Ga 9.57950762 3.08008582 6.95411230 -0.955798 -0.137741 -1.387517
Ga 4.85703157 4.63731459 10.19924168 -0.599148 -1.130114 0.275979
Ga 3.39662562 4.61307870 6.87494489 -0.364811 -0.247286 -0.741162
Ga 0.19828640 3.10942764 7.46401234 0.335763 0.642758 1.716411
Ga 8.14031573 3.10704887 9.67443706 -0.266495 0.377297 0.170046
Ga 6.43419837 4.58748279 7.47603636 -0.783443 -0.206868 -1.007460
Ga 1.85619633 4.61872576 9.64748544 -0.635063 0.191711 1.245089
O 0.55949929 3.08408196 6.23920839 -0.394303 0.333170 -0.162233
O 7.76354060 3.05371428 10.96888102 0.064479 -0.480137 -0.205768
O 6.67965557 4.63547618 6.33294654 -0.072459 0.726550 -0.352488
O 1.53378617 4.62048500 10.87100165 0.202768 -0.744408 0.953366
O -0.01948294 3.14203394 8.81112592 1.182484 -0.481480 0.654288
O 8.35108081 3.03016171 8.22703528 -0.742900 -0.379676 -0.399038
O 6.19451905 4.65162869 8.83567542 -0.861391 0.044282 1.143260
O 2.08427427 4.70905894 8.18317441 1.316627 0.382113 -1.631210
O -1.68902228 3.06064071 7.19341506 0.455012 0.383640 1.574327
O 9.97485263 3.06146052 9.98043708 -0.710006 -0.563864 1.183957
O 4.59951849 4.62045041 7.20516989 0.894954 0.735799 -0.476497
O 3.69840070 4.58982910 9.97981844 -0.410066 -0.088079 -1.811625
Ga 12.42798985 -0.03313988 4.52988308 -0.822718 -0.601932 0.565566
Ga 23.43929262 -0.00703418 1.23847730 -0.955798 -0.137741 -1.387517
Ga 18.71681657 1.55019459 4.48360668 -0.599148 -1.130114 0.275979
Ga 17.25641062 1.52595870 1.15930989 -0.364811 -0.247286 -0.741162
Ga 14.05807140 0.02230764 1.74837734 0.335763 0.642758 1.716411
Ga 22.00010073 0.01992887 3.95880206 -0.266495 0.377297 0.170046
Ga 20.29398337 1.50036279 1.76040136 -0.783443 -0.206868 -1.007460
Ga 15.71598133 1.53160576 3.93185044 -0.635063 0.191711 1.245089
O 14.41928429 -0.00303804 0.52357339 -0.394303 0.333170 -0.162233
O 21.62332560 -0.03340572 5.25324602 0.064479 -0.480137 -0.205768
O 20.53944057 1.54835618 0.61731154 -0.072459 0.726550 -0.352488
O 15.39357117 1.53336500 5.15536665 0.202768 -0.744408 0.953366
O 13.84030206 0.05491394 3.09549092 1.182484 -0.481480 0.654288
O 22.21086581 -0.05695829 2.51140028 -0.742900 -0.379676 -0.399038
O 20.05430405 1.56450869 3.12004042 -0.861391 0.044282 1.143260
O 15.94405927 1.62193894 2.46753941 1.316627 0.382113 -1.631210
O 12.17076272 -0.02647929 1.47778006 0.455012 0.383640 1.574327
O 23.83463763 -0.02565948 4.26480208 -0.710006 -0.563864 1.183957
O 18.45930349 1.53333041 1.48953489 0.894954 0.735799 -0.476497
O 17.55818570 1.50270910 4.26418344 -0.410066 -0.088079 -1.811625
Ga 11.03706585 -0.03313988 10.24551808 -0.822718 -0.601932 0.565566
Ga 22.04836862 -0.00703418 6.95411230 -0.955798 -0.137741 -1.387517
Ga 17.32589257 1.55019459 10.19924168 -0.599148 -1.130114 0.275979
Ga 15.86548662 1.52595870 6.87494489 -0.364811 -0.247286 -0.741162
Ga 12.66714740 0.02230764 7.46401234 0.335763 0.642758 1.716411
Ga 20.60917673 0.01992887 9.67443706 -0.266495 0.377297 0.170046
Ga 18.90305937 1.50036279 7.47603636 -0.783443 -0.206868 -1.007460
Ga 14.32505733 1.53160576 9.64748544 -0.635063 0.191711 1.245089
O 13.02836029 -0.00303804 6.23920839 -0.394303 0.333170 -0.162233
O 20.23240160 -0.03340572 10.96888102 0.064479 -0.480137 -0.205768
O 19.14851657 1.54835618 6.33294654 -0.072459 0.726550 -0.352488
O 14.00264717 1.53336500 10.87100165 0.202768 -0.744408 0.953366
O 12.44937806 0.05491394 8.81112592 1.182484 -0.481480 0.654288
O 20.81994181 -0.05695829 8.22703528 -0.742900 -0.379676 -0.399038
O 18.66338005 1.56450869 8.83567542 -0.861391 0.044282 1.143260
O 14.55313527 1.62193894 8.18317441 1.316627 0.382113 -1.631210
O 10.77983872 -0.02647929 7.19341506 0.455012 0.383640 1.574327
O 22.44371363 -0.02565948 9.98043708 -0.710006 -0.563864 1.183957
O 17.06837949 1.53333041 7.20516989 0.894954 0.735799 -0.476497
O 16.16726170 1.50270910 9.97981844 -0.410066 -0.088079 -1.811625
Ga 12.42798985 3.05398012 4.52988308 -0.822718 -0.601932 0.565566
Ga 23.43929262 3.08008582 1.23847730 -0.955798 -0.137741 -1.387517
Ga 18.71681657 4.63731459 4.48360668 -0.599148 -1.130114 0.275979
Ga 17.25641062 4.61307870 1.15930989 -0.364811 -0.247286 -0.741162
Ga 14.05807140 3.10942764 1.74837734 0.335763 0.642758 1.716411
Ga 22.00010073 3.10704887 3.95880206 -0.266495 0.377297 0.170046
Ga 20.29398337 4.58748279 1.76040136 -0.783443 -0.206868 -1.007460
Ga 15.71598133 4.61872576 3.93185044 -0.635063 0.191711 1.245089
O 14.41928429 3.08408196 0.52357339 -0.394303 0.333170 -0.162233
O 21.62332560 3.05371428 5.25324602 0.064479 -0.480137 -0.205768
O 20.53944057 4.63547618 0.61731154 -0.072459 0.726550 -0.352488
O 15.39357117 4.62048500 5.15536665 0.202768 -0.744408 0.953366
O 13.84030206 3.14203394 3.09549092 1.182484 -0.481480 0.654288
O 22.21086581 3.03016171 2.51140028 -0.742900 -0.379676 -0.399038
O 20.05430405 4.65162869 3.12004042 -0.861391 0.044282 1.143260
O 15.94405927 4.70905894 2.46753941 1.316627 0.382113 -1.631210
O 12.17076272 3.06064071 1.47778006 0.455012 0.383640 1.574327
O 23.83463763 3.06146052 4.26480208 -0.710006 -0.563864 1.183957
O 18.45930349 4.62045041 1.48953489 0.894954 0.735799 -0.476497
O 17.55818570 4.58982910 4.26418344 -0.410066 -0.088079 -1.811625
Ga 11.03706585 3.05398012 10.24551808 -0.822718 -0.601932 0.565566
Ga 22.04836862 3.08008582 6.95411230 -0.955798 -0.137741 -1.387517
Ga 17.32589257 4.63731459 10.19924168 -0.599148 -1.130114 0.275979
Ga 15.86548662 4.61307870 6.87494489 -0.364811 -0.247286 -0.741162
Ga 12.66714740 3.10942764 7.46401234 0.335763 0.642758 1.716411
Ga 20.60917673 3.10704887 9.67443706 -0.266495 0.377297 0.170046
Ga 18.90305937 4.58748279 7.47603636 -0.783443 -0.206868 -1.007460
Ga 14.32505733 4.61872576 9.64748544 -0.635063 0.191711 1.245089
O 13.02836029 3.08408196 6.23920839 -0.394303 0.333170 -0.162233
O 20.23240160 3.05371428 10.96888102 0.064479 -0.480137 -0.205768
O 19.14851657 4.63547618 6.33294654 -0.072459 0.726550 -0.352488
O 14.00264717 4.62048500 10.87100165 0.202768 -0.744408 0.953366
O 12.44937806 3.14203394 8.81112592 1.182484 -0.481480 0.654288
O 20.81994181 3.03016171 8.22703528 -0.742900 -0.379676 -0.399038
O 18.66338005 4.65162869 8.83567542 -0.861391 0.044282 1.143260
O 14.55313527 4.70905894 8.18317441 1.316627 0.382113 -1.631210
O 10.77983872 3.06064071 7.19341506 0.455012 0.383640 1.574327
O 22.44371363 3.06146052 9.98043708 -0.710006 -0.563864 1.183957
O 17.06837949 4.62045041 7.20516989 0.894954 0.735799 -0.476497
O 16.16726170 4.58982910 9.97981844 -0.410066 -0.088079 -1.811625
159
Lattice="25.002646 0.000000 0.000000 0.000000 6.190314 0.000000 -2.789090 0.000000 11.461029" Properties=species:S:1:pos:R:3:force:R:3 Energy=-628.205644 Virial="38.699932 -17.434885 -14.156053 17.258902 -4.160226 3.922939 1.030589 -32.583655 32.978294" pbc="T T T"
Ga 11.07521393 0.02514501 1.12627157 -1.529260 -0.107792 -0.595236
Ga 6.24609835 1.50421087 4.57225065 1.325392 -0.254413 -0.261575
Ga 4.86141638 1.54142548 1.14213020 -0.940021 0.513560 -0.461690
Ga 1.54375368 -0.01946320 1.76868152 0.498586 -0.316206 0.197204
Ga 9.57579354 -0.03031969 3.86733282 1.036177 0.994295 0.996012
Ga 7.74144086 1.48344810 1.81042882 -0.732528 -1.057748 -0.548527
Ga 3.31758822 1.55159933 3.95349608 0.764619 -1.943887 0.522506
O 1.96680767 -0.02369066 0.55492783 -1.146436 -0.396928 -0.365448
O 9.12446351 0.05514839 5.14205317 1.076483 1.417287 -0.794280
O 8.14138786 1.52367014 0.47761790 -0.949465 -0.426736 -1.433223
O 2.93828936 1.55613468 5.18426987 0.470491 0.804512 -0.190172
O 1.32296235 0.07933545 3.21959636 0.348625 -0.314767 0.297378
O 9.82757407 -0.03220437 2.57120332 -0.466990 0.403589 -0.071317
O 7.66640500 1.53595552 3.25406916 0.294512 -2.035654 -0.609816
O 3.45532699 1.53314287 2.39403083 -0.865265 0.425072 -0.417563
O -0.29063705 -0.05302040 1.44498347 -0.250688 -1.133238 0.200713
O 11.37272682 -0.01464926 4.28125804 -1.320036 -0.268240 -0.983981
O 5.94410829 1.57596418 1.51763750 -0.320497 -0.555181 0.746200
O 5.14836298 1.52843583 4.30181194 0.326353 -0.409931 -0.188780
Ga -1.36791365 0.06249021 10.29384231 -0.248116 0.239435 -0.483519
Ga 9.68428993 0.02514501 6.84190657 -1.529260 -0.107792 -0.595236
Ga 4.85517435 1.50421087 10.28788565 1.325392 -0.254413 -0.261575
Ga 3.47049238 1.54142548 6.85776520 -0.940021 0.513560 -0.461690
Ga 0.15282968 -0.01946320 7.48431652 0.498586 -0.316206 0.197204
Ga 8.18486954 -0.03031969 9.58296782 1.036177 0.994295 0.996012
Ga 6.35051686 1.48344810 7.52606382 -0.732528 -1.057748 -0.548527
Ga 1.92666422 1.55159933 9.66913108 0.764619 -1.943887 0.522506
O 0.57588367 -0.02369066 6.27056283 -1.146436 -0.396928 -0.365448
O 7.73353951 0.05514839 10.85768817 1.076483 1.417287 -0.794280
O 6.75046386 1.52367014 6.19325290 -0.949465 -0.426736 -1.433223
O 1.54736536 1.55613468 10.89990487 0.470491 0.804512 -0.190172
O -0.06796165 0.07933545 8.93523136 0.348625 -0.314767 0.297378
O 8.43665007 -0.03220437 8.28683832 -0.466990 0.403589 -0.071317
O 6.27548100 1.53595552 8.96970416 0.294512 -2.035654 -0.609816
O 2.06440299 1.53314287 8.10966583 -0.865265 0.425072 -0.417563
O -1.68156105 -0.05302040 7.16061847 -0.250688 -1.133238 0.200713
O 9.98180282 -0.01464926 9.99689304 -1.320036 -0.268240 -0.983981
O 4.55318429 1.57596418 7.23327250 -0.320497 -0.555181 0.746200
O 3.75743898 1.52843583 10.01744694 0.326353 -0.409931 -0.188780
Ga 0.02301035 3.14961021 4.57820731 -0.248116 0.239435 -0.483519
Ga 11.07521393 3.11226501 1.12627157 -1.529260 -0.107792 -0.595236
Ga 6.24609835 4.59133087 4.57225065 1.325392 -0.254413 -0.261575
Ga 4.86141638 4.62854548 1.14213020 -0.940021 0.513560 -0.461690
Ga 1.54375368 3.06765680 1.76868152 0.498586 -0.316206 0.197204
Ga 9.57579354 3.05680031 3.86733282 1.036177 0.994295 0.996012
Ga 7.74144086 4.57056810 1.81042882 -0.732528 -1.057748 -0.548527
Ga 3.31758822 4.63871933 3.95349608 0.764619 -1.943887 0.522506
O 1.96680767 3.06342934 0.55492783 -1.146436 -0.396928 -0.365448
O 9.12446351 3.14226839 5.14205317 1.076483 1.417287 -0.794280
O 8.14138786 4.61079014 0.47761790 -0.949465 -0.426736 -1.433223
O 2.93828936 4.64325468 5.18426987 0.470491 0.804512 -0.190172
O 1.32296235 3.16645545 3.21959636 0.348625 -0.314767 0.297378
O 9.82757407 3.05491563 2.57120332 -0.466990 0.403589 -0.071317
O 7.66640500 4.62307552 3.25406916 0.294512 -2.035654 -0.609816
O 3.45532699 4.62026287 2.39403083 -0.865265 0.425072 -0.417563
O -0.29063705 3.03409960 1.44498347 -0.250688 -1.133238 0.200713
O 11.37272682 3.07247074 4.28125804 -1.320036 -0.268240 -0.983981
O 5.94410829 4.66308418 1.51763750 -0.320497 -0.555181 0.746200
O 5.14836298 4.61555583 4.30181194 0.326353 -0.409931 -0.188780
Ga -1.36791365 3.14961021 10.29384231 -0.248116 0.239435 -0.483519
Ga 9.68428993 3.11226501 6.84190657 -1.529260 -0.107792 -0.595236
Ga 4.85517435 4.59133087 10.28788565 1.325392 -0.254413 -0.261575
Ga 3.47049238 4.62854548 6.85776520 -0.940021 0.513560 -0.461690
Ga 0.15282968 3.06765680 7.48431652 0.498586 -0.316206 0.197204
Ga 8.18486954 3.05680031 9.58296782 1.036177 0.994295 0.996012
Ga 6.35051686 4.57056810 7.52606382 -0.732528 -1.057748 -0.548527
Ga 1.92666422 4.63871933 9.66913108 0.764619 -1.943887 0.522506
O 0.57588367 3.06342934 6.27056283 -1.146436 -0.396928 -0.365448
O 7.73353951 3.14226839 10.85768817 1.076483 1.417287 -0.794280
O 6.75046386 4.61079014 6.19325290 -0.949465 -0.426736 -1.433223
O 1.54736536 4.64325468 10.89990487 0.470491 0.804512 -0.190172
O -0.06796165 3.16645545 8.93523136 0.348625 -0.314767 0.297378
O 8.43665007 3.05491563 8.28683832 -0.466990 0.403589 -0.071317
O 6.27548100 4.62307552 8.96970416 0.294512 -2.035654 -0.609816
O 2.06440299 4.62026287 8.10966583 -0.865265 0.425072 -0.417563
O -1.68156105 3.03409960 7.16061847 -0.250688 -1.133238 0.200713
O 9.98180282 3.07247074 9.99689304 -1.320036 -0.268240 -0.983981
O 4.55318429 4.66308418 7.23327250 -0.320497 -0.555181 0.746200
O 3.75743898 4.61555583 10.01744694 0.326353 -0.409931 -0.188780
Ga 12.49187135 0.06249021 4.57820731 -0.248116 0.239435 -0.483519
Ga 23.54407493 0.02514501 1.12627157 -1.529260 -0.107792 -0.595236
Ga 18.71495935 1.50421087 4.57225065 1.325392 -0.254413 -0.261575
Ga 17.33027738 1.54142548 1.14213020 -0.940021 0.513560 -0.461690
Ga 14.01261468 -0.01946320 1.76868152 0.498586 -0.316206 0.197204
Ga 22.04465454 -0.03031969 3.86733282 1.036177 0.994295 0.996012
Ga 20.21030186 1.48344810 1.81042882 -0.732528 -1.057748 -0.548527
Ga 15.78644922 1.55159933 3.95349608 0.764619 -1.943887 0.522506
O 14.43566867 -0.02369066 0.55492783 -1.146436 -0.396928 -0.365448
O 21.59332451 0.05514839 5.14205317 1.076483 1.417287 -0.794280
O 20.61024886 1.52367014 0.47761790 -0.949465 -0.426736 -1.433223
O 15.40715036 1.55613468 5.18426987 0.470491 0.804512 -0.190172
O 13.79182335 0.07933545 3.21959636 0.348625 -0.314767 0.297378
O 22.29643507 -0.03220437 2.57120332 -0.466990 0.403589 -0.071317
O 20.13526600 1.53595552 3.25406916 0.294512 -2.035654 -0.609816
O 15.92418799 1.53314287 2.39403083 -0.865265 0.425072 -0.417563
O 12.17822395 -0.05302040 1.44498347 -0.250688 -1.133238 0.200713
O 23.84158782 -0.01464926 4.28125804 -1.320036 -0.268240 -0.983981
O 18.41296929 1.57596418 1.51763750 -0.320497 -0.555181 0.746200
O 17.61722398 1.52843583 4.30181194 0.326353 -0.409931 -0.188780
Ga 11.10094735 0.06249021 10.29384231 -0.248116 0.239435 -0.483519
Ga 22.15315093 0.02514501 6.84190657 -1.529260 -0.107792 -0.595236
Ga 17.32403535 1.50421087 10.28788565 1.325392 -0.254413 -0.261575
Ga 15.93935338 1.54142548 6.85776520 -0.940021 0.513560 -0.461690
Ga 12.62169068 -0.01946320 7.48431652 0.498586 -0.316206 0.197204
Ga 20.65373054 -0.03031969 9.58296782 1.036177 0.994295 0.996012
Ga 18.81937786 1.48344810 7.52606382 -0.732528 -1.057748 -0.548527
Ga 14.39552522 1.55159933 9.66913108 0.764619 -1.943887 0.522506
O 13.04474467 -0.02369066 6.27056283 -1.146436 -0.396928 -0.365448
O 20.20240051 0.05514839 10.85768817 1.076483 1.417287 -0.794280
O 19.21932486 1.52367014 6.19325290 -0.949465 -0.426736 -1.433223
O 14.01622636 1.55613468 10.89990487 0.470491 0.804512 -0.190172
O 12.40089935 0.07933545 8.93523136 0.348625 -0.314767 0.297378
O 20.90551107 -0.03220437 8.28683832 -0.466990 0.403589 -0.071317
O 18.74434200 1.53595552 8.96970416 0.294512 -2.035654 -0.609816
O 14.53326399 1.53314287 8.10966583 -0.865265 0.425072 -0.417563
O 10.78729995 -0.05302040 7.16061847 -0.250688 -1.133238 0.200713
O 22.45066382 -0.01464926 9.99689304 -1.320036 -0.268240 -0.983981
O 17.02204529 1.57596418 7.23327250 -0.320497 -0.555181 0.746200
O 16.22629998 1.52843583 10.01744694 0.326353 -0.409931 -0.188780
Ga 12.49187135 3.14961021 4.57820731 -0.248116 0.239435 -0.483519
Ga 23.54407493 3.11226501 1.12627157 -1.529260 -0.107792 -0.595236
Ga 18.71495935 4.59133087 4.57225065 1.325392 -0.254413 -0.261575
Ga 17.33027738 4.62854548 1.14213020 -0.940021 0.513560 -0.461690
Ga 14.01261468 3.06765680 1.76868152 0.498586 -0.316206 0.197204
Ga 22.04465454 3.05680031 3.86733282 1.036177 0.994295 0.996012
Ga 20.21030186 4.57056810 1.81042882 -0.732528 -1.057748 -0.548527
Ga 15.78644922 4.63871933 3.95349608 0.764619 -1.943887 0.522506
O 14.43566867 3.06342934 0.55492783 -1.146436 -0.396928 -0.365448
O 21.59332451 3.14226839 5.14205317 1.076483 1.417287 -0.794280
O 20.61024886 4.61079014 0.47761790 -0.949465 -0.426736 -1.433223
O 15.40715036 4.64325468 5.18426987 0.470491 0.804512 -0.190172
O 13.79182335 3.16645545 3.21959636 0.348625 -0.314767 0.297378
O 22.29643507 3.05491563 2.57120332 -0.466990 0.403589 -0.071317
O 20.13526600 4.62307552 3.25406916 0.294512 -2.035654 -0.609816
O 15.92418799 4.62026287 2.39403083 -0.865265 0.425072 -0.417563
O 12.17822395 3.03409960 1.44498347 -0.250688 -1.133238 0.200713
O 23.84158782 3.07247074 4.28125804 -1.320036 -0.268240 -0.983981
O 18.41296929 4.66308418 1.51763750 -0.320497 -0.555181 0.746200
O 17.61722398 4.61555583 4.30181194 0.326353 -0.409931 -0.188780
Ga 11.10094735 3.14961021 10.29384231 -0.248116 0.239435 -0.483519
Ga 22.15315093 3.11226501 6.84190657 -1.529260 -0.107792 -0.595236
Ga 17.32403535 4.59133087 10.28788565 1.325392 -0.254413 -0.261575
Ga 15.93935338 4.62854548 6.85776520 -0.940021 0.513560 -0.461690
Ga 12.62169068 3.06765680 7.48431652 0.498586 -0.316206 0.197204
Ga 20.65373054 3.05680031 9.58296782 1.036177 0.994295 0.996012
Ga 18.81937786 4.57056810 7.52606382 -0.732528 -1.057748 -0.548527
Ga 14.39552522 4.63871933 9.66913108 0.764619 -1.943887 0.522506
O 13.04474467 3.06342934 6.27056283 -1.146436 -0.396928 -0.365448
O 20.20240051 3.14226839 10.85768817 1.076483 1.417287 -0.794280
O 19.21932486 4.61079014 6.19325290 -0.949465 -0.426736 -1.433223
O 14.01622636 4.64325468 10.89990487 0.470491 0.804512 -0.190172
O 12.40089935 3.16645545 8.93523136 0.348625 -0.314767 0.297378
O 20.90551107 3.05491563 8.28683832 -0.466990 0.403589 -0.071317
O 18.74434200 4.62307552 8.96970416 0.294512 -2.035654 -0.609816
O 14.53326399 4.62026287 8.10966583 -0.865265 0.425072 -0.417563
O 10.78729995 3.03409960 7.16061847 -0.250688 -1.133238 0.200713
O 22.45066382 3.07247074 9.99689304 -1.320036 -0.268240 -0.983981
O 17.02204529 4.66308418 7.23327250 -0.320497 -0.555181 0.746200
O 16.22629998 4.61555583 10.01744694 0.326353 -0.409931 -0.188780
159
Lattice="25.130859 0.000000 0.000000 0.000000 6.222058 0.000000 -2.803393 0.000000 11.519801" Properties=species:S:1:pos:R:3:force:R:3 Energy=-630.007265 Virial="-15.819928 20.737122 4.931034 -4.219562 6.919714 -20.399120 19.206413 -3.283921 5.935520" pbc="T T T"
Ga 11.15313491 -0.02016719 1.17982233 0.945831 1.243504 -0.965816
Ga 6.32000470 1.53602530 4.54978945 0.219321 1.538464 -0.517700
Ga 4.85900100 1.51202461 1.13965023 1.186404 0.552767 0.344162
Ga 1.57963893 -0.04595176 1.83641388 -0.335678 -0.450486 0.690345
Ga 9.62977220 -0.06903227 3.92303704 -0.568017 -1.094849 1.298939
Ga 7.88294331 1.51626782 1.79118521 1.067002 0.551113 0.341128
Ga 3.34703604 1.58685006 3.94007807 0.079357 1.023150 1.179833
O 1.90507012 0.05689479 0.61098699 -0.255146 0.910318 0.723550
O 9.27391634 0.00341273 5.18613937 -0.659063 -0.506906 -0.756833
O 8.17846769 1.57641501 0.55816694 -1.332100 0.896606 0.227203
O 3.00811102 1.58153245 5.15834679 -0.151960 1.850532 1.458481
O 1.43375019 -0.03992243 3.19866558 -0.404122 0.409990 -0.058710
O 9.78206827 0.07982670 2.67027332 -0.840438 -0.204108 1.092165
O 7.69865614 1.54818658 3.23540465 -0.286730 -0.419092 0.900798
O 3.52485154 1.54268774 2.61768503 0.045817 -0.353600 0.479241
O -0.29936961 0.01990972 1.50117207 0.680402 -0.963602 -0.072214
O 11.48916845 0.03355762 4.26067578 0.728210 0.347424 -0.078599
O 5.95180942 1.51150827 1.49211515 0.976096 -0.651594 -1.012669
O 5.22074852 1.57382536 4.35234560 -0.336582 0.098909 0.988046
Ga -1.34033165 0.04770030 10.22130927 -0.411997 -0.316144 0.272707
Ga 9.76221091 -0.02016719 6.89545733 0.945831 1.243504 -0.965816
Ga 4.92908070 1.53602530 10.26542445 0.219321 1.538464 -0.517700
Ga 3.46807700 1.51202461 6.85528523 1.186404 0.552767 0.344162
Ga 0.18871493 -0.04595176 7.55204888 -0.335678 -0.450486 0.690345
Ga 8.23884820 -0.06903227 9.63867204 -0.568017 -1.094849 1.298939
Ga 6.49201931 1.51626782 7.50682021 1.067002 0.551113 0.341128
Ga 1.95611204 1.58685006 9.65571307 0.079357 1.023150 1.179833
O 0.51414612 0.05689479 6.32662199 -0.255146 0.910318 0.723550
O 7.88299234 0.00341273 10.90177437 -0.659063 -0.506906 -0.756833
O 6.78754369 1.57641501 6.27380194 -1.332100 0.896606 0.227203
O 1.61718702 1.58153245 10.87398179 -0.151960 1.850532 1.458481
O 0.04282619 -0.03992243 8.91430058 -0.404122 0.409990 -0.058710
O 8.39114427 0.07982670 8.38590832 -0.840438 -0.204108 1.092165
O 6.30773214 1.54818658 8.95103965 -0.286730 -0.419092 0.900798
O 2.13392754 1.54268774 8.33332003 0.045817 -0.353600 0.479241
O -1.69029361 0.01990972 7.21680707 0.680402 -0.963602 -0.072214
O 10.09824445 0.03355762 9.97631078 0.728210 0.347424 -0.078599
O 4.56088542 1.51150827 7.20775015 0.976096 -0.651594 -1.012669
O 3.82982452 1.57382536 10.06798060 -0.336582 0.098909 0.988046
Ga 0.05059235 3.13482030 4.50567427 -0.411997 -0.316144 0.272707
Ga 11.15313491 3.06695281 1.17982233 0.945831 1.243504 -0.965816
Ga 6.32000470 4.62314530 4.54978945 0.219321 1.538464 -0.517700
Ga 4.85900100 4.59914461 1.13965023 1.186404 0.552767 0.344162
Ga 1.57963893 3.04116824 1.83641388 -0.335678 -0.450486 0.690345
Ga 9.62977220 3.01808773 3.92303704 -0.568017 -1.094849 1.298939
Ga 7.88294331 4.60338782 1.79118521 1.067002 0.551113 0.341128
Ga 3.34703604 4.67397006 3.94007807 0.079357 1.023150 1.179833
O 1.90507012 3.14401479 0.61098699 -0.255146 0.910318 0.723550
O 9.27391634 3.09053273 5.18613937 -0.659063 -0.506906 -0.756833
O 8.17846769 4.66353501 0.55816694 -1.332100 0.896606 0.227203
O 3.00811102 4.66865245 5.15834679 -0.151960 1.850532 1.458481
O 1.43375019 3.04719757 3.19866558 -0.404122 0.409990 -0.058710
O 9.78206827 3.16694670 2.67027332 -0.840438 -0.204108 1.092165
O 7.69865614 4.63530658 3.23540465 -0.286730 -0.419092 0.900798
O 3.52485154 4.62980774 2.61768503 0.045817 -0.353600 0.479241
O -0.29936961 3.10702972 1.50117207 0.680402 -0.963602 -0.072214
O 11.48916845 3.12067762 4.26067578 0.728210 0.347424 -0.078599
O 5.95180942 4.59862827 1.49211515 0.976096 -0.651594 -1.012669
O 5.22074852 4.66094536 4.35234560 -0.336582 0.098909 0.988046
Ga -1.34033165 3.13482030 10.22130927 -0.411997 -0.316144 0.272707
Ga 9.76221091 3.06695281 6.89545733 0.945831 1.243504 -0.965816
Ga 4.92908070 4.62314530 10.26542445 0.219321 1.538464 -0.517700
Ga 3.46807700 4.59914461 6.85528523 1.186404 0.552767 0.344162
Ga 0.18871493 3.04116824 7.55204888 -0.335678 -0.450486 0.690345
Ga 8.23884820 3.01808773 9.63867204 -0.568017 -1.094849 1.298939
Ga 6.49201931 4.60338782 7.50682021 1.067002 0.551113 0.341128
Ga 1.95611204 4.67397006 9.65571307 0.079357 1.023150 1.179833
O 0.51414612 3.14401479 6.32662199 -0.255146 0.910318 0.723550
O 7.88299234 3.09053273 10.90177437 -0.659063 -0.506906 -0.756833
O 6.78754369 4.66353501 6.27380194 -1.332100 0.896606 0.227203
O 1.61718702 4.66865245 10.87398179 -0.151960 1.850532 1.458481
O 0.04282619 3.04719757 8.91430058 -0.404122 0.409990 -0.058710
O 8.39114427 3.16694670 8.38590832 -0.840438 -0.204108 1.092165
O 6.30773214 4.63530658 8.95103965 -0.286730 -0.419092 0.900798
O 2.13392754 4.62980774 8.33332003 0.045817 -0.353600 0.479241
O -1.69029361 3.10702972 7.21680707 0.680402 -0.963602 -0.072214
O 10.09824445 3.12067762 9.97631078 0.728210 0.347424 -0.078599
O 4.56088542 4.59862827 7.20775015 0.976096 -0.651594 -1.012669
O 3.82982452 4.66094536 10.06798060 -0.336582 0.098909 0.988046
Ga 12.51945335 0.04770030 4.50567427 -0.411997 -0.316144 0.272707
Ga 23.62199591 -0.02016719 1.17982233 0.945831 1.243504 -0.965816
Ga 18.78886570 1.53602530 4.54978945 0.219321 1.538464 -0.517700
Ga 17.32786200 1.51202461 1.13965023 1.186404 0.552767 0.344162
Ga 14.04849993 -0.04595176 1.83641388 -0.335678 -0.450486 0.690345
Ga 22.09863320 -0.06903227 3.92303704 -0.568017 -1.094849 1.298939
Ga 20.35180431 1.51626782 1.79118521 1.067002 0.551113 0.341128
Ga 15.81589704 1.58685006 3.94007807 0.079357 1.023150 1.179833
O 14.37393112 0.05689479 0.61098699 -0.255146 0.910318 0.723550
O 21.74277734 0.00341273 5.18613937 -0.659063 -0.506906 -0.756833
O 20.64732869 1.57641501 0.55816694 -1.332100 0.896606 0.227203
O 15.47697202 1.58153245 5.15834679 -0.151960 1.850532 1.458481
O 13.90261119 -0.03992243 3.19866558 -0.404122 0.409990 -0.058710
O 22.25092927 0.07982670 2.67027332 -0.840438 -0.204108 1.092165
O 20.16751714 1.54818658 3.23540465 -0.286730 -0.419092 0.900798
O 15.99371254 1.54268774 2.61768503 0.045817 -0.353600 0.479241
O 12.16949139 0.01990972 1.50117207 0.680402 -0.963602 -0.072214
O 23.95802945 0.03355762 4.26067578 0.728210 0.347424 -0.078599
O 18.42067042 1.51150827 1.49211515 0.976096 -0.651594 -1.012669
O 17.68960952 1.57382536 4.35234560 -0.336582 0.098909 0.988046
Ga 11.12852935 0.04770030 10.22130927 -0.411997 -0.316144 0.272707
Ga 22.23107191 -0.02016719 6.89545733 0.945831 1.243504 -0.965816
Ga 17.39794170 1.53602530 10.26542445 0.219321 1.538464 -0.517700
Ga 15.93693800 1.51202461 6.85528523 1.186404 0.552767 0.344162
Ga 12.65757593 -0.04595176 7.55204888 -0.335678 -0.450486 0.690345
Ga 20.70770920 -0.06903227 9.63867204 -0.568017 -1.094849 1.298939
Ga 18.96088031 1.51626782 7.50682021 1.067002 0.551113 0.341128
Ga 14.42497304 1.58685006 9.65571307 0.079357 1.023150 1.179833
O 12.98300712 0.05689479 6.32662199 -0.255146 0.910318 0.723550
O 20.35185334 0.00341273 10.90177437 -0.659063 -0.506906 -0.756833
O 19.25640469 1.57641501 6.27380194 -1.332100 0.896606 0.227203
O 14.08604802 1.58153245 10.87398179 -0.151960 1.850532 1.458481
O 12.51168719 -0.03992243 8.91430058 -0.404122 0.409990 -0.058710
O 20.86000527 0.07982670 8.38590832 -0.840438 -0.204108 1.092165
O 18.77659314 1.54818658 8.95103965 -0.286730 -0.419092 0.900798
O 14.60278854 1.54268774 8.33332003 0.045817 -0.353600 0.479241
O 10.77856739 0.01990972 7.21680707 0.680402 -0.963602 -0.072214
O 22.56710545 0.03355762 9.97631078 0.728210 0.347424 -0.078599
O 17.02974642 1.51150827 7.20775015 0.976096 -0.651594 -1.012669
O 16.29868552 1.57382536 10.06798060 -0.336582 0.098909 0.988046
Ga 12.51945335 3.13482030 4.50567427 -0.411997 -0.316144 0.272707
Ga 23.62199591 3.06695281 1.17982233 0.945831 1.243504 -0.965816
Ga 18.78886570 4.62314530 4.54978945 0.219321 1.538464 -0.517700
Ga 17.32786200 4.59914461 1.13965023 1.186404 0.552767 0.344162
Ga 14.04849993 3.04116824 1.83641388 -0.335678 -0.450486 0.690345
Ga 22.09863320 3.01808773 3.92303704 -0.568017 -1.094849 1.298939
Ga 20.35180431 4.60338782 1.79118521 1.067002 0.551113 0.341128
Ga 15.81589704 4.67397006 3.94007807 0.079357 1.023150 1.179833
O 14.37393112 3.14401479 0.61098699 -0.255146 0.910318 0.723550
O 21.74277734 3.09053273 5.18613937 -0.659063 -0.506906 -0.756833
O 20.64732869 4.66353501 0.55816694 -1.332100 0.896606 0.227203
O 15.47697202 4.66865245 5.15834679 -0.151960 1.850532 1.458481
O 13.90261119 3.04719757 3.19866558 -0.404122 0.409990 -0.058710
O 22.25092927 3.16694670 2.67027332 -0.840438 -0.204108 1.092165
O 20.16751714 4.63530658 3.23540465 -0.286730 -0.419092 0.900798
O 15.99371254 4.62980774 2.61768503 0.045817 -0.353600 0.479241
O 12.16949139 3.10702972 1.50117207 0.680402 -0.963602 -0.072214
O 23.95802945 3.12067762 4.26067578 0.728210 0.347424 -0.078599
O 18.42067042 4.59862827 1.49211515 0.976096 -0.651594 -1.012669
O 17.68960952 4.66094536 4.35234560 -0.336582 0.098909 0.988046
Ga 11.12852935 3.13482030 10.22130927 -0.411997 -0.316144 0.272707
Ga 22.23107191 3.06695281 6.89545733 0.945831 1.243504 -0.965816
Ga 17.39794170 4.62314530 10.26542445 0.219321 1.538464 -0.517700
Ga 15.93693800 4.59914461 6.85528523 1.186404 0.552767 0.344162
Ga 12.65757593 3.04116824 7.55204888 -0.335678 -0.450486 0.690345
Ga 20.70770920 3.01808773 9.63867204 -0.568017 -1.094849 1.298939
Ga 18.96088031 4.60338782 7.50682021 1.067002 0.551113 0.341128
Ga 14.42497304 4.67397006 9.65571307 0.079357 1.023150 1.179833
O 12.98300712 3.14401479 6.32662199 -0.255146 0.910318 0.723550
O 20.35185334 3.09053273 10.90177437 -0.659063 -0.506906 -0.756833
O 19.25640469 4.66353501 6.27380194 -1.332100 0.896606 0.227203
O 14.08604802 4.66865245 10.87398179 -0.151960 1.850532 1.458481
O 12.51168719 3.04719757 8.91430058 -0.404122 0.409990 -0.058710
O 20.86000527 3.16694670 8.38590832 -0.840438 -0.204108 1.092165
O 18.77659314 4.63530658 8.95103965 -0.286730 -0.419092 0.900798
O 14.60278854 4.62980774 8.33332003 0.045817 -0.353600 0.479241
O 10.77856739 3.10702972 7.21680707 0.680402 -0.963602 -0.072214
O 22.56710545 3.12067762 9.97631078 0.728210 0.347424 -0.078599
O 17.02974642 4.59862827 7.20775015 0.976096 -0.651594 -1.012669
O 16.29868552 4.66094536 10.06798060 -0.336582 0.098909 0.988046
159
Lattice="25.383700 0.000000 0.000000 0.000000 6.284658 0.000000 -2.831598 0.000000 11.635702" Properties=species:S:1:pos:R:3:force:R:3 Energy=-628.289599 Virial="-24.243749 17.755898 11.739642 -0.373669 26.839517 15.036938 2.631940 10.041439 5.104441" pbc="T T T"
Ga 11.23104239 -0.02849977 1.25276303 -0.453624 0.320503 -0.223810
Ga 6.36713163 1.58935626 4.65383032 1.246308 0.142436 1.118395
Ga 4.86645002 1.57889275 1.24777200 0.313193 0.025826 0.768362
Ga 1.64085224 0.00159746 1.81845162 0.294288 -1.135458 -0.467218
Ga 9.71872834 0.00974548 4.04535224 0.427196 -0.176603 -1.855255
Ga 7.87415289 1.55996953 1.78328371 -2.279183 -0.307708 -0.338740
Ga 3.32155834 1.58622741 4.02227623 -0.314534 -0.965181 0.248396
O 1.92240220 0.03088379 0.59134148 0.209978 0.667666 0.058563
O 9.40506106 0.00278987 5.24538237 0.555883 0.821891 -1.340458
O 8.25420423 1.52709272 0.59686956 -0.549537 -1.319456 0.204353
O 2.92114377 1.61987439 5.23623531 0.488234 -0.129692 -0.397956
O 1.37826563 -0.00606222 3.21821450 1.396914 -0.748594 1.344032
O 9.90765600 0.07253376 2.54519332 -0.018023 0.596120 0.764159
O 7.73430960 1.56463162 3.26800295 0.854959 -0.116585 0.952478
O 3.51831220 1.62665475 2.61735556 1.140925 0.650320 -1.119137
O -0.35909548 0.02083873 1.55018395 -0.467340 -1.133643 0.879625
O 11.56793644 -0.01177059 4.30735943 -0.059243 -0.239149 0.707022
O 6.01396421 1.50442639 1.43623778 -0.710622 -0.213766 0.529772
O 5.24490240 1.63170837 4.30394647 0.714744 -0.562550 -0.074461
Ga -1.46295601 -0.00299504 10.35666739 0.613628 0.902318 0.359507
Ga 9.84011839 -0.02849977 6.96839803 -0.453624 0.320503 -0.223810
Ga 4.97620763 1.58935626 10.36946532 1.246308 0.142436 1.118395
Ga 3.47552602 1.57889275 6.96340700 0.313193 0.025826 0.768362
Ga 0.24992824 0.00159746 7.53408662 0.294288 -1.135458 -0.467218
Ga 8.32780434 0.00974548 9.76098724 0.427196 -0.176603 -1.855255
Ga 6.48322889 1.55996953 7.49891871 -2.279183 -0.307708 -0.338740
Ga 1.93063434 1.58622741 9.73791123 -0.314534 -0.965181 0.248396
O 0.53147820 0.03088379 6.30697648 0.209978 0.667666 0.058563
O 8.01413706 0.00278987 10.96101737 0.555883 0.821891 -1.340458
O 6.86328023 1.52709272 6.31250456 -0.549537 -1.319456 0.204353
O 1.53021977 1.61987439 10.95187031 0.488234 -0.129692 -0.397956
O -0.01265837 -0.00606222 8.93384950 1.396914 -0.748594 1.344032
O 8.51673200 0.07253376 8.26082832 -0.018023 0.596120 0.764159
O 6.34338560 1.56463162 8.98363795 0.854959 -0.116585 0.952478
O 2.12738820 1.62665475 8.33299056 1.140925 0.650320 -1.119137
O -1.75001948 0.02083873 7.26581895 -0.467340 -1.133643 0.879625
O 10.17701244 -0.01177059 10.02299443 -0.059243 -0.239149 0.707022
O 4.62304021 1.50442639 7.15187278 -0.710622 -0.213766 0.529772
O 3.85397840 1.63170837 10.01958147 0.714744 -0.562550 -0.074461
Ga -0.07203201 3.08412496 4.64103239 0.613628 0.902318 0.359507
Ga 11.23104239 3.05862023 1.25276303 -0.453624 0.320503 -0.223810
Ga 6.36713163 4.67647626 4.65383032 1.246308 0.142436 1.118395
Ga 4.86645002 4.66601275 1.24777200 0.313193 0.025826 0.768362
Ga 1.64085224 3.08871746 1.81845162 0.294288 -1.135458 -0.467218
Ga 9.71872834 3.09686548 4.04535224 0.427196 -0.176603 -1.855255
Ga 7.87415289 4.64708953 1.78328371 -2.279183 -0.307708 -0.338740
Ga 3.32155834 4.67334741 4.02227623 -0.314534 -0.965181 0.248396
O 1.92240220 3.11800379 0.59134148 0.209978 0.667666 0.058563
O 9.40506106 3.08990987 5.24538237 0.555883 0.821891 -1.340458
O 8.25420423 4.61421272 0.59686956 -0.549537 -1.319456 0.204353
O 2.92114377 4.70699439 5.23623531 0.488234 -0.129692 -0.397956
O 1.37826563 3.08105778 3.21821450 1.396914 -0.748594 1.344032
O 9.90765600 3.15965376 2.54519332 -0.018023 0.596120 0.764159
O 7.73430960 4.65175162 3.26800295 0.854959 -0.116585 0.952478
O 3.51831220 4.71377475 2.61735556 1.140925 0.650320 -1.119137
O -0.35909548 3.10795873 1.55018395 -0.467340 -1.133643 0.879625
O 11.56793644 3.07534941 4.30735943 -0.059243 -0.239149 0.707022
O 6.01396421 4.59154639 1.43623778 -0.710622 -0.213766 0.529772
O 5.24490240 4.71882837 4.30394647 0.714744 -0.562550 -0.074461
Ga -1.46295601 3.08412496 10.35666739 0.613628 0.902318 0.359507
Ga 9.84011839 3.05862023 6.96839803 -0.453624 0.320503 -0.223810
Ga 4.97620763 4.67647626 10.36946532 1.246308 0.142436 1.118395
Ga 3.47552602 4.66601275 6.96340700 0.313193 0.025826 0.768362
Ga 0.24992824 3.08871746 7.53408662 0.294288 -1.135458 -0.467218
Ga 8.32780434 3.09686548 9.76098724 0.427196 -0.176603 -1.855255
Ga 6.48322889 4.64708953 7.49891871 -2.279183 -0.307708 -0.338740
Ga 1.93063434 4.67334741 9.73791123 -0.314534 -0.965181 0.248396
O 0.53147820 3.11800379 6.30697648 0.209978 0.667666 0.058563
O 8.01413706 3.08990987 10.96101737 0.555883 0.821891 -1.340458
O 6.86328023 4.61421272 6.31250456 -0.549537 -1.319456 0.204353
O 1.53021977 4.70699439 10.95187031 0.488234 -0.129692 -0.397956
O -0.01265837 3.08105778 8.93384950 1.396914 -0.748594 1.344032
O 8.51673200 3.15965376 8.26082832 -0.018023 0.596120 0.764159
O 6.34338560 4.65175162 8.98363795 0.854959 -0.116585 0.952478
O 2.12738820 4.71377475 8.33299056 1.140925 0.650320 -1.119137
O -1.75001948 3.10795873 7.26581895 -0.467340 -1.133643 0.879625
O 10.17701244 3.07534941 10.02299443 -0.059243 -0.239149 0.707022
O 4.62304021 4.59154639 7.15187278 -0.710622 -0.213766 0.529772
O 3.85397840 4.71882837 10.01958147 0.714744 -0.562550 -0.074461
Ga 12.39682899 -0.00299504 4.64103239 0.613628 0.902318 0.359507
Ga 23.69990339 -0.02849977 1.25276303 -0.453624 0.320503 -0.223810
Ga 18.83599263 1.58935626 4.65383032 1.246308 0.142436 1.118395
Ga 17.33531102 1.57889275 1.24777200 0.313193 0.025826 0.768362
Ga 14.10971324 0.00159746 1.81845162 0.294288 -1.135458 -0.467218
Ga 22.18758934 0.00974548 4.04535224 0.427196 -0.176603 -1.855255
Ga 20.34301389 1.55996953 1.78328371 -2.279183 -0.307708 -0.338740
Ga 15.79041934 1.58622741 4.02227623 -0.314534 -0.965181 0.248396
O 14.39126320 0.03088379 0.59134148 0.209978 0.667666 0.058563
O 21.87392206 0.00278987 5.24538237 0.555883 0.821891 -1.340458
O 20.72306523 1.52709272 0.59686956 -0.549537 -1.319456 0.204353
O 15.39000477 1.61987439 5.23623531 0.488234 -0.129692 -0.397956
O 13.84712663 -0.00606222 3.21821450 1.396914 -0.748594 1.344032
O 22.37651700 0.07253376 2.54519332 -0.018023 0.596120 0.764159
O 20.20317060 1.56463162 3.26800295 0.854959 -0.116585 0.952478
O 15.98717320 1.62665475 2.61735556 1.140925 0.650320 -1.119137
O 12.10976552 0.02083873 1.55018395 -0.467340 -1.133643 0.879625
O 24.03679744 -0.01177059 4.30735943 -0.059243 -0.239149 0.707022
O 18.48282521 1.50442639 1.43623778 -0.710622 -0.213766 0.529772
O 17.71376340 1.63170837 4.30394647 0.714744 -0.562550 -0.074461
Ga 11.00590499 -0.00299504 10.35666739 0.613628 0.902318 0.359507
Ga 22.30897939 -0.02849977 6.96839803 -0.453624 0.320503 -0.223810
Ga 17.44506863 1.58935626 10.36946532 1.246308 0.142436 1.118395
Ga 15.94438702 1.57889275 6.96340700 0.313193 0.025826 0.768362
Ga 12.71878924 0.00159746 7.53408662 0.294288 -1.135458 -0.467218
Ga 20.79666534 0.00974548 9.76098724 0.427196 -0.176603 -1.855255
Ga 18.95208989 1.55996953 7.49891871 -2.279183 -0.307708 -0.338740
Ga 14.39949534 1.58622741 9.73791123 -0.314534 -0.965181 0.248396
O 13.00033920 0.03088379 6.30697648 0.209978 0.667666 0.058563
O 20.48299806 0.00278987 10.96101737 0.555883 0.821891 -1.340458
O 19.33214123 1.52709272 6.31250456 -0.549537 -1.319456 0.204353
O 13.99908077 1.61987439 10.95187031 0.488234 -0.129692 -0.397956
O 12.45620263 -0.00606222 8.93384950 1.396914 -0.748594 1.344032
O 20.98559300 0.07253376 8.26082832 -0.018023 0.596120 0.764159
O 18.81224660 1.56463162 8.98363795 0.854959 -0.116585 0.952478
O 14.59624920 1.62665475 8.33299056 1.140925 0.650320 -1.119137
O 10.71884152 0.02083873 7.26581895 -0.467340 -1.133643 0.879625
O 22.64587344 -0.01177059 10.02299443 -0.059243 -0.239149 0.707022
O 17.09190121 1.50442639 7.15187278 -0.710622 -0.213766 0.529772
O 16.32283940 1.63170837 10.01958147 0.714744 -0.562550 -0.074461
Ga 12.39682899 3.08412496 4.64103239 0.613628 0.902318 0.359507
Ga 23.69990339 3.05862023 1.25276303 -0.453624 0.320503 -0.223810
Ga 18.83599263 4.67647626 4.65383032 1.246308 0.142436 1.118395
Ga 17.33531102 4.66601275 1.24777200 0.313193 0.025826 0.768362
Ga 14.10971324 3.08871746 1.81845162 0.294288 -1.135458 -0.467218
Ga 22.18758934 3.09686548 4.04535224 0.427196 -0.176603 -1.855255
Ga 20.34301389 4.64708953 1.78328371 -2.279183 -0.307708 -0.338740
Ga 15.79041934 4.67334741 4.02227623 -0.314534 -0.965181 0.248396
O 14.39126320 3.11800379 0.59134148 0.209978 0.667666 0.058563
O 21.87392206 3.08990987 5.24538237 0.555883 0.821891 -1.340458
O 20.72306523 4.61421272 0.59686956 -0.549537 -1.319456 0.204353
O 15.39000477 4.70699439 5.23623531 0.488234 -0.129692 -0.397956
O 13.84712663 3.08105778 3.21821450 1.396914 -0.748594 1.344032
O 22.37651700 3.15965376 2.54519332 -0.018023 0.596120 0.764159
O 20.20317060 4.65175162 3.26800295 0.854959 -0.116585 0.952478
O 15.98717320 4.71377475 2.61735556 1.140925 0.650320 -1.119137
O 12.10976552 3.10795873 1.55018395 -0.467340 -1.133643 0.879625
O 24.03679744 3.07534941 4.30735943 -0.059243 -0.239149 0.707022
O 18.48282521 4.59154639 1.43623778 -0.710622 -0.213766 0.529772
O 17.71376340 4.71882837 4.30394647 0.714744 -0.562550 -0.074461
Ga 11.00590499 3.08412496 10.35666739 0.613628 0.902318 0.359507
Ga 22.30897939 3.05862023 6.96839803 -0.453624 0.320503 -0.223810
Ga 17.44506863 4.67647626 10.36946532 1.246308 0.142436 1.118395
Ga 15.94438702 4.66601275 6.96340700 0.313193 0.025826 0.768362
Ga 12.71878924 3.08871746 7.53408662 0.294288 -1.135458 -0.467218
Ga 20.79666534 3.09686548 9.76098724 0.427196 -0.176603 -1.855255
Ga 18.95208989 4.64708953 7.49891871 -2.279183 -0.307708 -0.338740
Ga 14.39949534 4.67334741 9.73791123 -0.314534 -0.965181 0.248396
O 13.00033920 3.11800379 6.30697648 0.209978 0.667666 0.058563
O 20.48299806 3.08990987 10.96101737 0.555883 0.821891 -1.340458
O 19.33214123 4.61421272 6.31250456 -0.549537 -1.319456 0.204353
O 13.99908077 4.70699439 10.95187031 0.488234 -0.129692 -0.397956
O 12.45620263 3.08105778 8.93384950 1.396914 -0.748594 1.344032
O 20.98559300 3.15965376 8.26082832 -0.018023 0.596120 0.764159
O 18.81224660 4.65175162 8.98363795 0.854959 -0.116585 0.952478
O 14.59624920 4.71377475 8.33299056 1.140925 0.650320 -1.119137
O 10.71884152 3.10795873 7.26581895 -0.467340 -1.133643 0.879625
O 22.64587344 3.07534941 10.02299443 -0.059243 -0.239149 0.707022
O 17.09190121 4.59154639 7.15187278 -0.710622 -0.213766 0.529772
O 16.32283940 4.71882837 10.01958147 0.714744 -0.562550 -0.074461
159
Lattice="25.141768 0.000000 0.000000 0.000000 6.224759 0.000000 -2.804610 0.000000 11.524802" Properties=species:S:1:pos:R:3:force:R:3 Energy=-629.750446 Virial="-31.685986 11.895778 -10.617402 -6.408184 12.228410 -5.936580 21.776287 -3.220649 21.750558" pbc="T T T"
Ga 11.11918383 -0.00333752 1.12561099 1.132464 0.625548 -0.179687
Ga 6.27196068 1.51603139 4.58709523 1.546752 -0.225091 -0.839996
Ga 4.86251735 1.52732018 1.19066964 0.431269 -1.162509 -0.158220
Ga 1.53127071 -0.01086620 1.87748507 0.024165 0.442863 -0.279557
Ga 9.66905917 -0.05198325 3.98504365 1.337742 0.762017 1.376564
Ga 7.87103599 1.51025915 1.84329809 -0.197305 0.638598 0.842985
Ga 3.39151579 1.51128789 3.91515424 0.147637 -0.755863 0.310082
O 1.97051434 0.01085981 0.56372509 -0.574808 -0.672617 0.894450
O 9.25239433 0.01562784 5.16767641 0.096896 0.163734 -1.408023
O 8.25714281 1.60297328 0.53249041 2.024532 -0.383072 1.056095
O 2.95158946 1.49494538 5.24130549 -0.182699 -1.123754 -0.679484
O 1.41515870 -0.00248764 3.26039375 -0.251795 0.802150 0.037838
O 9.76293916 0.02258424 2.50619515 0.384343 0.786858 -0.114876
O 7.67677653 1.54921551 3.22443193 -0.018769 -0.181777 1.510244
O 3.47607895 1.55093078 2.58002361 0.416389 -0.498492 -0.729412
O -0.32617696 -0.06426308 1.54515854 0.252460 0.888069 -0.312922
O 11.53254320 -0.05169051 4.31481446 -1.288986 0.324072 0.226637
O 5.95661583 1.56672917 1.48694415 1.067638 -0.360472 -1.167323
O 5.18246751 1.52483905 4.25960451 -0.286432 -0.607790 -0.136184
Ga -1.44137766 -0.03718043 10.23457837 0.209303 0.767085 -1.152053
Ga 9.72825983 -0.00333752 6.84124599 1.132464 0.625548 -0.179687
Ga 4.88103668 1.51603139 10.30273023 1.546752 -0.225091 -0.839996
Ga 3.47159335 1.52732018 6.90630464 0.431269 -1.162509 -0.158220
Ga 0.14034671 -0.01086620 7.59312007 0.024165 0.442863 -0.279557
Ga 8.27813517 -0.05198325 9.70067865 1.337742 0.762017 1.376564
Ga 6.48011199 1.51025915 7.55893309 -0.197305 0.638598 0.842985
Ga 2.00059179 1.51128789 9.63078924 0.147637 -0.755863 0.310082
O 0.57959034 0.01085981 6.27936009 -0.574808 -0.672617 0.894450
O 7.86147033 0.01562784 10.88331141 0.096896 0.163734 -1.408023
O 6.86621881 1.60297328 6.24812541 2.024532 -0.383072 1.056095
O 1.56066546 1.49494538 10.95694049 -0.182699 -1.123754 -0.679484
O 0.02423470 -0.00248764 8.97602875 -0.251795 0.802150 0.037838
O 8.37201516 0.02258424 8.22183015 0.384343 0.786858 -0.114876
O 6.28585253 1.54921551 8.94006693 -0.018769 -0.181777 1.510244
O 2.08515495 1.55093078 8.29565861 0.416389 -0.498492 -0.729412
O -1.71710096 -0.06426308 7.26079354 0.252460 0.888069 -0.312922
O 10.14161920 -0.05169051 10.03044946 -1.288986 0.324072 0.226637
O 4.56569183 1.56672917 7.20257915 1.067638 -0.360472 -1.167323
O 3.79154351 1.52483905 9.97523951 -0.286432 -0.607790 -0.136184
Ga -0.05045366 3.04993957 4.51894337 0.209303 0.767085 -1.152053
Ga 11.11918383 3.08378248 1.12561099 1.132464 0.625548 -0.179687
Ga 6.27196068 4.60315139 4.58709523 1.546752 -0.225091 -0.839996
Ga 4.86251735 4.61444018 1.19066964 0.431269 -1.162509 -0.158220
Ga 1.53127071 3.07625380 1.87748507 0.024165 0.442863 -0.279557
Ga 9.66905917 3.03513675 3.98504365 1.337742 0.762017 1.376564
Ga 7.87103599 4.59737915 1.84329809 -0.197305 0.638598 0.842985
Ga 3.39151579 4.59840789 3.91515424 0.147637 -0.755863 0.310082
O 1.97051434 3.09797981 0.56372509 -0.574808 -0.672617 0.894450
O 9.25239433 3.10274784 5.16767641 0.096896 0.163734 -1.408023
O 8.25714281 4.69009328 0.53249041 2.024532 -0.383072 1.056095
O 2.95158946 4.58206538 5.24130549 -0.182699 -1.123754 -0.679484
O 1.41515870 3.08463236 3.26039375 -0.251795 0.802150 0.037838
O 9.76293916 3.10970424 2.50619515 0.384343 0.786858 -0.114876
O 7.67677653 4.63633551 3.22443193 -0.018769 -0.181777 1.510244
O 3.47607895 4.63805078 2.58002361 0.416389 -0.498492 -0.729412
O -0.32617696 3.02285692 1.54515854 0.252460 0.888069 -0.312922
O 11.53254320 3.03542949 4.31481446 -1.288986 0.324072 0.226637
O 5.95661583 4.65384917 1.48694415 1.067638 -0.360472 -1.167323
O 5.18246751 4.61195905 4.25960451 -0.286432 -0.607790 -0.136184
Ga -1.44137766 3.04993957 10.23457837 0.209303 0.767085 -1.152053
Ga 9.72825983 3.08378248 6.84124599 1.132464 0.625548 -0.179687
Ga 4.88103668 4.60315139 10.30273023 1.546752 -0.225091 -0.839996
Ga 3.47159335 4.61444018 6.90630464 0.431269 -1.162509 -0.158220
Ga 0.14034671 3.07625380 7.59312007 0.024165 0.442863 -0.279557
Ga 8.27813517 3.03513675 9.70067865 1.337742 0.762017 1.376564
Ga 6.48011199 4.59737915 7.55893309 -0.197305 0.638598 0.842985
Ga 2.00059179 4.59840789 9.63078924 0.147637 -0.755863 0.310082
O 0.57959034 3.09797981 6.27936009 -0.574808 -0.672617 0.894450
O 7.86147033 3.10274784 10.88331141 0.096896 0.163734 -1.408023
O 6.86621881 4.69009328 6.24812541 2.024532 -0.383072 1.056095
O 1.56066546 4.58206538 10.95694049 -0.182699 -1.123754 -0.679484
O 0.02423470 3.08463236 8.97602875 -0.251795 0.802150 0.037838
O 8.37201516 3.10970424 8.22183015 0.384343 0.786858 -0.114876
O 6.28585253 4.63633551 8.94006693 -0.018769 -0.181777 1.510244
O 2.08515495 4.63805078 8.29565861 0.416389 -0.498492 -0.729412
O -1.71710096 3.02285692 7.26079354 0.252460 0.888069 -0.312922
O 10.14161920 3.03542949 10.03044946 -1.288986 0.324072 0.226637
O 4.56569183 4.65384917 7.20257915 1.067638 -0.360472 -1.167323
O 3.79154351 4.61195905 9.97523951 -0.286432 -0.607790 -0.136184
Ga 12.41840734 -0.03718043 4.51894337 0.209303 0.767085 -1.152053
Ga 23.58804483 -0.00333752 1.12561099 1.132464 0.625548 -0.179687
Ga 18.74082168 1.51603139 4.58709523 1.546752 -0.225091 -0.839996
Ga 17.33137835 1.52732018 1.19066964 0.431269 -1.162509 -0.158220
Ga 14.00013171 -0.01086620 1.87748507 0.024165 0.442863 -0.279557
Ga 22.13792017 -0.05198325 3.98504365 1.337742 0.762017 1.376564
Ga 20.33989699 1.51025915 1.84329809 -0.197305 0.638598 0.842985
Ga 15.86037679 1.51128789 3.91515424 0.147637 -0.755863 0.310082
O 14.43937534 0.01085981 0.56372509 -0.574808 -0.672617 0.894450
O 21.72125533 0.01562784 5.16767641 0.096896 0.163734 -1.408023
O 20.72600381 1.60297328 0.53249041 2.024532 -0.383072 1.056095
O 15.42045046 1.49494538 5.24130549 -0.182699 -1.123754 -0.679484
O 13.88401970 -0.00248764 3.26039375 -0.251795 0.802150 0.037838
O 22.23180016 0.02258424 2.50619515 0.384343 0.786858 -0.114876
O 20.14563753 1.54921551 3.22443193 -0.018769 -0.181777 1.510244
O 15.94493995 1.55093078 2.58002361 0.416389 -0.498492 -0.729412
O 12.14268404 -0.06426308 1.54515854 0.252460 0.888069 -0.312922
O 24.00140420 -0.05169051 4.31481446 -1.288986 0.324072 0.226637
O 18.42547683 1.56672917 1.48694415 1.067638 -0.360472 -1.167323
O 17.65132851 1.52483905 4.25960451 -0.286432 -0.607790 -0.136184
Ga 11.02748334 -0.03718043 10.23457837 0.209303 0.767085 -1.152053
Ga 22.19712083 -0.00333752 6.84124599 1.132464 0.625548 -0.179687
Ga 17.34989768 1.51603139 10.30273023 1.546752 -0.225091 -0.839996
Ga 15.94045435 1.52732018 6.90630464 0.431269 -1.162509 -0.158220
Ga 12.60920771 -0.01086620 7.59312007 0.024165 0.442863 -0.279557
Ga 20.74699617 -0.05198325 9.70067865 1.337742 0.762017 1.376564
Ga 18.94897299 1.51025915 7.55893309 -0.197305 0.638598 0.842985
Ga 14.46945279 1.51128789 9.63078924 0.147637 -0.755863 0.310082
O 13.04845134 0.01085981 6.27936009 -0.574808 -0.672617 0.894450
O 20.33033133 0.01562784 10.88331141 0.096896 0.163734 -1.408023
O 19.33507981 1.60297328 6.24812541 2.024532 -0.383072 1.056095
O 14.02952646 1.49494538 10.95694049 -0.182699 -1.123754 -0.679484
O 12.49309570 -0.00248764 8.97602875 -0.251795 0.802150 0.037838
O 20.84087616 0.02258424 8.22183015 0.384343 0.786858 -0.114876
O 18.75471353 1.54921551 8.94006693 -0.018769 -0.181777 1.510244
O 14.55401595 1.55093078 8.29565861 0.416389 -0.498492 -0.729412
O 10.75176004 -0.06426308 7.26079354 0.252460 0.888069 -0.312922
O 22.61048020 -0.05169051 10.03044946 -1.288986 0.324072 0.226637
O 17.03455283 1.56672917 7.20257915 1.067638 -0.360472 -1.167323
O 16.26040451 1.52483905 9.97523951 -0.286432 -0.607790 -0.136184
Ga 12.41840734 3.04993957 4.51894337 0.209303 0.767085 -1.152053
Ga 23.58804483 3.08378248 1.12561099 1.132464 0.625548 -0.179687
Ga 18.74082168 4.60315139 4.58709523 1.546752 -0.225091 -0.839996
Ga 17.33137835 4.61444018 1.19066964 0.431269 -1.162509 -0.158220
Ga 14.00013171 3.07625380 1.87748507 0.024165 0.442863 -0.279557
Ga 22.13792017 3.03513675 3.98504365 1.337742 0.762017 1.376564
Ga 20.33989699 4.59737915 1.84329809 -0.197305 0.638598 0.842985
Ga 15.86037679 4.59840789 3.91515424 0.147637 -0.755863 0.310082
O 14.43937534 3.09797981 0.56372509 -0.574808 -0.672617 0.894450
O 21.72125533 3.10274784 5.16767641 0.096896 0.163734 -1.408023
O 20.72600381 4.69009328 0.53249041 2.024532 -0.383072 1.056095
O 15.42045046 4.58206538 5.24130549 -0.182699 -1.123754 -0.679484
O 13.88401970 3.08463236 3.26039375 -0.251795 0.802150 0.037838
O 22.23180016 3.10970424 2.50619515 0.384343 0.786858 -0.114876
O 20.14563753 4.63633551 3.22443193 -0.018769 -0.181777 1.510244
O 15.94493995 4.63805078 2.58002361 0.416389 -0.498492 -0.729412
O 12.14268404 3.02285692 1.54515854 0.252460 0.888069 -0.312922
O 24.00140420 3.03542949 4.31481446 -1.288986 0.324072 0.226637
O 18.42547683 4.65384917 1.48694415 1.067638 -0.360472 -1.167323
O 17.65132851 4.61195905 4.25960451 -0.286432 -0.607790 -0.136184
Ga 11.02748334 3.04993957 10.23457837 0.209303 0.767085 -1.152053
Ga 22.19712083 3.08378248 6.84124599 1.132464 0.625548 -0.179687
Ga 17.34989768 4.60315139 10.30273023 1.546752 -0.225091 -0.839996
Ga 15.94045435 4.61444018 6.90630464 0.431269 -1.162509 -0.158220
Ga 12.60920771 3.07625380 7.59312007 0.024165 0.442863 -0.279557
Ga 20.74699617 3.03513675 9.70067865 1.337742 0.762017 1.376564
Ga 18.94897299 4.59737915 7.55893309 -0.197305 0.638598 0.842985
Ga 14.46945279 4.59840789 9.63078924 0.147637 -0.755863 0.310082
O 13.04845134 3.09797981 6.27936009 -0.574808 -0.672617 0.894450
O 20.33033133 3.10274784 10.88331141 0.096896 0.163734 -1.408023
O 19.33507981 4.69009328 6.24812541 2.024532 -0.383072 1.056095
O 14.02952646 4.58206538 10.95694049 -0.182699 -1.123754 -0.679484
O 12.49309570 3.08463236 8.97602875 -0.251795 0.802150 0.037838
O 20.84087616 3.10970424 8.22183015 0.384343 0.786858 -0.114876
O 18.75471353 4.63633551 8.94006693 -0.018769 -0.181777 1.510244
O 14.55401595 4.63805078 8.29565861 0.416389 -0.498492 -0.729412
O 10.75176004 3.02285692 7.26079354 0.252460 0.888069 -0.312922
O 22.61048020 3.03542949 10.03044946 -1.288986 0.324072 0.226637
O 17.03455283 4.65384917 7.20257915 1.067638 -0.360472 -1.167323
O 16.26040451 4.61195905 9.97523951 -0.286432 -0.607790 -0.136184
159
Lattice="24.709100 0.000000 0.000000 0.000000 6.117636 0.000000 -2.756345 0.000000 11.326470" Properties=species:S:1:pos:R:3:force:R:3 Energy=-628.854308 Virial="-1.976098 4.830164 20.512075 10.933030 -3.654392 11.090393 1.668063 -8.519488 4.167876" pbc="T T T"
Ga 10.99326976 0.01631507 1.18132941 0.063393 1.155528 1.431478
Ga 6.14424881 1.53768002 4.55668817 0.639677 -0.612939 0.473311
Ga 4.80336526 1.53558250 1.23170564 -0.775668 -0.917403 -0.537941
Ga 1.51900815 -0.02478223 1.78554235 -0.173838 -0.273502 0.545937
Ga 9.48062619 -0.06871176 3.89524118 0.526858 0.563327 -0.683561
Ga 7.73609890 1.51862337 1.82366766 -0.797248 0.687535 0.800003
Ga 3.29833965 1.61506436 3.85382231 -0.118653 -0.779892 -0.533525
O 1.92982599 -0.04069296 0.46772979 0.417836 -0.949122 1.486242
O 8.99835845 0.02153296 5.13826098 -0.897748 0.394187 -0.230705
O 8.05471087 1.45846886 0.50472898 -1.051678 -0.222468 -0.393150
O 2.90266809 1.56113581 5.13022963 -0.417129 -0.032723 -0.694393
O 1.37839897 -0.01504530 3.23005405 1.311757 -0.010983 -0.164701
O 9.56733074 -0.02796953 2.48345610 -1.315027 -0.208583 0.702846
O 7.56730004 1.48785464 3.16551383 -0.914581 -0.510270 1.132806
O 3.43738182 1.50163471 2.51634960 -1.191109 0.491583 0.949281
O -0.34370638 -0.04468297 1.45377296 -0.430918 -0.080824 0.484511
O 11.21338088 -0.08579211 4.23476011 -1.762312 -0.154460 1.323293
O 5.91583929 1.51073691 1.42306590 0.019837 0.466520 0.742537
O 5.14271819 1.48358750 4.15891187 0.975324 0.620152 0.148405
Ga -1.29973216 -0.01203213 10.28024143 -0.052301 0.898305 1.380150
Ga 9.60234576 0.01631507 6.89696441 0.063393 1.155528 1.431478
Ga 4.75332481 1.53768002 10.27232317 0.639677 -0.612939 0.473311
Ga 3.41244126 1.53558250 6.94734064 -0.775668 -0.917403 -0.537941
Ga 0.12808415 -0.02478223 7.50117735 -0.173838 -0.273502 0.545937
Ga 8.08970219 -0.06871176 9.61087618 0.526858 0.563327 -0.683561
Ga 6.34517490 1.51862337 7.53930266 -0.797248 0.687535 0.800003
Ga 1.90741565 1.61506436 9.56945731 -0.118653 -0.779892 -0.533525
O 0.53890199 -0.04069296 6.18336479 0.417836 -0.949122 1.486242
O 7.60743445 0.02153296 10.85389598 -0.897748 0.394187 -0.230705
O 6.66378687 1.45846886 6.22036398 -1.051678 -0.222468 -0.393150
O 1.51174409 1.56113581 10.84586463 -0.417129 -0.032723 -0.694393
O -0.01252503 -0.01504530 8.94568905 1.311757 -0.010983 -0.164701
O 8.17640674 -0.02796953 8.19909110 -1.315027 -0.208583 0.702846
O 6.17637604 1.48785464 8.88114883 -0.914581 -0.510270 1.132806
O 2.04645782 1.50163471 8.23198460 -1.191109 0.491583 0.949281
O -1.73463038 -0.04468297 7.16940796 -0.430918 -0.080824 0.484511
O 9.82245688 -0.08579211 9.95039511 -1.762312 -0.154460 1.323293
O 4.52491529 1.51073691 7.13870090 0.019837 0.466520 0.742537
O 3.75179419 1.48358750 9.87454687 0.975324 0.620152 0.148405
Ga 0.09119184 3.07508787 4.56460643 -0.052301 0.898305 1.380150
Ga 10.99326976 3.10343507 1.18132941 0.063393 1.155528 1.431478
Ga 6.14424881 4.62480002 4.55668817 0.639677 -0.612939 0.473311
Ga 4.80336526 4.62270250 1.23170564 -0.775668 -0.917403 -0.537941
Ga 1.51900815 3.06233777 1.78554235 -0.173838 -0.273502 0.545937
Ga 9.48062619 3.01840824 3.89524118 0.526858 0.563327 -0.683561
Ga 7.73609890 4.60574337 1.82366766 -0.797248 0.687535 0.800003
Ga 3.29833965 4.70218436 3.85382231 -0.118653 -0.779892 -0.533525
O 1.92982599 3.04642704 0.46772979 0.417836 -0.949122 1.486242
O 8.99835845 3.10865296 5.13826098 -0.897748 0.394187 -0.230705
O 8.05471087 4.54558886 0.50472898 -1.051678 -0.222468 -0.393150
O 2.90266809 4.64825581 5.13022963 -0.417129 -0.032723 -0.694393
O 1.37839897 3.07207470 3.23005405 1.311757 -0.010983 -0.164701
O 9.56733074 3.05915047 2.48345610 -1.315027 -0.208583 0.702846
O 7.56730004 4.57497464 3.16551383 -0.914581 -0.510270 1.132806
O 3.43738182 4.58875471 2.51634960 -1.191109 0.491583 0.949281
O -0.34370638 3.04243703 1.45377296 -0.430918 -0.080824 0.484511
O 11.21338088 3.00132789 4.23476011 -1.762312 -0.154460 1.323293
O 5.91583929 4.59785691 1.42306590 0.019837 0.466520 0.742537
O 5.14271819 4.57070750 4.15891187 0.975324 0.620152 0.148405
Ga -1.29973216 3.07508787 10.28024143 -0.052301 0.898305 1.380150
Ga 9.60234576 3.10343507 6.89696441 0.063393 1.155528 1.431478
Ga 4.75332481 4.62480002 10.27232317 0.639677 -0.612939 0.473311
Ga 3.41244126 4.62270250 6.94734064 -0.775668 -0.917403 -0.537941
Ga 0.12808415 3.06233777 7.50117735 -0.173838 -0.273502 0.545937
Ga 8.08970219 3.01840824 9.61087618 0.526858 0.563327 -0.683561
Ga 6.34517490 4.60574337 7.53930266 -0.797248 0.687535 0.800003
Ga 1.90741565 4.70218436 9.56945731 -0.118653 -0.779892 -0.533525
O 0.53890199 3.04642704 6.18336479 0.417836 -0.949122 1.486242
O 7.60743445 3.10865296 10.85389598 -0.897748 0.394187 -0.230705
O 6.66378687 4.54558886 6.22036398 -1.051678 -0.222468 -0.393150
O 1.51174409 4.64825581 10.84586463 -0.417129 -0.032723 -0.694393
O -0.01252503 3.07207470 8.94568905 1.311757 -0.010983 -0.164701
O 8.17640674 3.05915047 8.19909110 -1.315027 -0.208583 0.702846
O 6.17637604 4.57497464 8.88114883 -0.914581 -0.510270 1.132806
O 2.04645782 4.58875471 8.23198460 -1.191109 0.491583 0.949281
O -1.73463038 3.04243703 7.16940796 -0.430918 -0.080824 0.484511
O 9.82245688 3.00132789 9.95039511 -1.762312 -0.154460 1.323293
O 4.52491529 4.59785691 7.13870090 0.019837 0.466520 0.742537
O 3.75179419 4.57070750 9.87454687 0.975324 0.620152 0.148405
Ga 12.56005284 -0.01203213 4.56460643 -0.052301 0.898305 1.380150
Ga 23.46213076 0.01631507 1.18132941 0.063393 1.155528 1.431478
Ga 18.61310981 1.53768002 4.55668817 0.639677 -0.612939 0.473311
Ga 17.27222626 1.53558250 1.23170564 -0.775668 -0.917403 -0.537941
Ga 13.98786915 -0.02478223 1.78554235 -0.173838 -0.273502 0.545937
Ga 21.94948719 -0.06871176 3.89524118 0.526858 0.563327 -0.683561
Ga 20.20495990 1.51862337 1.82366766 -0.797248 0.687535 0.800003
Ga 15.76720065 1.61506436 3.85382231 -0.118653 -0.779892 -0.533525
O 14.39868699 -0.04069296 0.46772979 0.417836 -0.949122 1.486242
O 21.46721945 0.02153296 5.13826098 -0.897748 0.394187 -0.230705
O 20.52357187 1.45846886 0.50472898 -1.051678 -0.222468 -0.393150
O 15.37152909 1.56113581 5.13022963 -0.417129 -0.032723 -0.694393
O 13.84725997 -0.01504530 3.23005405 1.311757 -0.010983 -0.164701
O 22.03619174 -0.02796953 2.48345610 -1.315027 -0.208583 0.702846
O 20.03616104 1.48785464 3.16551383 -0.914581 -0.510270 1.132806
O 15.90624282 1.50163471 2.51634960 -1.191109 0.491583 0.949281
O 12.12515462 -0.04468297 1.45377296 -0.430918 -0.080824 0.484511
O 23.68224188 -0.08579211 4.23476011 -1.762312 -0.154460 1.323293
O 18.38470029 1.51073691 1.42306590 0.019837 0.466520 0.742537
O 17.61157919 1.48358750 4.15891187 0.975324 0.620152 0.148405
Ga 11.16912884 -0.01203213 10.28024143 -0.052301 0.898305 1.380150
Ga 22.07120676 0.01631507 6.89696441 0.063393 1.155528 1.431478
Ga 17.22218581 1.53768002 10.27232317 0.639677 -0.612939 0.473311
Ga 15.88130226 1.53558250 6.94734064 -0.775668 -0.917403 -0.537941
Ga 12.59694515 -0.02478223 7.50117735 -0.173838 -0.273502 0.545937
Ga 20.55856319 -0.06871176 9.61087618 0.526858 0.563327 -0.683561
Ga 18.81403590 1.51862337 7.53930266 -0.797248 0.687535 0.800003
Ga 14.37627665 1.61506436 9.56945731 -0.118653 -0.779892 -0.533525
O 13.00776299 -0.04069296 6.18336479 0.417836 -0.949122 1.486242
O 20.07629545 0.02153296 10.85389598 -0.897748 0.394187 -0.230705
O 19.13264787 1.45846886 6.22036398 -1.051678 -0.222468 -0.393150
O 13.98060509 1.56113581 10.84586463 -0.417129 -0.032723 -0.694393
O 12.45633597 -0.01504530 8.94568905 1.311757 -0.010983 -0.164701
O 20.64526774 -0.02796953 8.19909110 -1.315027 -0.208583 0.702846
O 18.64523704 1.48785464 8.88114883 -0.914581 -0.510270 1.132806
O 14.51531882 1.50163471 8.23198460 -1.191109 0.491583 0.949281
O 10.73423062 -0.04468297 7.16940796 -0.430918 -0.080824 0.484511
O 22.29131788 -0.08579211 9.95039511 -1.762312 -0.154460 1.323293
O 16.99377629 1.51073691 7.13870090 0.019837 0.466520 0.742537
O 16.22065519 1.48358750 9.87454687 0.975324 0.620152 0.148405
Ga 12.56005284 3.07508787 4.56460643 -0.052301 0.898305 1.380150
Ga 23.46213076 3.10343507 1.18132941 0.063393 1.155528 1.431478
Ga 18.61310981 4.62480002 4.55668817 0.639677 -0.612939 0.473311
Ga 17.27222626 4.62270250 1.23170564 -0.775668 -0.917403 -0.537941
Ga 13.98786915 3.06233777 1.78554235 -0.173838 -0.273502 0.545937
Ga 21.94948719 3.01840824 3.89524118 0.526858 0.563327 -0.683561
Ga 20.20495990 4.60574337 1.82366766 -0.797248 0.687535 0.800003
Ga 15.76720065 4.70218436 3.85382231 -0.118653 -0.779892 -0.533525
O 14.39868699 3.04642704 0.46772979 0.417836 -0.949122 1.486242
O 21.46721945 3.10865296 5.13826098 -0.897748 0.394187 -0.230705
O 20.52357187 4.54558886 0.50472898 -1.051678 -0.222468 -0.393150
O 15.37152909 4.64825581 5.13022963 -0.417129 -0.032723 -0.694393
O 13.84725997 3.07207470 3.23005405 1.311757 -0.010983 -0.164701
O 22.03619174 3.05915047 2.48345610 -1.315027 -0.208583 0.702846
O 20.03616104 4.57497464 3.16551383 -0.914581 -0.510270 1.132806
O 15.90624282 4.58875471 2.51634960 -1.191109 0.491583 0.949281
O 12.12515462 3.04243703 1.45377296 -0.430918 -0.080824 0.484511
O 23.68224188 3.00132789 4.23476011 -1.762312 -0.154460 1.323293
O 18.38470029 4.59785691 1.42306590 0.019837 0.466520 0.742537
O 17.61157919 4.57070750 4.15891187 0.975324 0.620152 0.148405
Ga 11.16912884 3.07508787 10.28024143 -0.052301 0.898305 1.380150
Ga 22.07120676 3.10343507 6.89696441 0.063393 1.155528 1.431478
Ga 17.22218581 4.62480002 10.27232317 0.639677 -0.612939 0.473311
Ga 15.88130226 4.62270250 6.94734064 -0.775668 -0.917403 -0.537941
Ga 12.59694515 3.06233777 7.50117735 -0.173838 -0.273502 0.545937
Ga 20.55856319 3.01840824 9.61087618 0.526858 0.563327 -0.683561
Ga 18.81403590 4.60574337 7.53930266 -0.797248 0.687535 0.800003
Ga 14.37627665 4.70218436 9.56945731 -0.118653 -0.779892 -0.533525
O 13.00776299 3.04642704 6.18336479 0.417836 -0.949122 1.486242
O 20.07629545 3.10865296 10.85389598 -0.897748 0.394187 -0.230705
O 19.13264787 4.54558886 6.22036398 -1.051678 -0.222468 -0.393150
O 13.98060509 4.64825581 10.84586463 -0.417129 -0.032723 -0.694393
O 12.45633597 3.07207470 8.94568905 1.311757 -0.010983 -0.164701
O 20.64526774 3.05915047 8.19909110 -1.315027 -0.208583 0.702846
O 18.64523704 4.57497464 8.88114883 -0.914581 -0.510270 1.132806
O 14.51531882 4.58875471 8.23198460 -1.191109 0.491583 0.949281
O 10.73423062 3.04243703 7.16940796 -0.430918 -0.080824 0.484511
O 22.29131788 3.00132789 9.95039511 -1.762312 -0.154460 1.323293
O 16.99377629 4.59785691 7.13870090 0.019837 0.466520 0.742537
O 16.22065519 4.57070750 9.87454687 0.975324 0.620152 0.148405
159
Lattice="24.943343 0.000000 0.000000 0.000000 6.175631 0.000000 -2.782475 0.000000 11.433845" Properties=species:S:1:pos:R:3:force:R:3 Energy=-629.182250 Virial="-13.815941 16.026511 -8.767964 9.920308 -19.895890 -3.640890 -10.174444 0.017564 -26.785234" pbc="T T T"
Ga 11.17663472 0.01469927 1.16171439 -1.049489 0.259357 -0.174323
Ga 6.29591632 1.56321538 4.55947131 -0.158370 -1.291052 -0.109892
Ga 4.84566336 1.62616961 1.12902004 -1.430615 2.274790 0.517677
Ga 1.55982547 -0.03705525 1.81847823 -0.044439 0.441553 1.373621
Ga 9.50280595 -0.01669467 3.90886179 0.168107 0.074067 0.956993
Ga 7.81574888 1.58064604 1.74642903 0.544718 -1.007906 0.375246
Ga 3.30591474 1.51552467 3.87032519 0.735949 0.114535 -1.273968
O 1.90589670 -0.01233931 0.63445974 0.817574 0.508141 -0.455097
O 9.18317460 -0.05510470 5.15694107 0.833887 -0.311032 0.092477
O 8.19126875 1.62744558 0.47395175 -0.266436 -0.052425 -0.095169
O 2.85482320 1.61874647 5.19511660 -0.211853 0.438648 1.061643
O 1.34655652 0.02138516 3.08461286 -0.240431 1.065933 0.328189
O 9.69928039 0.01311285 2.56385115 -1.326242 0.591401 0.381713
O 7.57656842 1.54733535 3.15302578 0.020323 1.397040 -0.535900
O 3.47352469 1.50809401 2.51055631 0.041524 -0.502588 1.204879
O -0.34610262 0.02604545 1.49787080 -0.241713 0.468375 -1.923837
O 11.37731878 0.00152952 4.19544670 -0.423628 0.557175 -1.010239
O 5.91757796 1.54189968 1.56836448 1.179582 0.718261 -0.538760
O 5.10638989 1.60247496 4.29326471 0.377261 0.279634 0.042136
Ga -1.37690676 -0.03405626 10.26531099 0.336499 0.994578 0.405798
Ga 9.78571072 0.01469927 6.87734939 -1.049489 0.259357 -0.174323
Ga 4.90499232 1.56321538 10.27510631 -0.158370 -1.291052 -0.109892
Ga 3.45473936 1.62616961 6.84465504 -1.430615 2.274790 0.517677
Ga 0.16890147 -0.03705525 7.53411323 -0.044439 0.441553 1.373621
Ga 8.11188195 -0.01669467 9.62449679 0.168107 0.074067 0.956993
Ga 6.42482488 1.58064604 7.46206403 0.544718 -1.007906 0.375246
Ga 1.91499074 1.51552467 9.58596019 0.735949 0.114535 -1.273968
O 0.51497270 -0.01233931 6.35009474 0.817574 0.508141 -0.455097
O 7.79225060 -0.05510470 10.87257607 0.833887 -0.311032 0.092477
O 6.80034475 1.62744558 6.18958675 -0.266436 -0.052425 -0.095169
O 1.46389920 1.61874647 10.91075160 -0.211853 0.438648 1.061643
O -0.04436748 0.02138516 8.80024786 -0.240431 1.065933 0.328189
O 8.30835639 0.01311285 8.27948615 -1.326242 0.591401 0.381713
O 6.18564442 1.54733535 8.86866078 0.020323 1.397040 -0.535900
O 2.08260069 1.50809401 8.22619131 0.041524 -0.502588 1.204879
O -1.73702662 0.02604545 7.21350580 -0.241713 0.468375 -1.923837
O 9.98639478 0.00152952 9.91108170 -0.423628 0.557175 -1.010239
O 4.52665396 1.54189968 7.28399948 1.179582 0.718261 -0.538760
O 3.71546589 1.60247496 10.00889971 0.377261 0.279634 0.042136
Ga 0.01401724 3.05306374 4.54967599 0.336499 0.994578 0.405798
Ga 11.17663472 3.10181927 1.16171439 -1.049489 0.259357 -0.174323
Ga 6.29591632 4.65033538 4.55947131 -0.158370 -1.291052 -0.109892
Ga 4.84566336 4.71328961 1.12902004 -1.430615 2.274790 0.517677
Ga 1.55982547 3.05006475 1.81847823 -0.044439 0.441553 1.373621
Ga 9.50280595 3.07042533 3.90886179 0.168107 0.074067 0.956993
Ga 7.81574888 4.66776604 1.74642903 0.544718 -1.007906 0.375246
Ga 3.30591474 4.60264467 3.87032519 0.735949 0.114535 -1.273968
O 1.90589670 3.07478069 0.63445974 0.817574 0.508141 -0.455097
O 9.18317460 3.03201530 5.15694107 0.833887 -0.311032 0.092477
O 8.19126875 4.71456558 0.47395175 -0.266436 -0.052425 -0.095169
O 2.85482320 4.70586647 5.19511660 -0.211853 0.438648 1.061643
O 1.34655652 3.10850516 3.08461286 -0.240431 1.065933 0.328189
O 9.69928039 3.10023285 2.56385115 -1.326242 0.591401 0.381713
O 7.57656842 4.63445535 3.15302578 0.020323 1.397040 -0.535900
O 3.47352469 4.59521401 2.51055631 0.041524 -0.502588 1.204879
O -0.34610262 3.11316545 1.49787080 -0.241713 0.468375 -1.923837
O 11.37731878 3.08864952 4.19544670 -0.423628 0.557175 -1.010239
O 5.91757796 4.62901968 1.56836448 1.179582 0.718261 -0.538760
O 5.10638989 4.68959496 4.29326471 0.377261 0.279634 0.042136
Ga -1.37690676 3.05306374 10.26531099 0.336499 0.994578 0.405798
Ga 9.78571072 3.10181927 6.87734939 -1.049489 0.259357 -0.174323
Ga 4.90499232 4.65033538 10.27510631 -0.158370 -1.291052 -0.109892
Ga 3.45473936 4.71328961 6.84465504 -1.430615 2.274790 0.517677
Ga 0.16890147 3.05006475 7.53411323 -0.044439 0.441553 1.373621
Ga 8.11188195 3.07042533 9.62449679 0.168107 0.074067 0.956993
Ga 6.42482488 4.66776604 7.46206403 0.544718 -1.007906 0.375246
Ga 1.91499074 4.60264467 9.58596019 0.735949 0.114535 -1.273968
O 0.51497270 3.07478069 6.35009474 0.817574 0.508141 -0.455097
O 7.79225060 3.03201530 10.87257607 0.833887 -0.311032 0.092477
O 6.80034475 4.71456558 6.18958675 -0.266436 -0.052425 -0.095169
O 1.46389920 4.70586647 10.91075160 -0.211853 0.438648 1.061643
O -0.04436748 3.10850516 8.80024786 -0.240431 1.065933 0.328189
O 8.30835639 3.10023285 8.27948615 -1.326242 0.591401 0.381713
O 6.18564442 4.63445535 8.86866078 0.020323 1.397040 -0.535900
O 2.08260069 4.59521401 8.22619131 0.041524 -0.502588 1.204879
O -1.73702662 3.11316545 7.21350580 -0.241713 0.468375 -1.923837
O 9.98639478 3.08864952 9.91108170 -0.423628 0.557175 -1.010239
O 4.52665396 4.62901968 7.28399948 1.179582 0.718261 -0.538760
O 3.71546589 4.68959496 10.00889971 0.377261 0.279634 0.042136
Ga 12.48287824 -0.03405626 4.54967599 0.336499 0.994578 0.405798
Ga 23.64549572 0.01469927 1.16171439 -1.049489 0.259357 -0.174323
Ga 18.76477732 1.56321538 4.55947131 -0.158370 -1.291052 -0.109892
Ga 17.31452436 1.62616961 1.12902004 -1.430615 2.274790 0.517677
Ga 14.02868647 -0.03705525 1.81847823 -0.044439 0.441553 1.373621
Ga 21.97166695 -0.01669467 3.90886179 0.168107 0.074067 0.956993
Ga 20.28460988 1.58064604 1.74642903 0.544718 -1.007906 0.375246
Ga 15.77477574 1.51552467 3.87032519 0.735949 0.114535 -1.273968
O 14.37475770 -0.01233931 0.63445974 0.817574 0.508141 -0.455097
O 21.65203560 -0.05510470 5.15694107 0.833887 -0.311032 0.092477
O 20.66012975 1.62744558 0.47395175 -0.266436 -0.052425 -0.095169
O 15.32368420 1.61874647 5.19511660 -0.211853 0.438648 1.061643
O 13.81541752 0.02138516 3.08461286 -0.240431 1.065933 0.328189
O 22.16814139 0.01311285 2.56385115 -1.326242 0.591401 0.381713
O 20.04542942 1.54733535 3.15302578 0.020323 1.397040 -0.535900
O 15.94238569 1.50809401 2.51055631 0.041524 -0.502588 1.204879
O 12.12275838 0.02604545 1.49787080 -0.241713 0.468375 -1.923837
O 23.84617978 0.00152952 4.19544670 -0.423628 0.557175 -1.010239
O 18.38643896 1.54189968 1.56836448 1.179582 0.718261 -0.538760
O 17.57525089 1.60247496 4.29326471 0.377261 0.279634 0.042136
Ga 11.09195424 -0.03405626 10.26531099 0.336499 0.994578 0.405798
Ga 22.25457172 0.01469927 6.87734939 -1.049489 0.259357 -0.174323
Ga 17.37385332 1.56321538 10.27510631 -0.158370 -1.291052 -0.109892
Ga 15.92360036 1.62616961 6.84465504 -1.430615 2.274790 0.517677
Ga 12.63776247 -0.03705525 7.53411323 -0.044439 0.441553 1.373621
Ga 20.58074295 -0.01669467 9.62449679 0.168107 0.074067 0.956993
Ga 18.89368588 1.58064604 7.46206403 0.544718 -1.007906 0.375246
Ga 14.38385174 1.51552467 9.58596019 0.735949 0.114535 -1.273968
O 12.98383370 -0.01233931 6.35009474 0.817574 0.508141 -0.455097
O 20.26111160 -0.05510470 10.87257607 0.833887 -0.311032 0.092477
O 19.26920575 1.62744558 6.18958675 -0.266436 -0.052425 -0.095169
O 13.93276020 1.61874647 10.91075160 -0.211853 0.438648 1.061643
O 12.42449352 0.02138516 8.80024786 -0.240431 1.065933 0.328189
O 20.77721739 0.01311285 8.27948615 -1.326242 0.591401 0.381713
O 18.65450542 1.54733535 8.86866078 0.020323 1.397040 -0.535900
O 14.55146169 1.50809401 8.22619131 0.041524 -0.502588 1.204879
O 10.73183438 0.02604545 7.21350580 -0.241713 0.468375 -1.923837
O 22.45525578 0.00152952 9.91108170 -0.423628 0.557175 -1.010239
O 16.99551496 1.54189968 7.28399948 1.179582 0.718261 -0.538760
O 16.18432689 1.60247496 10.00889971 0.377261 0.279634 0.042136
Ga 12.48287824 3.05306374 4.54967599 0.336499 0.994578 0.405798
Ga 23.64549572 3.10181927 1.16171439 -1.049489 0.259357 -0.174323
Ga 18.76477732 4.65033538 4.55947131 -0.158370 -1.291052 -0.109892
Ga 17.31452436 4.71328961 1.12902004 -1.430615 2.274790 0.517677
Ga 14.02868647 3.05006475 1.81847823 -0.044439 0.441553 1.373621
Ga 21.97166695 3.07042533 3.90886179 0.168107 0.074067 0.956993
Ga 20.28460988 4.66776604 1.74642903 0.544718 -1.007906 0.375246
Ga 15.77477574 4.60264467 3.87032519 0.735949 0.114535 -1.273968
O 14.37475770 3.07478069 0.63445974 0.817574 0.508141 -0.455097
O 21.65203560 3.03201530 5.15694107 0.833887 -0.311032 0.092477
O 20.66012975 4.71456558 0.47395175 -0.266436 -0.052425 -0.095169
O 15.32368420 4.70586647 5.19511660 -0.211853 0.438648 1.061643
O 13.81541752 3.10850516 3.08461286 -0.240431 1.065933 0.328189
O 22.16814139 3.10023285 2.56385115 -1.326242 0.591401 0.381713
O 20.04542942 4.63445535 3.15302578 0.020323 1.397040 -0.535900
O 15.94238569 4.59521401 2.51055631 0.041524 -0.502588 1.204879
O 12.12275838 3.11316545 1.49787080 -0.241713 0.468375 -1.923837
O 23.84617978 3.08864952 4.19544670 -0.423628 0.557175 -1.010239
O 18.38643896 4.62901968 1.56836448 1.179582 0.718261 -0.538760
O 17.57525089 4.68959496 4.29326471 0.377261 0.279634 0.042136
Ga 11.09195424 3.05306374 10.26531099 0.336499 0.994578 0.405798
Ga 22.25457172 3.10181927 6.87734939 -1.049489 0.259357 -0.174323
Ga 17.37385332 4.65033538 10.27510631 -0.158370 -1.291052 -0.109892
Ga 15.92360036 4.71328961 6.84465504 -1.430615 2.274790 0.517677
Ga 12.63776247 3.05006475 7.53411323 -0.044439 0.441553 1.373621
Ga 20.58074295 3.07042533 9.62449679 0.168107 0.074067 0.956993
Ga 18.89368588 4.66776604 7.46206403 0.544718 -1.007906 0.375246
Ga 14.38385174 4.60264467 9.58596019 0.735949 0.114535 -1.273968
O 12.98383370 3.07478069 6.35009474 0.817574 0.508141 -0.455097
O 20.26111160 3.03201530 10.87257607 0.833887 -0.311032 0.092477
O 19.26920575 4.71456558 6.18958675 -0.266436 -0.052425 -0.095169
O 13.93276020 4.70586647 10.91075160 -0.211853 0.438648 1.061643
O 12.42449352 3.10850516 8.80024786 -0.240431 1.065933 0.328189
O 20.77721739 3.10023285 8.27948615 -1.326242 0.591401 0.381713
O 18.65450542 4.63445535 8.86866078 0.020323 1.397040 -0.535900
O 14.55146169 4.59521401 8.22619131 0.041524 -0.502588 1.204879
O 10.73183438 3.11316545 7.21350580 -0.241713 0.468375 -1.923837
O 22.45525578 3.08864952 9.91108170 -0.423628 0.557175 -1.010239
O 16.99551496 4.62901968 7.28399948 1.179582 0.718261 -0.538760
O 16.18432689 4.68959496 10.00889971 0.377261 0.279634 0.042136
159
Lattice="24.691610 0.000000 0.000000 0.000000 6.113306 0.000000 -2.754394 0.000000 11.318453" Properties=species:S:1:pos:R:3:force:R:3 Energy=-628.978285 Virial="-9.353351 -11.904461 23.947661 -24.410757 -1.306485 6.822642 -21.722556 -11.149335 12.249556" pbc="T T T"
Ga 10.95916655 -0.08343263 1.15492998 -1.222936 1.432526 -1.158334
Ga 6.18632024 1.58553267 4.51017115 0.045207 -1.446238 0.543639
Ga 4.76082649 1.52472146 1.20334018 -0.459207 -0.130278 -0.261893
Ga 1.51794593 -0.02792782 1.76710145 -0.067077 1.813484 0.184233
Ga 9.48090621 0.01984660 3.88286798 -0.186910 0.590266 0.230749
Ga 7.70589364 1.50593675 1.77037156 -0.914847 0.264352 -0.099068
Ga 3.24384344 1.51653527 3.93494439 -0.076659 -0.975403 0.786265
O 1.85214022 -0.02754871 0.48179567 1.139098 -0.390143 -0.414617
O 9.01451624 -0.00747088 5.10255481 -1.390012 -0.799697 1.907301
O 8.13862540 1.51701258 0.58354350 0.924099 1.286354 -0.397919
O 2.93917010 1.51996828 5.21166460 -0.565292 1.554070 0.299682
O 1.37808935 0.06052037 3.21371210 -1.803514 -0.187959 1.703751
O 9.61784561 0.03004523 2.52634143 -0.031532 0.321582 -0.601835
O 7.49448028 1.53061806 3.20081812 -0.669095 0.918224 -0.496187
O 3.48940439 1.49950086 2.52253182 0.187062 -0.343239 0.414509
O -0.29714426 -0.00471496 1.46300260 -0.186737 -0.344282 0.214877
O 11.28050665 0.02165630 4.26813297 -0.292533 -0.460863 0.921619
O 5.90108779 1.54075010 1.52334750 -0.549841 -0.241667 0.402510
O 5.14328218 1.52463051 4.16177949 1.023732 0.917840 0.367640
Ga -1.31816908 0.00528084 10.22691472 0.138237 -0.245530 0.615923
Ga 9.56824255 -0.08343263 6.87056498 -1.222936 1.432526 -1.158334
Ga 4.79539624 1.58553267 10.22580615 0.045207 -1.446238 0.543639
Ga 3.36990249 1.52472146 6.91897518 -0.459207 -0.130278 -0.261893
Ga 0.12702193 -0.02792782 7.48273645 -0.067077 1.813484 0.184233
Ga 8.08998221 0.01984660 9.59850298 -0.186910 0.590266 0.230749
Ga 6.31496964 1.50593675 7.48600656 -0.914847 0.264352 -0.099068
Ga 1.85291944 1.51653527 9.65057939 -0.076659 -0.975403 0.786265
O 0.46121622 -0.02754871 6.19743067 1.139098 -0.390143 -0.414617
O 7.62359224 -0.00747088 10.81818981 -1.390012 -0.799697 1.907301
O 6.74770140 1.51701258 6.29917850 0.924099 1.286354 -0.397919
O 1.54824610 1.51996828 10.92729960 -0.565292 1.554070 0.299682
O -0.01283465 0.06052037 8.92934710 -1.803514 -0.187959 1.703751
O 8.22692161 0.03004523 8.24197643 -0.031532 0.321582 -0.601835
O 6.10355628 1.53061806 8.91645312 -0.669095 0.918224 -0.496187
O 2.09848039 1.49950086 8.23816682 0.187062 -0.343239 0.414509
O -1.68806826 -0.00471496 7.17863760 -0.186737 -0.344282 0.214877
O 9.88958265 0.02165630 9.98376797 -0.292533 -0.460863 0.921619
O 4.51016379 1.54075010 7.23898250 -0.549841 -0.241667 0.402510
O 3.75235818 1.52463051 9.87741449 1.023732 0.917840 0.367640
Ga 0.07275492 3.09240084 4.51127972 0.138237 -0.245530 0.615923
Ga 10.95916655 3.00368737 1.15492998 -1.222936 1.432526 -1.158334
Ga 6.18632024 4.67265267 4.51017115 0.045207 -1.446238 0.543639
Ga 4.76082649 4.61184146 1.20334018 -0.459207 -0.130278 -0.261893
Ga 1.51794593 3.05919218 1.76710145 -0.067077 1.813484 0.184233
Ga 9.48090621 3.10696660 3.88286798 -0.186910 0.590266 0.230749
Ga 7.70589364 4.59305675 1.77037156 -0.914847 0.264352 -0.099068
Ga 3.24384344 4.60365527 3.93494439 -0.076659 -0.975403 0.786265
O 1.85214022 3.05957129 0.48179567 1.139098 -0.390143 -0.414617
O 9.01451624 3.07964912 5.10255481 -1.390012 -0.799697 1.907301
O 8.13862540 4.60413258 0.58354350 0.924099 1.286354 -0.397919
O 2.93917010 4.60708828 5.21166460 -0.565292 1.554070 0.299682
O 1.37808935 3.14764037 3.21371210 -1.803514 -0.187959 1.703751
O 9.61784561 3.11716523 2.52634143 -0.031532 0.321582 -0.601835
O 7.49448028 4.61773806 3.20081812 -0.669095 0.918224 -0.496187
O 3.48940439 4.58662086 2.52253182 0.187062 -0.343239 0.414509
O -0.29714426 3.08240504 1.46300260 -0.186737 -0.344282 0.214877
O 11.28050665 3.10877630 4.26813297 -0.292533 -0.460863 0.921619
O 5.90108779 4.62787010 1.52334750 -0.549841 -0.241667 0.402510
O 5.14328218 4.61175051 4.16177949 1.023732 0.917840 0.367640
Ga -1.31816908 3.09240084 10.22691472 0.138237 -0.245530 0.615923
Ga 9.56824255 3.00368737 6.87056498 -1.222936 1.432526 -1.158334
Ga 4.79539624 4.67265267 10.22580615 0.045207 -1.446238 0.543639
Ga 3.36990249 4.61184146 6.91897518 -0.459207 -0.130278 -0.261893
Ga 0.12702193 3.05919218 7.48273645 -0.067077 1.813484 0.184233
Ga 8.08998221 3.10696660 9.59850298 -0.186910 0.590266 0.230749
Ga 6.31496964 4.59305675 7.48600656 -0.914847 0.264352 -0.099068
Ga 1.85291944 4.60365527 9.65057939 -0.076659 -0.975403 0.786265
O 0.46121622 3.05957129 6.19743067 1.139098 -0.390143 -0.414617
O 7.62359224 3.07964912 10.81818981 -1.390012 -0.799697 1.907301
O 6.74770140 4.60413258 6.29917850 0.924099 1.286354 -0.397919
O 1.54824610 4.60708828 10.92729960 -0.565292 1.554070 0.299682
O -0.01283465 3.14764037 8.92934710 -1.803514 -0.187959 1.703751
O 8.22692161 3.11716523 8.24197643 -0.031532 0.321582 -0.601835
O 6.10355628 4.61773806 8.91645312 -0.669095 0.918224 -0.496187
O 2.09848039 4.58662086 8.23816682 0.187062 -0.343239 0.414509
O -1.68806826 3.08240504 7.17863760 -0.186737 -0.344282 0.214877
O 9.88958265 3.10877630 9.98376797 -0.292533 -0.460863 0.921619
O 4.51016379 4.62787010 7.23898250 -0.549841 -0.241667 0.402510
O 3.75235818 4.61175051 9.87741449 1.023732 0.917840 0.367640
Ga 12.54161592 0.00528084 4.51127972 0.138237 -0.245530 0.615923
Ga 23.42802755 -0.08343263 1.15492998 -1.222936 1.432526 -1.158334
Ga 18.65518124 1.58553267 4.51017115 0.045207 -1.446238 0.543639
Ga 17.22968749 1.52472146 1.20334018 -0.459207 -0.130278 -0.261893
Ga 13.98680693 -0.02792782 1.76710145 -0.067077 1.813484 0.184233
Ga 21.94976721 0.01984660 3.88286798 -0.186910 0.590266 0.230749
Ga 20.17475464 1.50593675 1.77037156 -0.914847 0.264352 -0.099068
Ga 15.71270444 1.51653527 3.93494439 -0.076659 -0.975403 0.786265
O 14.32100122 -0.02754871 0.48179567 1.139098 -0.390143 -0.414617
O 21.48337724 -0.00747088 5.10255481 -1.390012 -0.799697 1.907301
O 20.60748640 1.51701258 0.58354350 0.924099 1.286354 -0.397919
O 15.40803110 1.51996828 5.21166460 -0.565292 1.554070 0.299682
O 13.84695035 0.06052037 3.21371210 -1.803514 -0.187959 1.703751
O 22.08670661 0.03004523 2.52634143 -0.031532 0.321582 -0.601835
O 19.96334128 1.53061806 3.20081812 -0.669095 0.918224 -0.496187
O 15.95826539 1.49950086 2.52253182 0.187062 -0.343239 0.414509
O 12.17171674 -0.00471496 1.46300260 -0.186737 -0.344282 0.214877
O 23.74936765 0.02165630 4.26813297 -0.292533 -0.460863 0.921619
O 18.36994879 1.54075010 1.52334750 -0.549841 -0.241667 0.402510
O 17.61214318 1.52463051 4.16177949 1.023732 0.917840 0.367640
Ga 11.15069192 0.00528084 10.22691472 0.138237 -0.245530 0.615923
Ga 22.03710355 -0.08343263 6.87056498 -1.222936 1.432526 -1.158334
Ga 17.26425724 1.58553267 10.22580615 0.045207 -1.446238 0.543639
Ga 15.83876349 1.52472146 6.91897518 -0.459207 -0.130278 -0.261893
Ga 12.59588293 -0.02792782 7.48273645 -0.067077 1.813484 0.184233
Ga 20.55884321 0.01984660 9.59850298 -0.186910 0.590266 0.230749
Ga 18.78383064 1.50593675 7.48600656 -0.914847 0.264352 -0.099068
Ga 14.32178044 1.51653527 9.65057939 -0.076659 -0.975403 0.786265
O 12.93007722 -0.02754871 6.19743067 1.139098 -0.390143 -0.414617
O 20.09245324 -0.00747088 10.81818981 -1.390012 -0.799697 1.907301
O 19.21656240 1.51701258 6.29917850 0.924099 1.286354 -0.397919
O 14.01710710 1.51996828 10.92729960 -0.565292 1.554070 0.299682
O 12.45602635 0.06052037 8.92934710 -1.803514 -0.187959 1.703751
O 20.69578261 0.03004523 8.24197643 -0.031532 0.321582 -0.601835
O 18.57241728 1.53061806 8.91645312 -0.669095 0.918224 -0.496187
O 14.56734139 1.49950086 8.23816682 0.187062 -0.343239 0.414509
O 10.78079274 -0.00471496 7.17863760 -0.186737 -0.344282 0.214877
O 22.35844365 0.02165630 9.98376797 -0.292533 -0.460863 0.921619
O 16.97902479 1.54075010 7.23898250 -0.549841 -0.241667 0.402510
O 16.22121918 1.52463051 9.87741449 1.023732 0.917840 0.367640
Ga 12.54161592 3.09240084 4.51127972 0.138237 -0.245530 0.615923
Ga 23.42802755 3.00368737 1.15492998 -1.222936 1.432526 -1.158334
Ga 18.65518124 4.67265267 4.51017115 0.045207 -1.446238 0.543639
Ga 17.22968749 4.61184146 1.20334018 -0.459207 -0.130278 -0.261893
Ga 13.98680693 3.05919218 1.76710145 -0.067077 1.813484 0.184233
Ga 21.94976721 3.10696660 3.88286798 -0.186910 0.590266 0.230749
Ga 20.17475464 4.59305675 1.77037156 -0.914847 0.264352 -0.099068
Ga 15.71270444 4.60365527 3.93494439 -0.076659 -0.975403 0.786265
O 14.32100122 3.05957129 0.48179567 1.139098 -0.390143 -0.414617
O 21.48337724 3.07964912 5.10255481 -1.390012 -0.799697 1.907301
O 20.60748640 4.60413258 0.58354350 0.924099 1.286354 -0.397919
O 15.40803110 4.60708828 5.21166460 -0.565292 1.554070 0.299682
O 13.84695035 3.14764037 3.21371210 -1.803514 -0.187959 1.703751
O 22.08670661 3.11716523 2.52634143 -0.031532 0.321582 -0.601835
O 19.96334128 4.61773806 3.20081812 -0.669095 0.918224 -0.496187
O 15.95826539 4.58662086 2.52253182 0.187062 -0.343239 0.414509
O 12.17171674 3.08240504 1.46300260 -0.186737 -0.344282 0.214877
O 23.74936765 3.10877630 4.26813297 -0.292533 -0.460863 0.921619
O 18.36994879 4.62787010 1.52334750 -0.549841 -0.241667 0.402510
O 17.61214318 4.61175051 4.16177949 1.023732 0.917840 0.367640
Ga 11.15069192 3.09240084 10.22691472 0.138237 -0.245530 0.615923
Ga 22.03710355 3.00368737 6.87056498 -1.222936 1.432526 -1.158334
Ga 17.26425724 4.67265267 10.22580615 0.045207 -1.446238 0.543639
Ga 15.83876349 4.61184146 6.91897518 -0.459207 -0.130278 -0.261893
Ga 12.59588293 3.05919218 7.48273645 -0.067077 1.813484 0.184233
Ga 20.55884321 3.10696660 9.59850298 -0.186910 0.590266 0.230749
Ga 18.78383064 4.59305675 7.48600656 -0.914847 0.264352 -0.099068
Ga 14.32178044 4.60365527 9.65057939 -0.076659 -0.975403 0.786265
O 12.93007722 3.05957129 6.19743067 1.139098 -0.390143 -0.414617
O 20.09245324 3.07964912 10.81818981 -1.390012 -0.799697 1.907301
O 19.21656240 4.60413258 6.29917850 0.924099 1.286354 -0.397919
O 14.01710710 4.60708828 10.92729960 -0.565292 1.554070 0.299682
O 12.45602635 3.14764037 8.92934710 -1.803514 -0.187959 1.703751
O 20.69578261 3.11716523 8.24197643 -0.031532 0.321582 -0.601835
O 18.57241728 4.61773806 8.91645312 -0.669095 0.918224 -0.496187
O 14.56734139 4.58662086 8.23816682 0.187062 -0.343239 0.414509
O 10.78079274 3.08240504 7.17863760 -0.186737 -0.344282 0.214877
O 22.35844365 3.10877630 9.98376797 -0.292533 -0.460863 0.921619
O 16.97902479 4.62787010 7.23898250 -0.549841 -0.241667 0.402510
O 16.22121918 4.61175051 9.87741449 1.023732 0.917840 0.367640
159
Lattice="25.153581 0.000000 0.000000 0.000000 6.227684 0.000000 -2.805927 0.000000 11.530217" Properties=species:S:1:pos:R:3:force:R:3 Energy=-628.059506 Virial="5.305407 -19.032630 -7.032007 -6.099972 -31.142878 13.285189 18.575353 19.892245 19.673731" pbc="T T T"
Ga 11.11903102 -0.01482032 1.12793025 0.482160 -0.376556 0.473963
Ga 6.31242409 1.59301196 4.54464570 -0.897012 0.777060 1.017574
Ga 4.92279834 1.57735256 1.22537615 0.423160 -0.454596 0.245990
Ga 1.52755429 0.03418101 1.76772034 -0.759377 -0.042676 -0.297657
Ga 9.65556857 0.00687357 3.97584123 -0.028653 0.194185 -0.275123
Ga 7.79523941 1.52111808 1.83528682 2.155763 -0.152252 -0.908477
Ga 3.29362923 1.57544913 3.89902567 0.418455 -0.579186 -0.886825
O 1.96464160 -0.04930093 0.56401254 0.051536 1.385545 -0.066850
O 9.26813695 -0.02787087 5.24646939 0.214890 0.866207 -0.608283
O 8.22952783 1.53536720 0.50157836 -0.782201 -0.559726 1.009883
O 2.87621117 1.57090688 5.16059622 -0.488508 -0.553182 0.013577
O 1.39674435 -0.01053793 3.24409613 -1.054871 0.551872 -0.423148
O 9.76881395 -0.01317791 2.57745328 0.123469 -0.745557 0.633743
O 7.69472841 1.56956712 3.23570112 -0.704929 1.060853 -0.495396
O 3.43107737 1.58719242 2.57267721 1.825442 -1.362458 -1.615863
O -0.34951877 -0.00976322 1.47429602 -1.389564 0.977934 0.277460
O 11.47729791 0.01335440 4.34649523 0.049579 0.254162 0.776443
O 6.02281373 1.50443211 1.50075112 0.332921 -0.198816 -0.692223
O 5.24744061 1.57239322 4.33287978 0.805840 -0.775684 -1.785504
Ga -1.40142451 -0.02608356 10.25300562 1.248881 0.382712 0.013969
Ga 9.72810702 -0.01482032 6.84356525 0.482160 -0.376556 0.473963
Ga 4.92150009 1.59301196 10.26028070 -0.897012 0.777060 1.017574
Ga 3.53187434 1.57735256 6.94101115 0.423160 -0.454596 0.245990
Ga 0.13663029 0.03418101 7.48335534 -0.759377 -0.042676 -0.297657
Ga 8.26464457 0.00687357 9.69147623 -0.028653 0.194185 -0.275123
Ga 6.40431541 1.52111808 7.55092182 2.155763 -0.152252 -0.908477
Ga 1.90270523 1.57544913 9.61466067 0.418455 -0.579186 -0.886825
O 0.57371760 -0.04930093 6.27964754 0.051536 1.385545 -0.066850
O 7.87721295 -0.02787087 10.96210439 0.214890 0.866207 -0.608283
O 6.83860383 1.53536720 6.21721336 -0.782201 -0.559726 1.009883
O 1.48528717 1.57090688 10.87623122 -0.488508 -0.553182 0.013577
O 0.00582035 -0.01053793 8.95973113 -1.054871 0.551872 -0.423148
O 8.37788995 -0.01317791 8.29308828 0.123469 -0.745557 0.633743
O 6.30380441 1.56956712 8.95133612 -0.704929 1.060853 -0.495396
O 2.04015337 1.58719242 8.28831221 1.825442 -1.362458 -1.615863
O -1.74044277 -0.00976322 7.18993102 -1.389564 0.977934 0.277460
O 10.08637391 0.01335440 10.06213023 0.049579 0.254162 0.776443
O 4.63188973 1.50443211 7.21638612 0.332921 -0.198816 -0.692223
O 3.85651661 1.57239322 10.04851478 0.805840 -0.775684 -1.785504
Ga -0.01050051 3.06103644 4.53737062 1.248881 0.382712 0.013969
Ga 11.11903102 3.07229968 1.12793025 0.482160 -0.376556 0.473963
Ga 6.31242409 4.68013196 4.54464570 -0.897012 0.777060 1.017574
Ga 4.92279834 4.66447256 1.22537615 0.423160 -0.454596 0.245990
Ga 1.52755429 3.12130101 1.76772034 -0.759377 -0.042676 -0.297657
Ga 9.65556857 3.09399357 3.97584123 -0.028653 0.194185 -0.275123
Ga 7.79523941 4.60823808 1.83528682 2.155763 -0.152252 -0.908477
Ga 3.29362923 4.66256913 3.89902567 0.418455 -0.579186 -0.886825
O 1.96464160 3.03781907 0.56401254 0.051536 1.385545 -0.066850
O 9.26813695 3.05924913 5.24646939 0.214890 0.866207 -0.608283
O 8.22952783 4.62248720 0.50157836 -0.782201 -0.559726 1.009883
O 2.87621117 4.65802688 5.16059622 -0.488508 -0.553182 0.013577
O 1.39674435 3.07658207 3.24409613 -1.054871 0.551872 -0.423148
O 9.76881395 3.07394209 2.57745328 0.123469 -0.745557 0.633743
O 7.69472841 4.65668712 3.23570112 -0.704929 1.060853 -0.495396
O 3.43107737 4.67431242 2.57267721 1.825442 -1.362458 -1.615863
O -0.34951877 3.07735678 1.47429602 -1.389564 0.977934 0.277460
O 11.47729791 3.10047440 4.34649523 0.049579 0.254162 0.776443
O 6.02281373 4.59155211 1.50075112 0.332921 -0.198816 -0.692223
O 5.24744061 4.65951322 4.33287978 0.805840 -0.775684 -1.785504
Ga -1.40142451 3.06103644 10.25300562 1.248881 0.382712 0.013969
Ga 9.72810702 3.07229968 6.84356525 0.482160 -0.376556 0.473963
Ga 4.92150009 4.68013196 10.26028070 -0.897012 0.777060 1.017574
Ga 3.53187434 4.66447256 6.94101115 0.423160 -0.454596 0.245990
Ga 0.13663029 3.12130101 7.48335534 -0.759377 -0.042676 -0.297657
Ga 8.26464457 3.09399357 9.69147623 -0.028653 0.194185 -0.275123
Ga 6.40431541 4.60823808 7.55092182 2.155763 -0.152252 -0.908477
Ga 1.90270523 4.66256913 9.61466067 0.418455 -0.579186 -0.886825
O 0.57371760 3.03781907 6.27964754 0.051536 1.385545 -0.066850
O 7.87721295 3.05924913 10.96210439 0.214890 0.866207 -0.608283
O 6.83860383 4.62248720 6.21721336 -0.782201 -0.559726 1.009883
O 1.48528717 4.65802688 10.87623122 -0.488508 -0.553182 0.013577
O 0.00582035 3.07658207 8.95973113 -1.054871 0.551872 -0.423148
O 8.37788995 3.07394209 8.29308828 0.123469 -0.745557 0.633743
O 6.30380441 4.65668712 8.95133612 -0.704929 1.060853 -0.495396
O 2.04015337 4.67431242 8.28831221 1.825442 -1.362458 -1.615863
O -1.74044277 3.07735678 7.18993102 -1.389564 0.977934 0.277460
O 10.08637391 3.10047440 10.06213023 0.049579 0.254162 0.776443
O 4.63188973 4.59155211 7.21638612 0.332921 -0.198816 -0.692223
O 3.85651661 4.65951322 10.04851478 0.805840 -0.775684 -1.785504
Ga 12.45836049 -0.02608356 4.53737062 1.248881 0.382712 0.013969
Ga 23.58789202 -0.01482032 1.12793025 0.482160 -0.376556 0.473963
Ga 18.78128509 1.59301196 4.54464570 -0.897012 0.777060 1.017574
Ga 17.39165934 1.57735256 1.22537615 0.423160 -0.454596 0.245990
Ga 13.99641529 0.03418101 1.76772034 -0.759377 -0.042676 -0.297657
Ga 22.12442957 0.00687357 3.97584123 -0.028653 0.194185 -0.275123
Ga 20.26410041 1.52111808 1.83528682 2.155763 -0.152252 -0.908477
Ga 15.76249023 1.57544913 3.89902567 0.418455 -0.579186 -0.886825
O 14.43350260 -0.04930093 0.56401254 0.051536 1.385545 -0.066850
O 21.73699795 -0.02787087 5.24646939 0.214890 0.866207 -0.608283
O 20.69838883 1.53536720 0.50157836 -0.782201 -0.559726 1.009883
O 15.34507217 1.57090688 5.16059622 -0.488508 -0.553182 0.013577
O 13.86560535 -0.01053793 3.24409613 -1.054871 0.551872 -0.423148
O 22.23767495 -0.01317791 2.57745328 0.123469 -0.745557 0.633743
O 20.16358941 1.56956712 3.23570112 -0.704929 1.060853 -0.495396
O 15.89993837 1.58719242 2.57267721 1.825442 -1.362458 -1.615863
O 12.11934223 -0.00976322 1.47429602 -1.389564 0.977934 0.277460
O 23.94615891 0.01335440 4.34649523 0.049579 0.254162 0.776443
O 18.49167473 1.50443211 1.50075112 0.332921 -0.198816 -0.692223
O 17.71630161 1.57239322 4.33287978 0.805840 -0.775684 -1.785504
Ga 11.06743649 -0.02608356 10.25300562 1.248881 0.382712 0.013969
Ga 22.19696802 -0.01482032 6.84356525 0.482160 -0.376556 0.473963
Ga 17.39036109 1.59301196 10.26028070 -0.897012 0.777060 1.017574
Ga 16.00073534 1.57735256 6.94101115 0.423160 -0.454596 0.245990
Ga 12.60549129 0.03418101 7.48335534 -0.759377 -0.042676 -0.297657
Ga 20.73350557 0.00687357 9.69147623 -0.028653 0.194185 -0.275123
Ga 18.87317641 1.52111808 7.55092182 2.155763 -0.152252 -0.908477
Ga 14.37156623 1.57544913 9.61466067 0.418455 -0.579186 -0.886825
O 13.04257860 -0.04930093 6.27964754 0.051536 1.385545 -0.066850
O 20.34607395 -0.02787087 10.96210439 0.214890 0.866207 -0.608283
O 19.30746483 1.53536720 6.21721336 -0.782201 -0.559726 1.009883
O 13.95414817 1.57090688 10.87623122 -0.488508 -0.553182 0.013577
O 12.47468135 -0.01053793 8.95973113 -1.054871 0.551872 -0.423148
O 20.84675095 -0.01317791 8.29308828 0.123469 -0.745557 0.633743
O 18.77266541 1.56956712 8.95133612 -0.704929 1.060853 -0.495396
O 14.50901437 1.58719242 8.28831221 1.825442 -1.362458 -1.615863
O 10.72841823 -0.00976322 7.18993102 -1.389564 0.977934 0.277460
O 22.55523491 0.01335440 10.06213023 0.049579 0.254162 0.776443
O 17.10075073 1.50443211 7.21638612 0.332921 -0.198816 -0.692223
O 16.32537761 1.57239322 10.04851478 0.805840 -0.775684 -1.785504
Ga 12.45836049 3.06103644 4.53737062 1.248881 0.382712 0.013969
Ga 23.58789202 3.07229968 1.12793025 0.482160 -0.376556 0.473963
Ga 18.78128509 4.68013196 4.54464570 -0.897012 0.777060 1.017574
Ga 17.39165934 4.66447256 1.22537615 0.423160 -0.454596 0.245990
Ga 13.99641529 3.12130101 1.76772034 -0.759377 -0.042676 -0.297657
Ga 22.12442957 3.09399357 3.97584123 -0.028653 0.194185 -0.275123
Ga 20.26410041 4.60823808 1.83528682 2.155763 -0.152252 -0.908477
Ga 15.76249023 4.66256913 3.89902567 0.418455 -0.579186 -0.886825
O 14.43350260 3.03781907 0.56401254 0.051536 1.385545 -0.066850
O 21.73699795 3.05924913 5.24646939 0.214890 0.866207 -0.608283
O 20.69838883 4.62248720 0.50157836 -0.782201 -0.559726 1.009883
O 15.34507217 4.65802688 5.16059622 -0.488508 -0.553182 0.013577
O 13.86560535 3.07658207 3.24409613 -1.054871 0.551872 -0.423148
O 22.23767495 3.07394209 2.57745328 0.123469 -0.745557 0.633743
O 20.16358941 4.65668712 3.23570112 -0.704929 1.060853 -0.495396
O 15.89993837 4.67431242 2.57267721 1.825442 -1.362458 -1.615863
O 12.11934223 3.07735678 1.47429602 -1.389564 0.977934 0.277460
O 23.94615891 3.10047440 4.34649523 0.049579 0.254162 0.776443
O 18.49167473 4.59155211 1.50075112 0.332921 -0.198816 -0.692223
O 17.71630161 4.65951322 4.33287978 0.805840 -0.775684 -1.785504
Ga 11.06743649 3.06103644 10.25300562 1.248881 0.382712 0.013969
Ga 22.19696802 3.07229968 6.84356525 0.482160 -0.376556 0.473963
Ga 17.39036109 4.68013196 10.26028070 -0.897012 0.777060 1.017574
Ga 16.00073534 4.66447256 6.94101115 0.423160 -0.454596 0.245990
Ga 12.60549129 3.12130101 7.48335534 -0.759377 -0.042676 -0.297657
Ga 20.73350557 3.09399357 9.69147623 -0.028653 0.194185 -0.275123
Ga 18.87317641 4.60823808 7.55092182 2.155763 -0.152252 -0.908477
Ga 14.37156623 4.66256913 9.61466067 0.418455 -0.579186 -0.886825
O 13.04257860 3.03781907 6.27964754 0.051536 1.385545 -0.066850
O 20.34607395 3.05924913 10.96210439 0.214890 0.866207 -0.608283
O 19.30746483 4.62248720 6.21721336 -0.782201 -0.559726 1.009883
O 13.95414817 4.65802688 10.87623122 -0.488508 -0.553182 0.013577
O 12.47468135 3.07658207 8.95973113 -1.054871 0.551872 -0.423148
O 20.84675095 3.07394209 8.29308828 0.123469 -0.745557 0.633743
O 18.77266541 4.65668712 8.95133612 -0.704929 1.060853 -0.495396
O 14.50901437 4.67431242 8.28831221 1.825442 -1.362458 -1.615863
O 10.72841823 3.07735678 7.18993102 -1.389564 0.977934 0.277460
O 22.55523491 3.10047440 10.06213023 0.049579 0.254162 0.776443
O 17.10075073 4.59155211 7.21638612 0.332921 -0.198816 -0.692223
O 16.32537761 4.65951322 10.04851478 0.805840 -0.775684 -1.785504
159
Lattice="25.000960 0.000000 0.000000 0.000000 6.189897 0.000000 -2.788902 0.000000 11.460257" Properties=species:S:1:pos:R:3:force:R:3 Energy=-628.071724 Virial="-1.285822 8.057219 12.803668 29.391696 12.103006 0.209644 32.887969 23.350235 -17.193521" pbc="T T T"
Ga 11.15295677 0.07075087 1.15728228 -0.352541 0.754330 -0.212047
Ga 6.21934146 1.52534649 4.58130643 0.046797 -0.008978 0.269248
Ga 4.83889275 1.53921494 1.19938728 0.530313 -0.048821 -1.150099
Ga 1.48560730 0.00564677 1.84514526 -0.448606 -0.794590 -1.501077
Ga 9.58356171 0.02767239 3.99361675 -0.819092 0.750517 0.171784
Ga 7.79203413 1.52135051 1.84798755 -0.841936 1.214335 0.583628
Ga 3.35819355 1.56980585 3.92330700 -0.046224 -0.399601 -0.384865
O 1.91905510 -0.05107092 0.58315028 0.550225 0.443515 1.168781
O 9.23013472 -0.05246731 5.22620165 -0.919536 1.321353 -0.339090
O 8.18540434 1.50659522 0.49039241 -0.052078 0.279076 0.498365
O 2.95172804 1.53156602 5.26429432 0.757166 -0.221528 0.077900
O 1.42258284 0.01894773 3.21833469 -0.817355 1.758672 0.533905
O 9.77478437 0.03386072 2.55270791 0.206975 -1.530128 -0.720946
O 7.59550881 1.66995206 3.15328422 -0.092961 1.746813 0.697817
O 3.45880762 1.48128505 2.55426918 -0.644730 -0.540628 -0.592608
O -0.30093305 0.03061106 1.39735079 -0.485095 0.385550 1.411245
O 11.45752228 -0.03229742 4.25725517 -0.010729 0.422536 2.141320
O 5.98052474 1.55792485 1.48019111 0.379857 -0.262781 0.310088
O 5.19473385 1.56462581 4.24957106 0.594891 -0.640376 1.365820
Ga -1.32899074 0.01322294 10.33415369 0.996130 0.379112 -0.038896
Ga 9.76203277 0.07075087 6.87291728 -0.352541 0.754330 -0.212047
Ga 4.82841746 1.52534649 10.29694143 0.046797 -0.008978 0.269248
Ga 3.44796875 1.53921494 6.91502228 0.530313 -0.048821 -1.150099
Ga 0.09468330 0.00564677 7.56078026 -0.448606 -0.794590 -1.501077
Ga 8.19263771 0.02767239 9.70925175 -0.819092 0.750517 0.171784
Ga 6.40111013 1.52135051 7.56362255 -0.841936 1.214335 0.583628
Ga 1.96726955 1.56980585 9.63894200 -0.046224 -0.399601 -0.384865
O 0.52813110 -0.05107092 6.29878528 0.550225 0.443515 1.168781
O 7.83921072 -0.05246731 10.94183665 -0.919536 1.321353 -0.339090
O 6.79448034 1.50659522 6.20602741 -0.052078 0.279076 0.498365
O 1.56080404 1.53156602 10.97992932 0.757166 -0.221528 0.077900
O 0.03165884 0.01894773 8.93396969 -0.817355 1.758672 0.533905
O 8.38386037 0.03386072 8.26834291 0.206975 -1.530128 -0.720946
O 6.20458481 1.66995206 8.86891922 -0.092961 1.746813 0.697817
O 2.06788362 1.48128505 8.26990418 -0.644730 -0.540628 -0.592608
O -1.69185705 0.03061106 7.11298579 -0.485095 0.385550 1.411245
O 10.06659828 -0.03229742 9.97289017 -0.010729 0.422536 2.141320
O 4.58960074 1.55792485 7.19582611 0.379857 -0.262781 0.310088
O 3.80380985 1.56462581 9.96520606 0.594891 -0.640376 1.365820
Ga 0.06193326 3.10034294 4.61851869 0.996130 0.379112 -0.038896
Ga 11.15295677 3.15787087 1.15728228 -0.352541 0.754330 -0.212047
Ga 6.21934146 4.61246649 4.58130643 0.046797 -0.008978 0.269248
Ga 4.83889275 4.62633494 1.19938728 0.530313 -0.048821 -1.150099
Ga 1.48560730 3.09276677 1.84514526 -0.448606 -0.794590 -1.501077
Ga 9.58356171 3.11479239 3.99361675 -0.819092 0.750517 0.171784
Ga 7.79203413 4.60847051 1.84798755 -0.841936 1.214335 0.583628
Ga 3.35819355 4.65692585 3.92330700 -0.046224 -0.399601 -0.384865
O 1.91905510 3.03604908 0.58315028 0.550225 0.443515 1.168781
O 9.23013472 3.03465269 5.22620165 -0.919536 1.321353 -0.339090
O 8.18540434 4.59371522 0.49039241 -0.052078 0.279076 0.498365
O 2.95172804 4.61868602 5.26429432 0.757166 -0.221528 0.077900
O 1.42258284 3.10606773 3.21833469 -0.817355 1.758672 0.533905
O 9.77478437 3.12098072 2.55270791 0.206975 -1.530128 -0.720946
O 7.59550881 4.75707206 3.15328422 -0.092961 1.746813 0.697817
O 3.45880762 4.56840505 2.55426918 -0.644730 -0.540628 -0.592608
O -0.30093305 3.11773106 1.39735079 -0.485095 0.385550 1.411245
O 11.45752228 3.05482258 4.25725517 -0.010729 0.422536 2.141320
O 5.98052474 4.64504485 1.48019111 0.379857 -0.262781 0.310088
O 5.19473385 4.65174581 4.24957106 0.594891 -0.640376 1.365820
Ga -1.32899074 3.10034294 10.33415369 0.996130 0.379112 -0.038896
Ga 9.76203277 3.15787087 6.87291728 -0.352541 0.754330 -0.212047
Ga 4.82841746 4.61246649 10.29694143 0.046797 -0.008978 0.269248
Ga 3.44796875 4.62633494 6.91502228 0.530313 -0.048821 -1.150099
Ga 0.09468330 3.09276677 7.56078026 -0.448606 -0.794590 -1.501077
Ga 8.19263771 3.11479239 9.70925175 -0.819092 0.750517 0.171784
Ga 6.40111013 4.60847051 7.56362255 -0.841936 1.214335 0.583628
Ga 1.96726955 4.65692585 9.63894200 -0.046224 -0.399601 -0.384865
O 0.52813110 3.03604908 6.29878528 0.550225 0.443515 1.168781
O 7.83921072 3.03465269 10.94183665 -0.919536 1.321353 -0.339090
O 6.79448034 4.59371522 6.20602741 -0.052078 0.279076 0.498365
O 1.56080404 4.61868602 10.97992932 0.757166 -0.221528 0.077900
O 0.03165884 3.10606773 8.93396969 -0.817355 1.758672 0.533905
O 8.38386037 3.12098072 8.26834291 0.206975 -1.530128 -0.720946
O 6.20458481 4.75707206 8.86891922 -0.092961 1.746813 0.697817
O 2.06788362 4.56840505 8.26990418 -0.644730 -0.540628 -0.592608
O -1.69185705 3.11773106 7.11298579 -0.485095 0.385550 1.411245
O 10.06659828 3.05482258 9.97289017 -0.010729 0.422536 2.141320
O 4.58960074 4.64504485 7.19582611 0.379857 -0.262781 0.310088
O 3.80380985 4.65174581 9.96520606 0.594891 -0.640376 1.365820
Ga 12.53079426 0.01322294 4.61851869 0.996130 0.379112 -0.038896
Ga 23.62181777 0.07075087 1.15728228 -0.352541 0.754330 -0.212047
Ga 18.68820246 1.52534649 4.58130643 0.046797 -0.008978 0.269248
Ga 17.30775375 1.53921494 1.19938728 0.530313 -0.048821 -1.150099
Ga 13.95446830 0.00564677 1.84514526 -0.448606 -0.794590 -1.501077
Ga 22.05242271 0.02767239 3.99361675 -0.819092 0.750517 0.171784
Ga 20.26089513 1.52135051 1.84798755 -0.841936 1.214335 0.583628
Ga 15.82705455 1.56980585 3.92330700 -0.046224 -0.399601 -0.384865
O 14.38791610 -0.05107092 0.58315028 0.550225 0.443515 1.168781
O 21.69899572 -0.05246731 5.22620165 -0.919536 1.321353 -0.339090
O 20.65426534 1.50659522 0.49039241 -0.052078 0.279076 0.498365
O 15.42058904 1.53156602 5.26429432 0.757166 -0.221528 0.077900
O 13.89144384 0.01894773 3.21833469 -0.817355 1.758672 0.533905
O 22.24364537 0.03386072 2.55270791 0.206975 -1.530128 -0.720946
O 20.06436981 1.66995206 3.15328422 -0.092961 1.746813 0.697817
O 15.92766862 1.48128505 2.55426918 -0.644730 -0.540628 -0.592608
O 12.16792795 0.03061106 1.39735079 -0.485095 0.385550 1.411245
O 23.92638328 -0.03229742 4.25725517 -0.010729 0.422536 2.141320
O 18.44938574 1.55792485 1.48019111 0.379857 -0.262781 0.310088
O 17.66359485 1.56462581 4.24957106 0.594891 -0.640376 1.365820
Ga 11.13987026 0.01322294 10.33415369 0.996130 0.379112 -0.038896
Ga 22.23089377 0.07075087 6.87291728 -0.352541 0.754330 -0.212047
Ga 17.29727846 1.52534649 10.29694143 0.046797 -0.008978 0.269248
Ga 15.91682975 1.53921494 6.91502228 0.530313 -0.048821 -1.150099
Ga 12.56354430 0.00564677 7.56078026 -0.448606 -0.794590 -1.501077
Ga 20.66149871 0.02767239 9.70925175 -0.819092 0.750517 0.171784
Ga 18.86997113 1.52135051 7.56362255 -0.841936 1.214335 0.583628
Ga 14.43613055 1.56980585 9.63894200 -0.046224 -0.399601 -0.384865
O 12.99699210 -0.05107092 6.29878528 0.550225 0.443515 1.168781
O 20.30807172 -0.05246731 10.94183665 -0.919536 1.321353 -0.339090
O 19.26334134 1.50659522 6.20602741 -0.052078 0.279076 0.498365
O 14.02966504 1.53156602 10.97992932 0.757166 -0.221528 0.077900
O 12.50051984 0.01894773 8.93396969 -0.817355 1.758672 0.533905
O 20.85272137 0.03386072 8.26834291 0.206975 -1.530128 -0.720946
O 18.67344581 1.66995206 8.86891922 -0.092961 1.746813 0.697817
O 14.53674462 1.48128505 8.26990418 -0.644730 -0.540628 -0.592608
O 10.77700395 0.03061106 7.11298579 -0.485095 0.385550 1.411245
O 22.53545928 -0.03229742 9.97289017 -0.010729 0.422536 2.141320
O 17.05846174 1.55792485 7.19582611 0.379857 -0.262781 0.310088
O 16.27267085 1.56462581 9.96520606 0.594891 -0.640376 1.365820
Ga 12.53079426 3.10034294 4.61851869 0.996130 0.379112 -0.038896
Ga 23.62181777 3.15787087 1.15728228 -0.352541 0.754330 -0.212047
Ga 18.68820246 4.61246649 4.58130643 0.046797 -0.008978 0.269248
Ga 17.30775375 4.62633494 1.19938728 0.530313 -0.048821 -1.150099
Ga 13.95446830 3.09276677 1.84514526 -0.448606 -0.794590 -1.501077
Ga 22.05242271 3.11479239 3.99361675 -0.819092 0.750517 0.171784
Ga 20.26089513 4.60847051 1.84798755 -0.841936 1.214335 0.583628
Ga 15.82705455 4.65692585 3.92330700 -0.046224 -0.399601 -0.384865
O 14.38791610 3.03604908 0.58315028 0.550225 0.443515 1.168781
O 21.69899572 3.03465269 5.22620165 -0.919536 1.321353 -0.339090
O 20.65426534 4.59371522 0.49039241 -0.052078 0.279076 0.498365
O 15.42058904 4.61868602 5.26429432 0.757166 -0.221528 0.077900
O 13.89144384 3.10606773 3.21833469 -0.817355 1.758672 0.533905
O 22.24364537 3.12098072 2.55270791 0.206975 -1.530128 -0.720946
O 20.06436981 4.75707206 3.15328422 -0.092961 1.746813 0.697817
O 15.92766862 4.56840505 2.55426918 -0.644730 -0.540628 -0.592608
O 12.16792795 3.11773106 1.39735079 -0.485095 0.385550 1.411245
O 23.92638328 3.05482258 4.25725517 -0.010729 0.422536 2.141320
O 18.44938574 4.64504485 1.48019111 0.379857 -0.262781 0.310088
O 17.66359485 4.65174581 4.24957106 0.594891 -0.640376 1.365820
Ga 11.13987026 3.10034294 10.33415369 0.996130 0.379112 -0.038896
Ga 22.23089377 3.15787087 6.87291728 -0.352541 0.754330 -0.212047
Ga 17.29727846 4.61246649 10.29694143 0.046797 -0.008978 0.269248
Ga 15.91682975 4.62633494 6.91502228 0.530313 -0.048821 -1.150099
Ga 12.56354430 3.09276677 7.56078026 -0.448606 -0.794590 -1.501077
Ga 20.66149871 3.11479239 9.70925175 -0.819092 0.750517 0.171784
Ga 18.86997113 4.60847051 7.56362255 -0.841936 1.214335 0.583628
Ga 14.43613055 4.65692585 9.63894200 -0.046224 -0.399601 -0.384865
O 12.99699210 3.03604908 6.29878528 0.550225 0.443515 1.168781
O 20.30807172 3.03465269 10.94183665 -0.919536 1.321353 -0.339090
O 19.26334134 4.59371522 6.20602741 -0.052078 0.279076 0.498365
O 14.02966504 4.61868602 10.97992932 0.757166 -0.221528 0.077900
O 12.50051984 3.10606773 8.93396969 -0.817355 1.758672 0.533905
O 20.85272137 3.12098072 8.26834291 0.206975 -1.530128 -0.720946
O 18.67344581 4.75707206 8.86891922 -0.092961 1.746813 0.697817
O 14.53674462 4.56840505 8.26990418 -0.644730 -0.540628 -0.592608
O 10.77700395 3.11773106 7.11298579 -0.485095 0.385550 1.411245
O 22.53545928 3.05482258 9.97289017 -0.010729 0.422536 2.141320
O 17.05846174 4.64504485 7.19582611 0.379857 -0.262781 0.310088
O 16.27267085 4.65174581 9.96520606 0.594891 -0.640376 1.365820
159
Lattice="25.322855 0.000000 0.000000 0.000000 6.269593 0.000000 -2.824810 0.000000 11.607811" Properties=species:S:1:pos:R:3:force:R:3 Energy=-628.552996 Virial="-28.659109 5.884368 43.541404 17.744576 1.142291 -5.324657 24.479471 -27.110967 -29.579850" pbc="T T T"
Ga 11.20019628 0.01012661 1.22493557 1.125535 2.148651 0.236302
Ga 6.35293075 1.58558797 4.59112677 -0.280276 0.299546 -1.034474
Ga 4.88688783 1.55916396 1.16225867 -0.995660 -0.203512 0.138546
Ga 1.55725362 -0.06194473 1.80394153 -0.691037 -1.281271 -0.589224
Ga 9.67330214 -0.01024719 3.97065819 -1.097537 0.441372 -0.832272
Ga 7.89256793 1.58657600 1.85856837 -1.280488 1.091293 0.700854
Ga 3.32799264 1.51927030 3.93863631 -0.896538 1.180668 -0.090896
O 1.92421945 -0.01407685 0.51476761 -0.877945 0.714384 -0.576973
O 9.25346952 -0.01824483 5.26559537 0.962732 0.024880 0.180604
O 8.29822266 1.54510141 0.52904754 0.377943 0.353776 0.315095
O 2.93753233 1.56614077 5.22440116 0.757215 0.242671 1.238591
O 1.42522956 -0.07143466 3.22419390 -0.659678 -0.793344 0.454374
O 9.85876160 0.00735338 2.67304803 -0.279042 -1.290418 -0.382919
O 7.74701036 1.52723615 3.23476051 0.242852 0.714839 0.773043
O 3.44495354 1.56417435 2.53200444 0.375916 -0.891309 0.179508
O -0.27431428 -0.02198161 1.48112969 -0.637740 0.309611 -0.504334
O 11.53452932 0.06955405 4.30525573 0.599317 -0.183647 0.076216
O 6.09308529 1.59996441 1.50508299 -0.449879 1.766143 0.695729
O 5.24398806 1.58315023 4.24099854 0.231652 -0.372696 -0.497609
Ga -1.34218046 -0.03217263 10.36323317 0.217725 1.138814 -0.934824
Ga 9.80927228 0.01012661 6.94057057 1.125535 2.148651 0.236302
Ga 4.96200675 1.58558797 10.30676177 -0.280276 0.299546 -1.034474
Ga 3.49596383 1.55916396 6.87789367 -0.995660 -0.203512 0.138546
Ga 0.16632962 -0.06194473 7.51957653 -0.691037 -1.281271 -0.589224
Ga 8.28237814 -0.01024719 9.68629319 -1.097537 0.441372 -0.832272
Ga 6.50164393 1.58657600 7.57420337 -1.280488 1.091293 0.700854
Ga 1.93706864 1.51927030 9.65427131 -0.896538 1.180668 -0.090896
O 0.53329545 -0.01407685 6.23040261 -0.877945 0.714384 -0.576973
O 7.86254552 -0.01824483 10.98123037 0.962732 0.024880 0.180604
O 6.90729866 1.54510141 6.24468254 0.377943 0.353776 0.315095
O 1.54660833 1.56614077 10.94003616 0.757215 0.242671 1.238591
O 0.03430556 -0.07143466 8.93982890 -0.659678 -0.793344 0.454374
O 8.46783760 0.00735338 8.38868303 -0.279042 -1.290418 -0.382919
O 6.35608636 1.52723615 8.95039551 0.242852 0.714839 0.773043
O 2.05402954 1.56417435 8.24763944 0.375916 -0.891309 0.179508
O -1.66523828 -0.02198161 7.19676469 -0.637740 0.309611 -0.504334
O 10.14360532 0.06955405 10.02089073 0.599317 -0.183647 0.076216
O 4.70216129 1.59996441 7.22071799 -0.449879 1.766143 0.695729
O 3.85306406 1.58315023 9.95663354 0.231652 -0.372696 -0.497609
Ga 0.04874354 3.05494737 4.64759817 0.217725 1.138814 -0.934824
Ga 11.20019628 3.09724661 1.22493557 1.125535 2.148651 0.236302
Ga 6.35293075 4.67270797 4.59112677 -0.280276 0.299546 -1.034474
Ga 4.88688783 4.64628396 1.16225867 -0.995660 -0.203512 0.138546
Ga 1.55725362 3.02517527 1.80394153 -0.691037 -1.281271 -0.589224
Ga 9.67330214 3.07687281 3.97065819 -1.097537 0.441372 -0.832272
Ga 7.89256793 4.67369600 1.85856837 -1.280488 1.091293 0.700854
Ga 3.32799264 4.60639030 3.93863631 -0.896538 1.180668 -0.090896
O 1.92421945 3.07304315 0.51476761 -0.877945 0.714384 -0.576973
O 9.25346952 3.06887517 5.26559537 0.962732 0.024880 0.180604
O 8.29822266 4.63222141 0.52904754 0.377943 0.353776 0.315095
O 2.93753233 4.65326077 5.22440116 0.757215 0.242671 1.238591
O 1.42522956 3.01568534 3.22419390 -0.659678 -0.793344 0.454374
O 9.85876160 3.09447338 2.67304803 -0.279042 -1.290418 -0.382919
O 7.74701036 4.61435615 3.23476051 0.242852 0.714839 0.773043
O 3.44495354 4.65129435 2.53200444 0.375916 -0.891309 0.179508
O -0.27431428 3.06513839 1.48112969 -0.637740 0.309611 -0.504334
O 11.53452932 3.15667405 4.30525573 0.599317 -0.183647 0.076216
O 6.09308529 4.68708441 1.50508299 -0.449879 1.766143 0.695729
O 5.24398806 4.67027023 4.24099854 0.231652 -0.372696 -0.497609
Ga -1.34218046 3.05494737 10.36323317 0.217725 1.138814 -0.934824
Ga 9.80927228 3.09724661 6.94057057 1.125535 2.148651 0.236302
Ga 4.96200675 4.67270797 10.30676177 -0.280276 0.299546 -1.034474
Ga 3.49596383 4.64628396 6.87789367 -0.995660 -0.203512 0.138546
Ga 0.16632962 3.02517527 7.51957653 -0.691037 -1.281271 -0.589224
Ga 8.28237814 3.07687281 9.68629319 -1.097537 0.441372 -0.832272
Ga 6.50164393 4.67369600 7.57420337 -1.280488 1.091293 0.700854
Ga 1.93706864 4.60639030 9.65427131 -0.896538 1.180668 -0.090896
O 0.53329545 3.07304315 6.23040261 -0.877945 0.714384 -0.576973
O 7.86254552 3.06887517 10.98123037 0.962732 0.024880 0.180604
O 6.90729866 4.63222141 6.24468254 0.377943 0.353776 0.315095
O 1.54660833 4.65326077 10.94003616 0.757215 0.242671 1.238591
O 0.03430556 3.01568534 8.93982890 -0.659678 -0.793344 0.454374
O 8.46783760 3.09447338 8.38868303 -0.279042 -1.290418 -0.382919
O 6.35608636 4.61435615 8.95039551 0.242852 0.714839 0.773043
O 2.05402954 4.65129435 8.24763944 0.375916 -0.891309 0.179508
O -1.66523828 3.06513839 7.19676469 -0.637740 0.309611 -0.504334
O 10.14360532 3.15667405 10.02089073 0.599317 -0.183647 0.076216
O 4.70216129 4.68708441 7.22071799 -0.449879 1.766143 0.695729
O 3.85306406 4.67027023 9.95663354 0.231652 -0.372696 -0.497609
Ga 12.51760454 -0.03217263 4.64759817 0.217725 1.138814 -0.934824
Ga 23.66905728 0.01012661 1.22493557 1.125535 2.148651 0.236302
Ga 18.82179175 1.58558797 4.59112677 -0.280276 0.299546 -1.034474
Ga 17.35574883 1.55916396 1.16225867 -0.995660 -0.203512 0.138546
Ga 14.02611462 -0.06194473 1.80394153 -0.691037 -1.281271 -0.589224
Ga 22.14216314 -0.01024719 3.97065819 -1.097537 0.441372 -0.832272
Ga 20.36142893 1.58657600 1.85856837 -1.280488 1.091293 0.700854
Ga 15.79685364 1.51927030 3.93863631 -0.896538 1.180668 -0.090896
O 14.39308045 -0.01407685 0.51476761 -0.877945 0.714384 -0.576973
O 21.72233052 -0.01824483 5.26559537 0.962732 0.024880 0.180604
O 20.76708366 1.54510141 0.52904754 0.377943 0.353776 0.315095
O 15.40639333 1.56614077 5.22440116 0.757215 0.242671 1.238591
O 13.89409056 -0.07143466 3.22419390 -0.659678 -0.793344 0.454374
O 22.32762260 0.00735338 2.67304803 -0.279042 -1.290418 -0.382919
O 20.21587136 1.52723615 3.23476051 0.242852 0.714839 0.773043
O 15.91381454 1.56417435 2.53200444 0.375916 -0.891309 0.179508
O 12.19454672 -0.02198161 1.48112969 -0.637740 0.309611 -0.504334
O 24.00339032 0.06955405 4.30525573 0.599317 -0.183647 0.076216
O 18.56194629 1.59996441 1.50508299 -0.449879 1.766143 0.695729
O 17.71284906 1.58315023 4.24099854 0.231652 -0.372696 -0.497609
Ga 11.12668054 -0.03217263 10.36323317 0.217725 1.138814 -0.934824
Ga 22.27813328 0.01012661 6.94057057 1.125535 2.148651 0.236302
Ga 17.43086775 1.58558797 10.30676177 -0.280276 0.299546 -1.034474
Ga 15.96482483 1.55916396 6.87789367 -0.995660 -0.203512 0.138546
Ga 12.63519062 -0.06194473 7.51957653 -0.691037 -1.281271 -0.589224
Ga 20.75123914 -0.01024719 9.68629319 -1.097537 0.441372 -0.832272
Ga 18.97050493 1.58657600 7.57420337 -1.280488 1.091293 0.700854
Ga 14.40592964 1.51927030 9.65427131 -0.896538 1.180668 -0.090896
O 13.00215645 -0.01407685 6.23040261 -0.877945 0.714384 -0.576973
O 20.33140652 -0.01824483 10.98123037 0.962732 0.024880 0.180604
O 19.37615966 1.54510141 6.24468254 0.377943 0.353776 0.315095
O 14.01546933 1.56614077 10.94003616 0.757215 0.242671 1.238591
O 12.50316656 -0.07143466 8.93982890 -0.659678 -0.793344 0.454374
O 20.93669860 0.00735338 8.38868303 -0.279042 -1.290418 -0.382919
O 18.82494736 1.52723615 8.95039551 0.242852 0.714839 0.773043
O 14.52289054 1.56417435 8.24763944 0.375916 -0.891309 0.179508
O 10.80362272 -0.02198161 7.19676469 -0.637740 0.309611 -0.504334
O 22.61246632 0.06955405 10.02089073 0.599317 -0.183647 0.076216
O 17.17102229 1.59996441 7.22071799 -0.449879 1.766143 0.695729
O 16.32192506 1.58315023 9.95663354 0.231652 -0.372696 -0.497609
Ga 12.51760454 3.05494737 4.64759817 0.217725 1.138814 -0.934824
Ga 23.66905728 3.09724661 1.22493557 1.125535 2.148651 0.236302
Ga 18.82179175 4.67270797 4.59112677 -0.280276 0.299546 -1.034474
Ga 17.35574883 4.64628396 1.16225867 -0.995660 -0.203512 0.138546
Ga 14.02611462 3.02517527 1.80394153 -0.691037 -1.281271 -0.589224
Ga 22.14216314 3.07687281 3.97065819 -1.097537 0.441372 -0.832272
Ga 20.36142893 4.67369600 1.85856837 -1.280488 1.091293 0.700854
Ga 15.79685364 4.60639030 3.93863631 -0.896538 1.180668 -0.090896
O 14.39308045 3.07304315 0.51476761 -0.877945 0.714384 -0.576973
O 21.72233052 3.06887517 5.26559537 0.962732 0.024880 0.180604
O 20.76708366 4.63222141 0.52904754 0.377943 0.353776 0.315095
O 15.40639333 4.65326077 5.22440116 0.757215 0.242671 1.238591
O 13.89409056 3.01568534 3.22419390 -0.659678 -0.793344 0.454374
O 22.32762260 3.09447338 2.67304803 -0.279042 -1.290418 -0.382919
O 20.21587136 4.61435615 3.23476051 0.242852 0.714839 0.773043
O 15.91381454 4.65129435 2.53200444 0.375916 -0.891309 0.179508
O 12.19454672 3.06513839 1.48112969 -0.637740 0.309611 -0.504334
O 24.00339032 3.15667405 4.30525573 0.599317 -0.183647 0.076216
O 18.56194629 4.68708441 1.50508299 -0.449879 1.766143 0.695729
O 17.71284906 4.67027023 4.24099854 0.231652 -0.372696 -0.497609
Ga 11.12668054 3.05494737 10.36323317 0.217725 1.138814 -0.934824
Ga 22.27813328 3.09724661 6.94057057 1.125535 2.148651 0.236302
Ga 17.43086775 4.67270797 10.30676177 -0.280276 0.299546 -1.034474
Ga 15.96482483 4.64628396 6.87789367 -0.995660 -0.203512 0.138546
Ga 12.63519062 3.02517527 7.51957653 -0.691037 -1.281271 -0.589224
Ga 20.75123914 3.07687281 9.68629319 -1.097537 0.441372 -0.832272
Ga 18.97050493 4.67369600 7.57420337 -1.280488 1.091293 0.700854
Ga 14.40592964 4.60639030 9.65427131 -0.896538 1.180668 -0.090896
O 13.00215645 3.07304315 6.23040261 -0.877945 0.714384 -0.576973
O 20.33140652 3.06887517 10.98123037 0.962732 0.024880 0.180604
O 19.37615966 4.63222141 6.24468254 0.377943 0.353776 0.315095
O 14.01546933 4.65326077 10.94003616 0.757215 0.242671 1.238591
O 12.50316656 3.01568534 8.93982890 -0.659678 -0.793344 0.454374
O 20.93669860 3.09447338 8.38868303 -0.279042 -1.290418 -0.382919
O 18.82494736 4.61435615 8.95039551 0.242852 0.714839 0.773043
O 14.52289054 4.65129435 8.24763944 0.375916 -0.891309 0.179508
O 10.80362272 3.06513839 7.19676469 -0.637740 0.309611 -0.504334
O 22.61246632 3.15667405 10.02089073 0.599317 -0.183647 0.076216
O 17.17102229 4.68708441 7.22071799 -0.449879 1.766143 0.695729
O 16.32192506 4.67027023 9.95663354 0.231652 -0.372696 -0.497609
159
Lattice="25.276984 0.000000 0.000000 0.000000 6.258236 0.000000 -2.819693 0.000000 11.586784" Properties=species:S:1:pos:R:3:force:R:3 Energy=-628.060912 Virial="-7.353481 -13.518494 -14.378782 5.903353 23.390462 0.846069 11.724984 10.671518 -2.293456" pbc="T T T"
Ga 11.20213539 -0.13299023 1.13120541 0.884054 -0.231044 -0.418908
Ga 6.32578693 1.60599210 4.59250510 0.138758 -0.814544 0.178132
Ga 4.92805723 1.54351259 1.11139065 0.031329 0.861958 0.027516
Ga 1.54182846 0.01379780 1.83076238 0.381778 0.163079 1.676694
Ga 9.61694962 -0.01404785 4.08049495 -0.898546 -0.638630 -0.266744
Ga 7.83140637 1.59098802 1.73641734 -0.864033 0.034452 -0.101469
Ga 3.38245938 1.52886607 3.98919151 -0.776217 -0.181415 -0.086011
O 1.88852564 0.01163411 0.50823318 0.815118 -0.288593 -0.197043
O 9.25985625 0.01767944 5.23159773 -0.417556 0.365264 0.472408
O 8.27464813 1.55692544 0.54727894 0.475834 -0.672704 -0.639501
O 2.98701542 1.55055835 5.20897116 0.642268 1.460578 -1.192563
O 1.37847177 0.04780557 3.23735952 0.405843 -1.426657 -0.142581
O 9.79508464 0.01606242 2.57941237 1.060601 0.558536 -0.258534
O 7.73981043 1.52544560 3.20541695 1.183703 0.175344 -1.381532
O 3.48256119 1.55013317 2.58223652 0.587741 1.386597 -0.844130
O -0.29851927 0.01500868 1.53726965 -0.234638 -1.585829 -0.493807
O 11.56656713 -0.00567206 4.26292805 0.423243 -1.304839 -0.305340
O 5.98029666 1.55409089 1.51627408 -0.966599 -0.958161 0.428168
O 5.21867301 1.53831125 4.28096774 -1.133615 0.984586 -0.598058
Ga -1.41477873 -0.01997537 10.38717285 -0.483685 0.630636 0.768916
Ga 9.81121139 -0.13299023 6.84684041 0.884054 -0.231044 -0.418908
Ga 4.93486293 1.60599210 10.30814010 0.138758 -0.814544 0.178132
Ga 3.53713323 1.54351259 6.82702565 0.031329 0.861958 0.027516
Ga 0.15090446 0.01379780 7.54639738 0.381778 0.163079 1.676694
Ga 8.22602562 -0.01404785 9.79612995 -0.898546 -0.638630 -0.266744
Ga 6.44048237 1.59098802 7.45205234 -0.864033 0.034452 -0.101469
Ga 1.99153538 1.52886607 9.70482651 -0.776217 -0.181415 -0.086011
O 0.49760164 0.01163411 6.22386818 0.815118 -0.288593 -0.197043
O 7.86893225 0.01767944 10.94723273 -0.417556 0.365264 0.472408
O 6.88372413 1.55692544 6.26291394 0.475834 -0.672704 -0.639501
O 1.59609142 1.55055835 10.92460616 0.642268 1.460578 -1.192563
O -0.01245223 0.04780557 8.95299452 0.405843 -1.426657 -0.142581
O 8.40416064 0.01606242 8.29504737 1.060601 0.558536 -0.258534
O 6.34888643 1.52544560 8.92105195 1.183703 0.175344 -1.381532
O 2.09163719 1.55013317 8.29787152 0.587741 1.386597 -0.844130
O -1.68944327 0.01500868 7.25290465 -0.234638 -1.585829 -0.493807
O 10.17564313 -0.00567206 9.97856305 0.423243 -1.304839 -0.305340
O 4.58937266 1.55409089 7.23190908 -0.966599 -0.958161 0.428168
O 3.82774901 1.53831125 9.99660274 -1.133615 0.984586 -0.598058
Ga -0.02385473 3.06714463 4.67153785 -0.483685 0.630636 0.768916
Ga 11.20213539 2.95412977 1.13120541 0.884054 -0.231044 -0.418908
Ga 6.32578693 4.69311210 4.59250510 0.138758 -0.814544 0.178132
Ga 4.92805723 4.63063259 1.11139065 0.031329 0.861958 0.027516
Ga 1.54182846 3.10091780 1.83076238 0.381778 0.163079 1.676694
Ga 9.61694962 3.07307215 4.08049495 -0.898546 -0.638630 -0.266744
Ga 7.83140637 4.67810802 1.73641734 -0.864033 0.034452 -0.101469
Ga 3.38245938 4.61598607 3.98919151 -0.776217 -0.181415 -0.086011
O 1.88852564 3.09875411 0.50823318 0.815118 -0.288593 -0.197043
O 9.25985625 3.10479944 5.23159773 -0.417556 0.365264 0.472408
O 8.27464813 4.64404544 0.54727894 0.475834 -0.672704 -0.639501
O 2.98701542 4.63767835 5.20897116 0.642268 1.460578 -1.192563
O 1.37847177 3.13492557 3.23735952 0.405843 -1.426657 -0.142581
O 9.79508464 3.10318242 2.57941237 1.060601 0.558536 -0.258534
O 7.73981043 4.61256560 3.20541695 1.183703 0.175344 -1.381532
O 3.48256119 4.63725317 2.58223652 0.587741 1.386597 -0.844130
O -0.29851927 3.10212868 1.53726965 -0.234638 -1.585829 -0.493807
O 11.56656713 3.08144794 4.26292805 0.423243 -1.304839 -0.305340
O 5.98029666 4.64121089 1.51627408 -0.966599 -0.958161 0.428168
O 5.21867301 4.62543125 4.28096774 -1.133615 0.984586 -0.598058
Ga -1.41477873 3.06714463 10.38717285 -0.483685 0.630636 0.768916
Ga 9.81121139 2.95412977 6.84684041 0.884054 -0.231044 -0.418908
Ga 4.93486293 4.69311210 10.30814010 0.138758 -0.814544 0.178132
Ga 3.53713323 4.63063259 6.82702565 0.031329 0.861958 0.027516
Ga 0.15090446 3.10091780 7.54639738 0.381778 0.163079 1.676694
Ga 8.22602562 3.07307215 9.79612995 -0.898546 -0.638630 -0.266744
Ga 6.44048237 4.67810802 7.45205234 -0.864033 0.034452 -0.101469
Ga 1.99153538 4.61598607 9.70482651 -0.776217 -0.181415 -0.086011
O 0.49760164 3.09875411 6.22386818 0.815118 -0.288593 -0.197043
O 7.86893225 3.10479944 10.94723273 -0.417556 0.365264 0.472408
O 6.88372413 4.64404544 6.26291394 0.475834 -0.672704 -0.639501
O 1.59609142 4.63767835 10.92460616 0.642268 1.460578 -1.192563
O -0.01245223 3.13492557 8.95299452 0.405843 -1.426657 -0.142581
O 8.40416064 3.10318242 8.29504737 1.060601 0.558536 -0.258534
O 6.34888643 4.61256560 8.92105195 1.183703 0.175344 -1.381532
O 2.09163719 4.63725317 8.29787152 0.587741 1.386597 -0.844130
O -1.68944327 3.10212868 7.25290465 -0.234638 -1.585829 -0.493807
O 10.17564313 3.08144794 9.97856305 0.423243 -1.304839 -0.305340
O 4.58937266 4.64121089 7.23190908 -0.966599 -0.958161 0.428168
O 3.82774901 4.62543125 9.99660274 -1.133615 0.984586 -0.598058
Ga 12.44500627 -0.01997537 4.67153785 -0.483685 0.630636 0.768916
Ga 23.67099639 -0.13299023 1.13120541 0.884054 -0.231044 -0.418908
Ga 18.79464793 1.60599210 4.59250510 0.138758 -0.814544 0.178132
Ga 17.39691823 1.54351259 1.11139065 0.031329 0.861958 0.027516
Ga 14.01068946 0.01379780 1.83076238 0.381778 0.163079 1.676694
Ga 22.08581062 -0.01404785 4.08049495 -0.898546 -0.638630 -0.266744
Ga 20.30026737 1.59098802 1.73641734 -0.864033 0.034452 -0.101469
Ga 15.85132038 1.52886607 3.98919151 -0.776217 -0.181415 -0.086011
O 14.35738664 0.01163411 0.50823318 0.815118 -0.288593 -0.197043
O 21.72871725 0.01767944 5.23159773 -0.417556 0.365264 0.472408
O 20.74350913 1.55692544 0.54727894 0.475834 -0.672704 -0.639501
O 15.45587642 1.55055835 5.20897116 0.642268 1.460578 -1.192563
O 13.84733277 0.04780557 3.23735952 0.405843 -1.426657 -0.142581
O 22.26394564 0.01606242 2.57941237 1.060601 0.558536 -0.258534
O 20.20867143 1.52544560 3.20541695 1.183703 0.175344 -1.381532
O 15.95142219 1.55013317 2.58223652 0.587741 1.386597 -0.844130
O 12.17034173 0.01500868 1.53726965 -0.234638 -1.585829 -0.493807
O 24.03542813 -0.00567206 4.26292805 0.423243 -1.304839 -0.305340
O 18.44915766 1.55409089 1.51627408 -0.966599 -0.958161 0.428168
O 17.68753401 1.53831125 4.28096774 -1.133615 0.984586 -0.598058
Ga 11.05408227 -0.01997537 10.38717285 -0.483685 0.630636 0.768916
Ga 22.28007239 -0.13299023 6.84684041 0.884054 -0.231044 -0.418908
Ga 17.40372393 1.60599210 10.30814010 0.138758 -0.814544 0.178132
Ga 16.00599423 1.54351259 6.82702565 0.031329 0.861958 0.027516
Ga 12.61976546 0.01379780 7.54639738 0.381778 0.163079 1.676694
Ga 20.69488662 -0.01404785 9.79612995 -0.898546 -0.638630 -0.266744
Ga 18.90934337 1.59098802 7.45205234 -0.864033 0.034452 -0.101469
Ga 14.46039638 1.52886607 9.70482651 -0.776217 -0.181415 -0.086011
O 12.96646264 0.01163411 6.22386818 0.815118 -0.288593 -0.197043
O 20.33779325 0.01767944 10.94723273 -0.417556 0.365264 0.472408
O 19.35258513 1.55692544 6.26291394 0.475834 -0.672704 -0.639501
O 14.06495242 1.55055835 10.92460616 0.642268 1.460578 -1.192563
O 12.45640877 0.04780557 8.95299452 0.405843 -1.426657 -0.142581
O 20.87302164 0.01606242 8.29504737 1.060601 0.558536 -0.258534
O 18.81774743 1.52544560 8.92105195 1.183703 0.175344 -1.381532
O 14.56049819 1.55013317 8.29787152 0.587741 1.386597 -0.844130
O 10.77941773 0.01500868 7.25290465 -0.234638 -1.585829 -0.493807
O 22.64450413 -0.00567206 9.97856305 0.423243 -1.304839 -0.305340
O 17.05823366 1.55409089 7.23190908 -0.966599 -0.958161 0.428168
O 16.29661001 1.53831125 9.99660274 -1.133615 0.984586 -0.598058
Ga 12.44500627 3.06714463 4.67153785 -0.483685 0.630636 0.768916
Ga 23.67099639 2.95412977 1.13120541 0.884054 -0.231044 -0.418908
Ga 18.79464793 4.69311210 4.59250510 0.138758 -0.814544 0.178132
Ga 17.39691823 4.63063259 1.11139065 0.031329 0.861958 0.027516
Ga 14.01068946 3.10091780 1.83076238 0.381778 0.163079 1.676694
Ga 22.08581062 3.07307215 4.08049495 -0.898546 -0.638630 -0.266744
Ga 20.30026737 4.67810802 1.73641734 -0.864033 0.034452 -0.101469
Ga 15.85132038 4.61598607 3.98919151 -0.776217 -0.181415 -0.086011
O 14.35738664 3.09875411 0.50823318 0.815118 -0.288593 -0.197043
O 21.72871725 3.10479944 5.23159773 -0.417556 0.365264 0.472408
O 20.74350913 4.64404544 0.54727894 0.475834 -0.672704 -0.639501
O 15.45587642 4.63767835 5.20897116 0.642268 1.460578 -1.192563
O 13.84733277 3.13492557 3.23735952 0.405843 -1.426657 -0.142581
O 22.26394564 3.10318242 2.57941237 1.060601 0.558536 -0.258534
O 20.20867143 4.61256560 3.20541695 1.183703 0.175344 -1.381532
O 15.95142219 4.63725317 2.58223652 0.587741 1.386597 -0.844130
O 12.17034173 3.10212868 1.53726965 -0.234638 -1.585829 -0.493807
O 24.03542813 3.08144794 4.26292805 0.423243 -1.304839 -0.305340
O 18.44915766 4.64121089 1.51627408 -0.966599 -0.958161 0.428168
O 17.68753401 4.62543125 4.28096774 -1.133615 0.984586 -0.598058
Ga 11.05408227 3.06714463 10.38717285 -0.483685 0.630636 0.768916
Ga 22.28007239 2.95412977 6.84684041 0.884054 -0.231044 -0.418908
Ga 17.40372393 4.69311210 10.30814010 0.138758 -0.814544 0.178132
Ga 16.00599423 4.63063259 6.82702565 0.031329 0.861958 0.027516
Ga 12.61976546 3.10091780 7.54639738 0.381778 0.163079 1.676694
Ga 20.69488662 3.07307215 9.79612995 -0.898546 -0.638630 -0.266744
Ga 18.90934337 4.67810802 7.45205234 -0.864033 0.034452 -0.101469
Ga 14.46039638 4.61598607 9.70482651 -0.776217 -0.181415 -0.086011
O 12.96646264 3.09875411 6.22386818 0.815118 -0.288593 -0.197043
O 20.33779325 3.10479944 10.94723273 -0.417556 0.365264 0.472408
O 19.35258513 4.64404544 6.26291394 0.475834 -0.672704 -0.639501
O 14.06495242 4.63767835 10.92460616 0.642268 1.460578 -1.192563
O 12.45640877 3.13492557 8.95299452 0.405843 -1.426657 -0.142581
O 20.87302164 3.10318242 8.29504737 1.060601 0.558536 -0.258534
O 18.81774743 4.61256560 8.92105195 1.183703 0.175344 -1.381532
O 14.56049819 4.63725317 8.29787152 0.587741 1.386597 -0.844130
O 10.77941773 3.10212868 7.25290465 -0.234638 -1.585829 -0.493807
O 22.64450413 3.08144794 9.97856305 0.423243 -1.304839 -0.305340
O 17.05823366 4.64121089 7.23190908 -0.966599 -0.958161 0.428168
O 16.29661001 4.62543125 9.99660274 -1.133615 0.984586 -0.598058
159
Lattice="25.345140 0.000000 0.000000 0.000000 6.275111 0.000000 -2.827296 0.000000 11.618026" Properties=species:S:1:pos:R:3:force:R:3 Energy=-628.384037 Virial="4.135406 -4.182227 -13.597415 -10.649340 -1.138052 6.692073 27.440187 7.253390 2.572016" pbc="T T T"
Ga 11.25364586 -0.10990019 1.17318173 0.066040 1.369703 0.315338
Ga 6.33881744 1.62431124 4.60044170 -0.287626 -0.138398 -0.141179
Ga 4.91437369 1.57442802 1.10794828 -0.059108 -0.072462 -0.725954
Ga 1.59642956 0.00861586 1.84552328 1.888989 -0.555748 1.616734
Ga 9.85026972 -0.08336452 4.05280884 0.125626 0.119897 -1.267250
Ga 7.89048866 1.58027089 1.82337205 -0.357987 0.827185 1.011744
Ga 3.33996548 1.54598441 3.99700133 0.886053 -0.926898 1.066127
O 1.88473119 0.03002317 0.52939981 -0.534419 1.904149 0.544832
O 9.26830058 -0.01800051 5.31325190 -1.113131 -1.150667 0.515993
O 8.26029001 1.58311587 0.51680933 0.622636 1.200539 -0.572979
O 3.00753495 1.59619804 5.33691028 -0.957649 0.913116 -0.284158
O 1.39651599 0.02674619 3.24535191 -0.692986 -0.588387 0.358232
O 9.90721781 -0.02875330 2.59738452 -0.411372 0.821274 -0.985201
O 7.73203594 1.56621020 3.24509930 -0.014578 -0.339639 -0.738423
O 3.52918728 1.56412857 2.57617284 -0.030275 0.358840 -1.233261
O -0.24807880 0.03941799 1.52187409 -0.513799 -0.161803 -0.413146
O 11.55190343 -0.03556963 4.36011763 -0.263528 0.093104 0.196592
O 6.06012261 1.62768456 1.46294868 -0.772579 0.694531 -0.780739
O 5.22465880 1.50319836 4.30620676 -1.589623 -0.244073 0.813663
Ga -1.45687016 -0.08482801 10.30720297 -0.601327 -0.731933 -0.171533
Ga 9.86272186 -0.10990019 6.88881673 0.066040 1.369703 0.315338
Ga 4.94789344 1.62431124 10.31607670 -0.287626 -0.138398 -0.141179
Ga 3.52344969 1.57442802 6.82358328 -0.059108 -0.072462 -0.725954
Ga 0.20550556 0.00861586 7.56115828 1.888989 -0.555748 1.616734
Ga 8.45934572 -0.08336452 9.76844384 0.125626 0.119897 -1.267250
Ga 6.49956466 1.58027089 7.53900705 -0.357987 0.827185 1.011744
Ga 1.94904148 1.54598441 9.71263633 0.886053 -0.926898 1.066127
O 0.49380719 0.03002317 6.24503481 -0.534419 1.904149 0.544832
O 7.87737658 -0.01800051 11.02888690 -1.113131 -1.150667 0.515993
O 6.86936601 1.58311587 6.23244433 0.622636 1.200539 -0.572979
O 1.61661095 1.59619804 11.05254528 -0.957649 0.913116 -0.284158
O 0.00559199 0.02674619 8.96098691 -0.692986 -0.588387 0.358232
O 8.51629381 -0.02875330 8.31301952 -0.411372 0.821274 -0.985201
O 6.34111194 1.56621020 8.96073430 -0.014578 -0.339639 -0.738423
O 2.13826328 1.56412857 8.29180784 -0.030275 0.358840 -1.233261
O -1.63900280 0.03941799 7.23750909 -0.513799 -0.161803 -0.413146
O 10.16097943 -0.03556963 10.07575263 -0.263528 0.093104 0.196592
O 4.66919861 1.62768456 7.17858368 -0.772579 0.694531 -0.780739
O 3.83373480 1.50319836 10.02184176 -1.589623 -0.244073 0.813663
Ga -0.06594616 3.00229199 4.59156797 -0.601327 -0.731933 -0.171533
Ga 11.25364586 2.97721981 1.17318173 0.066040 1.369703 0.315338
Ga 6.33881744 4.71143124 4.60044170 -0.287626 -0.138398 -0.141179
Ga 4.91437369 4.66154802 1.10794828 -0.059108 -0.072462 -0.725954
Ga 1.59642956 3.09573586 1.84552328 1.888989 -0.555748 1.616734
Ga 9.85026972 3.00375548 4.05280884 0.125626 0.119897 -1.267250
Ga 7.89048866 4.66739089 1.82337205 -0.357987 0.827185 1.011744
Ga 3.33996548 4.63310441 3.99700133 0.886053 -0.926898 1.066127
O 1.88473119 3.11714317 0.52939981 -0.534419 1.904149 0.544832
O 9.26830058 3.06911949 5.31325190 -1.113131 -1.150667 0.515993
O 8.26029001 4.67023587 0.51680933 0.622636 1.200539 -0.572979
O 3.00753495 4.68331804 5.33691028 -0.957649 0.913116 -0.284158
O 1.39651599 3.11386619 3.24535191 -0.692986 -0.588387 0.358232
O 9.90721781 3.05836670 2.59738452 -0.411372 0.821274 -0.985201
O 7.73203594 4.65333020 3.24509930 -0.014578 -0.339639 -0.738423
O 3.52918728 4.65124857 2.57617284 -0.030275 0.358840 -1.233261
O -0.24807880 3.12653799 1.52187409 -0.513799 -0.161803 -0.413146
O 11.55190343 3.05155037 4.36011763 -0.263528 0.093104 0.196592
O 6.06012261 4.71480456 1.46294868 -0.772579 0.694531 -0.780739
O 5.22465880 4.59031836 4.30620676 -1.589623 -0.244073 0.813663
Ga -1.45687016 3.00229199 10.30720297 -0.601327 -0.731933 -0.171533
Ga 9.86272186 2.97721981 6.88881673 0.066040 1.369703 0.315338
Ga 4.94789344 4.71143124 10.31607670 -0.287626 -0.138398 -0.141179
Ga 3.52344969 4.66154802 6.82358328 -0.059108 -0.072462 -0.725954
Ga 0.20550556 3.09573586 7.56115828 1.888989 -0.555748 1.616734
Ga 8.45934572 3.00375548 9.76844384 0.125626 0.119897 -1.267250
Ga 6.49956466 4.66739089 7.53900705 -0.357987 0.827185 1.011744
Ga 1.94904148 4.63310441 9.71263633 0.886053 -0.926898 1.066127
O 0.49380719 3.11714317 6.24503481 -0.534419 1.904149 0.544832
O 7.87737658 3.06911949 11.02888690 -1.113131 -1.150667 0.515993
O 6.86936601 4.67023587 6.23244433 0.622636 1.200539 -0.572979
O 1.61661095 4.68331804 11.05254528 -0.957649 0.913116 -0.284158
O 0.00559199 3.11386619 8.96098691 -0.692986 -0.588387 0.358232
O 8.51629381 3.05836670 8.31301952 -0.411372 0.821274 -0.985201
O 6.34111194 4.65333020 8.96073430 -0.014578 -0.339639 -0.738423
O 2.13826328 4.65124857 8.29180784 -0.030275 0.358840 -1.233261
O -1.63900280 3.12653799 7.23750909 -0.513799 -0.161803 -0.413146
O 10.16097943 3.05155037 10.07575263 -0.263528 0.093104 0.196592
O 4.66919861 4.71480456 7.17858368 -0.772579 0.694531 -0.780739
O 3.83373480 4.59031836 10.02184176 -1.589623 -0.244073 0.813663
Ga 12.40291484 -0.08482801 4.59156797 -0.601327 -0.731933 -0.171533
Ga 23.72250686 -0.10990019 1.17318173 0.066040 1.369703 0.315338
Ga 18.80767844 1.62431124 4.60044170 -0.287626 -0.138398 -0.141179
Ga 17.38323469 1.57442802 1.10794828 -0.059108 -0.072462 -0.725954
Ga 14.06529056 0.00861586 1.84552328 1.888989 -0.555748 1.616734
Ga 22.31913072 -0.08336452 4.05280884 0.125626 0.119897 -1.267250
Ga 20.35934966 1.58027089 1.82337205 -0.357987 0.827185 1.011744
Ga 15.80882648 1.54598441 3.99700133 0.886053 -0.926898 1.066127
O 14.35359219 0.03002317 0.52939981 -0.534419 1.904149 0.544832
O 21.73716158 -0.01800051 5.31325190 -1.113131 -1.150667 0.515993
O 20.72915101 1.58311587 0.51680933 0.622636 1.200539 -0.572979
O 15.47639595 1.59619804 5.33691028 -0.957649 0.913116 -0.284158
O 13.86537699 0.02674619 3.24535191 -0.692986 -0.588387 0.358232
O 22.37607881 -0.02875330 2.59738452 -0.411372 0.821274 -0.985201
O 20.20089694 1.56621020 3.24509930 -0.014578 -0.339639 -0.738423
O 15.99804828 1.56412857 2.57617284 -0.030275 0.358840 -1.233261
O 12.22078220 0.03941799 1.52187409 -0.513799 -0.161803 -0.413146
O 24.02076443 -0.03556963 4.36011763 -0.263528 0.093104 0.196592
O 18.52898361 1.62768456 1.46294868 -0.772579 0.694531 -0.780739
O 17.69351980 1.50319836 4.30620676 -1.589623 -0.244073 0.813663
Ga 11.01199084 -0.08482801 10.30720297 -0.601327 -0.731933 -0.171533
Ga 22.33158286 -0.10990019 6.88881673 0.066040 1.369703 0.315338
Ga 17.41675444 1.62431124 10.31607670 -0.287626 -0.138398 -0.141179
Ga 15.99231069 1.57442802 6.82358328 -0.059108 -0.072462 -0.725954
Ga 12.67436656 0.00861586 7.56115828 1.888989 -0.555748 1.616734
Ga 20.92820672 -0.08336452 9.76844384 0.125626 0.119897 -1.267250
Ga 18.96842566 1.58027089 7.53900705 -0.357987 0.827185 1.011744
Ga 14.41790248 1.54598441 9.71263633 0.886053 -0.926898 1.066127
O 12.96266819 0.03002317 6.24503481 -0.534419 1.904149 0.544832
O 20.34623758 -0.01800051 11.02888690 -1.113131 -1.150667 0.515993
O 19.33822701 1.58311587 6.23244433 0.622636 1.200539 -0.572979
O 14.08547195 1.59619804 11.05254528 -0.957649 0.913116 -0.284158
O 12.47445299 0.02674619 8.96098691 -0.692986 -0.588387 0.358232
O 20.98515481 -0.02875330 8.31301952 -0.411372 0.821274 -0.985201
O 18.80997294 1.56621020 8.96073430 -0.014578 -0.339639 -0.738423
O 14.60712428 1.56412857 8.29180784 -0.030275 0.358840 -1.233261
O 10.82985820 0.03941799 7.23750909 -0.513799 -0.161803 -0.413146
O 22.62984043 -0.03556963 10.07575263 -0.263528 0.093104 0.196592
O 17.13805961 1.62768456 7.17858368 -0.772579 0.694531 -0.780739
O 16.30259580 1.50319836 10.02184176 -1.589623 -0.244073 0.813663
Ga 12.40291484 3.00229199 4.59156797 -0.601327 -0.731933 -0.171533
Ga 23.72250686 2.97721981 1.17318173 0.066040 1.369703 0.315338
Ga 18.80767844 4.71143124 4.60044170 -0.287626 -0.138398 -0.141179
Ga 17.38323469 4.66154802 1.10794828 -0.059108 -0.072462 -0.725954
Ga 14.06529056 3.09573586 1.84552328 1.888989 -0.555748 1.616734
Ga 22.31913072 3.00375548 4.05280884 0.125626 0.119897 -1.267250
Ga 20.35934966 4.66739089 1.82337205 -0.357987 0.827185 1.011744
Ga 15.80882648 4.63310441 3.99700133 0.886053 -0.926898 1.066127
O 14.35359219 3.11714317 0.52939981 -0.534419 1.904149 0.544832
O 21.73716158 3.06911949 5.31325190 -1.113131 -1.150667 0.515993
O 20.72915101 4.67023587 0.51680933 0.622636 1.200539 -0.572979
O 15.47639595 4.68331804 5.33691028 -0.957649 0.913116 -0.284158
O 13.86537699 3.11386619 3.24535191 -0.692986 -0.588387 0.358232
O 22.37607881 3.05836670 2.59738452 -0.411372 0.821274 -0.985201
O 20.20089694 4.65333020 3.24509930 -0.014578 -0.339639 -0.738423
O 15.99804828 4.65124857 2.57617284 -0.030275 0.358840 -1.233261
O 12.22078220 3.12653799 1.52187409 -0.513799 -0.161803 -0.413146
O 24.02076443 3.05155037 4.36011763 -0.263528 0.093104 0.196592
O 18.52898361 4.71480456 1.46294868 -0.772579 0.694531 -0.780739
O 17.69351980 4.59031836 4.30620676 -1.589623 -0.244073 0.813663
Ga 11.01199084 3.00229199 10.30720297 -0.601327 -0.731933 -0.171533
Ga 22.33158286 2.97721981 6.88881673 0.066040 1.369703 0.315338
Ga 17.41675444 4.71143124 10.31607670 -0.287626 -0.138398 -0.141179
Ga 15.99231069 4.66154802 6.82358328 -0.059108 -0.072462 -0.725954
Ga 12.67436656 3.09573586 7.56115828 1.888989 -0.555748 1.616734
Ga 20.92820672 3.00375548 9.76844384 0.125626 0.119897 -1.267250
Ga 18.96842566 4.66739089 7.53900705 -0.357987 0.827185 1.011744
Ga 14.41790248 4.63310441 9.71263633 0.886053 -0.926898 1.066127
O 12.96266819 3.11714317 6.24503481 -0.534419 1.904149 0.544832
O 20.34623758 3.06911949 11.02888690 -1.113131 -1.150667 0.515993
O 19.33822701 4.67023587 6.23244433 0.622636 1.200539 -0.572979
O 14.08547195 4.68331804 11.05254528 -0.957649 0.913116 -0.284158
O 12.47445299 3.11386619 8.96098691 -0.692986 -0.588387 0.358232
O 20.98515481 3.05836670 8.31301952 -0.411372 0.821274 -0.985201
O 18.80997294 4.65333020 8.96073430 -0.014578 -0.339639 -0.738423
O 14.60712428 4.65124857 8.29180784 -0.030275 0.358840 -1.233261
O 10.82985820 3.12653799 7.23750909 -0.513799 -0.161803 -0.413146
O 22.62984043 3.05155037 10.07575263 -0.263528 0.093104 0.196592
O 17.13805961 4.71480456 7.17858368 -0.772579 0.694531 -0.780739
O 16.30259580 4.59031836 10.02184176 -1.589623 -0.244073 0.813663
159
Lattice="24.781500 0.000000 0.000000 0.000000 6.135561 0.000000 -2.764421 0.000000 11.359657" Properties=species:S:1:pos:R:3:force:R:3 Energy=-629.394515 Virial="2.593342 -24.042852 -3.072030 -4.179344 -6.287631 10.270387 -12.181990 2.202102 10.459624" pbc="T T T"
Ga 10.99741595 -0.00220793 1.18603164 0.911614 -0.364605 0.704424
Ga 6.15247151 1.53428554 4.59621823 -0.941437 -0.840817 -0.396782
Ga 4.77521516 1.56688028 1.19927677 -0.363740 -0.223258 0.694334
Ga 1.56549023 0.00666647 1.80724626 -1.366480 -1.453358 -0.262259
Ga 9.50561717 0.02541784 3.85052967 -0.692555 -0.540539 -0.547741
Ga 7.65796211 1.47174698 1.77379642 -0.139110 -1.553905 0.983414
Ga 3.30603849 1.48971387 3.93218522 -0.231422 0.782582 -1.135277
O 1.88206376 -0.01971021 0.50045998 0.395280 -0.094265 0.279777
O 9.03099268 0.00917257 5.21443168 -0.491308 -0.294828 0.122242
O 8.09502340 1.45986505 0.56511797 0.146071 1.181499 0.092829
O 2.84601701 1.48552894 5.13639144 -1.450333 -0.016166 -0.115653
O 1.37723956 -0.04034656 3.15825174 -0.791827 -0.334841 -0.277024
O 9.66481958 0.03408716 2.56054310 -1.232581 0.315401 1.200894
O 7.64407778 1.56628589 3.16067492 -1.225160 0.641779 -0.378917
O 3.47521043 1.55255897 2.53073952 -0.697675 -0.081081 1.743849
O -0.29719404 -0.03648216 1.41291286 0.249042 -0.508287 -0.363360
O 11.30893698 0.00595640 4.19861487 1.916092 0.198346 -1.104840
O 5.90802510 1.61712096 1.38426349 0.883127 1.731006 0.301659
O 5.14073727 1.53125133 4.24381873 0.002887 -0.071512 -0.497795
Ga -1.38660272 -0.04618779 10.18501169 0.565426 0.164194 0.389276
Ga 9.60649195 -0.00220793 6.90166664 0.911614 -0.364605 0.704424
Ga 4.76154751 1.53428554 10.31185323 -0.941437 -0.840817 -0.396782
Ga 3.38429116 1.56688028 6.91491177 -0.363740 -0.223258 0.694334
Ga 0.17456623 0.00666647 7.52288126 -1.366480 -1.453358 -0.262259
Ga 8.11469317 0.02541784 9.56616467 -0.692555 -0.540539 -0.547741
Ga 6.26703811 1.47174698 7.48943142 -0.139110 -1.553905 0.983414
Ga 1.91511449 1.48971387 9.64782022 -0.231422 0.782582 -1.135277
O 0.49113976 -0.01971021 6.21609498 0.395280 -0.094265 0.279777
O 7.64006868 0.00917257 10.93006668 -0.491308 -0.294828 0.122242
O 6.70409940 1.45986505 6.28075297 0.146071 1.181499 0.092829
O 1.45509301 1.48552894 10.85202644 -1.450333 -0.016166 -0.115653
O -0.01368444 -0.04034656 8.87388674 -0.791827 -0.334841 -0.277024
O 8.27389558 0.03408716 8.27617810 -1.232581 0.315401 1.200894
O 6.25315378 1.56628589 8.87630992 -1.225160 0.641779 -0.378917
O 2.08428643 1.55255897 8.24637452 -0.697675 -0.081081 1.743849
O -1.68811804 -0.03648216 7.12854786 0.249042 -0.508287 -0.363360
O 9.91801298 0.00595640 9.91424987 1.916092 0.198346 -1.104840
O 4.51710110 1.61712096 7.09989849 0.883127 1.731006 0.301659
O 3.74981327 1.53125133 9.95945373 0.002887 -0.071512 -0.497795
Ga 0.00432128 3.04093221 4.46937669 0.565426 0.164194 0.389276
Ga 10.99741595 3.08491207 1.18603164 0.911614 -0.364605 0.704424
Ga 6.15247151 4.62140554 4.59621823 -0.941437 -0.840817 -0.396782
Ga 4.77521516 4.65400028 1.19927677 -0.363740 -0.223258 0.694334
Ga 1.56549023 3.09378647 1.80724626 -1.366480 -1.453358 -0.262259
Ga 9.50561717 3.11253784 3.85052967 -0.692555 -0.540539 -0.547741
Ga 7.65796211 4.55886698 1.77379642 -0.139110 -1.553905 0.983414
Ga 3.30603849 4.57683387 3.93218522 -0.231422 0.782582 -1.135277
O 1.88206376 3.06740979 0.50045998 0.395280 -0.094265 0.279777
O 9.03099268 3.09629257 5.21443168 -0.491308 -0.294828 0.122242
O 8.09502340 4.54698505 0.56511797 0.146071 1.181499 0.092829
O 2.84601701 4.57264894 5.13639144 -1.450333 -0.016166 -0.115653
O 1.37723956 3.04677344 3.15825174 -0.791827 -0.334841 -0.277024
O 9.66481958 3.12120716 2.56054310 -1.232581 0.315401 1.200894
O 7.64407778 4.65340589 3.16067492 -1.225160 0.641779 -0.378917
O 3.47521043 4.63967897 2.53073952 -0.697675 -0.081081 1.743849
O -0.29719404 3.05063784 1.41291286 0.249042 -0.508287 -0.363360
O 11.30893698 3.09307640 4.19861487 1.916092 0.198346 -1.104840
O 5.90802510 4.70424096 1.38426349 0.883127 1.731006 0.301659
O 5.14073727 4.61837133 4.24381873 0.002887 -0.071512 -0.497795
Ga -1.38660272 3.04093221 10.18501169 0.565426 0.164194 0.389276
Ga 9.60649195 3.08491207 6.90166664 0.911614 -0.364605 0.704424
Ga 4.76154751 4.62140554 10.31185323 -0.941437 -0.840817 -0.396782
Ga 3.38429116 4.65400028 6.91491177 -0.363740 -0.223258 0.694334
Ga 0.17456623 3.09378647 7.52288126 -1.366480 -1.453358 -0.262259
Ga 8.11469317 3.11253784 9.56616467 -0.692555 -0.540539 -0.547741
Ga 6.26703811 4.55886698 7.48943142 -0.139110 -1.553905 0.983414
Ga 1.91511449 4.57683387 9.64782022 -0.231422 0.782582 -1.135277
O 0.49113976 3.06740979 6.21609498 0.395280 -0.094265 0.279777
O 7.64006868 3.09629257 10.93006668 -0.491308 -0.294828 0.122242
O 6.70409940 4.54698505 6.28075297 0.146071 1.181499 0.092829
O 1.45509301 4.57264894 10.85202644 -1.450333 -0.016166 -0.115653
O -0.01368444 3.04677344 8.87388674 -0.791827 -0.334841 -0.277024
O 8.27389558 3.12120716 8.27617810 -1.232581 0.315401 1.200894
O 6.25315378 4.65340589 8.87630992 -1.225160 0.641779 -0.378917
O 2.08428643 4.63967897 8.24637452 -0.697675 -0.081081 1.743849
O -1.68811804 3.05063784 7.12854786 0.249042 -0.508287 -0.363360
O 9.91801298 3.09307640 9.91424987 1.916092 0.198346 -1.104840
O 4.51710110 4.70424096 7.09989849 0.883127 1.731006 0.301659
O 3.74981327 4.61837133 9.95945373 0.002887 -0.071512 -0.497795
Ga 12.47318228 -0.04618779 4.46937669 0.565426 0.164194 0.389276
Ga 23.46627695 -0.00220793 1.18603164 0.911614 -0.364605 0.704424
Ga 18.62133251 1.53428554 4.59621823 -0.941437 -0.840817 -0.396782
Ga 17.24407616 1.56688028 1.19927677 -0.363740 -0.223258 0.694334
Ga 14.03435123 0.00666647 1.80724626 -1.366480 -1.453358 -0.262259
Ga 21.97447817 0.02541784 3.85052967 -0.692555 -0.540539 -0.547741
Ga 20.12682311 1.47174698 1.77379642 -0.139110 -1.553905 0.983414
Ga 15.77489949 1.48971387 3.93218522 -0.231422 0.782582 -1.135277
O 14.35092476 -0.01971021 0.50045998 0.395280 -0.094265 0.279777
O 21.49985368 0.00917257 5.21443168 -0.491308 -0.294828 0.122242
O 20.56388440 1.45986505 0.56511797 0.146071 1.181499 0.092829
O 15.31487801 1.48552894 5.13639144 -1.450333 -0.016166 -0.115653
O 13.84610056 -0.04034656 3.15825174 -0.791827 -0.334841 -0.277024
O 22.13368058 0.03408716 2.56054310 -1.232581 0.315401 1.200894
O 20.11293878 1.56628589 3.16067492 -1.225160 0.641779 -0.378917
O 15.94407143 1.55255897 2.53073952 -0.697675 -0.081081 1.743849
O 12.17166696 -0.03648216 1.41291286 0.249042 -0.508287 -0.363360
O 23.77779798 0.00595640 4.19861487 1.916092 0.198346 -1.104840
O 18.37688610 1.61712096 1.38426349 0.883127 1.731006 0.301659
O 17.60959827 1.53125133 4.24381873 0.002887 -0.071512 -0.497795
Ga 11.08225828 -0.04618779 10.18501169 0.565426 0.164194 0.389276
Ga 22.07535295 -0.00220793 6.90166664 0.911614 -0.364605 0.704424
Ga 17.23040851 1.53428554 10.31185323 -0.941437 -0.840817 -0.396782
Ga 15.85315216 1.56688028 6.91491177 -0.363740 -0.223258 0.694334
Ga 12.64342723 0.00666647 7.52288126 -1.366480 -1.453358 -0.262259
Ga 20.58355417 0.02541784 9.56616467 -0.692555 -0.540539 -0.547741
Ga 18.73589911 1.47174698 7.48943142 -0.139110 -1.553905 0.983414
Ga 14.38397549 1.48971387 9.64782022 -0.231422 0.782582 -1.135277
O 12.96000076 -0.01971021 6.21609498 0.395280 -0.094265 0.279777
O 20.10892968 0.00917257 10.93006668 -0.491308 -0.294828 0.122242
O 19.17296040 1.45986505 6.28075297 0.146071 1.181499 0.092829
O 13.92395401 1.48552894 10.85202644 -1.450333 -0.016166 -0.115653
O 12.45517656 -0.04034656 8.87388674 -0.791827 -0.334841 -0.277024
O 20.74275658 0.03408716 8.27617810 -1.232581 0.315401 1.200894
O 18.72201478 1.56628589 8.87630992 -1.225160 0.641779 -0.378917
O 14.55314743 1.55255897 8.24637452 -0.697675 -0.081081 1.743849
O 10.78074296 -0.03648216 7.12854786 0.249042 -0.508287 -0.363360
O 22.38687398 0.00595640 9.91424987 1.916092 0.198346 -1.104840
O 16.98596210 1.61712096 7.09989849 0.883127 1.731006 0.301659
O 16.21867427 1.53125133 9.95945373 0.002887 -0.071512 -0.497795
Ga 12.47318228 3.04093221 4.46937669 0.565426 0.164194 0.389276
Ga 23.46627695 3.08491207 1.18603164 0.911614 -0.364605 0.704424
Ga 18.62133251 4.62140554 4.59621823 -0.941437 -0.840817 -0.396782
Ga 17.24407616 4.65400028 1.19927677 -0.363740 -0.223258 0.694334
Ga 14.03435123 3.09378647 1.80724626 -1.366480 -1.453358 -0.262259
Ga 21.97447817 3.11253784 3.85052967 -0.692555 -0.540539 -0.547741
Ga 20.12682311 4.55886698 1.77379642 -0.139110 -1.553905 0.983414
Ga 15.77489949 4.57683387 3.93218522 -0.231422 0.782582 -1.135277
O 14.35092476 3.06740979 0.50045998 0.395280 -0.094265 0.279777
O 21.49985368 3.09629257 5.21443168 -0.491308 -0.294828 0.122242
O 20.56388440 4.54698505 0.56511797 0.146071 1.181499 0.092829
O 15.31487801 4.57264894 5.13639144 -1.450333 -0.016166 -0.115653
O 13.84610056 3.04677344 3.15825174 -0.791827 -0.334841 -0.277024
O 22.13368058 3.12120716 2.56054310 -1.232581 0.315401 1.200894
O 20.11293878 4.65340589 3.16067492 -1.225160 0.641779 -0.378917
O 15.94407143 4.63967897 2.53073952 -0.697675 -0.081081 1.743849
O 12.17166696 3.05063784 1.41291286 0.249042 -0.508287 -0.363360
O 23.77779798 3.09307640 4.19861487 1.916092 0.198346 -1.104840
O 18.37688610 4.70424096 1.38426349 0.883127 1.731006 0.301659
O 17.60959827 4.61837133 4.24381873 0.002887 -0.071512 -0.497795
Ga 11.08225828 3.04093221 10.18501169 0.565426 0.164194 0.389276
Ga 22.07535295 3.08491207 6.90166664 0.911614 -0.364605 0.704424
Ga 17.23040851 4.62140554 10.31185323 -0.941437 -0.840817 -0.396782
Ga 15.85315216 4.65400028 6.91491177 -0.363740 -0.223258 0.694334
Ga 12.64342723 3.09378647 7.52288126 -1.366480 -1.453358 -0.262259
Ga 20.58355417 3.11253784 9.56616467 -0.692555 -0.540539 -0.547741
Ga 18.73589911 4.55886698 7.48943142 -0.139110 -1.553905 0.983414
Ga 14.38397549 4.57683387 9.64782022 -0.231422 0.782582 -1.135277
O 12.96000076 3.06740979 6.21609498 0.395280 -0.094265 0.279777
O 20.10892968 3.09629257 10.93006668 -0.491308 -0.294828 0.122242
O 19.17296040 4.54698505 6.28075297 0.146071 1.181499 0.092829
O 13.92395401 4.57264894 10.85202644 -1.450333 -0.016166 -0.115653
O 12.45517656 3.04677344 8.87388674 -0.791827 -0.334841 -0.277024
O 20.74275658 3.12120716 8.27617810 -1.232581 0.315401 1.200894
O 18.72201478 4.65340589 8.87630992 -1.225160 0.641779 -0.378917
O 14.55314743 4.63967897 8.24637452 -0.697675 -0.081081 1.743849
O 10.78074296 3.05063784 7.12854786 0.249042 -0.508287 -0.363360
O 22.38687398 3.09307640 9.91424987 1.916092 0.198346 -1.104840
O 16.98596210 4.70424096 7.09989849 0.883127 1.731006 0.301659
O 16.21867427 4.61837133 9.95945373 0.002887 -0.071512 -0.497795
159
Lattice="24.785622 0.000000 0.000000 0.000000 6.136582 0.000000 -2.764881 0.000000 11.361547" Properties=species:S:1:pos:R:3:force:R:3 Energy=-629.863671 Virial="-17.321733 5.398539 -19.984284 -11.550793 8.292954 -2.679487 -10.795743 -23.240472 -18.204976" pbc="T T T"
Ga 10.93388818 0.01944145 1.10493838 -0.902334 0.598606 0.213407
Ga 6.26277478 1.51530046 4.51019794 1.752899 1.303960 0.549994
Ga 4.84393464 1.48265890 1.11094581 -0.245577 0.046726 -0.018734
Ga 1.50779293 0.04153515 1.72412580 -0.513365 -0.521707 -0.194145
Ga 9.36594678 -0.01804635 3.91794391 0.294598 -1.469707 -0.483045
Ga 7.77555303 1.51561899 1.76844258 0.537359 0.827407 -0.103459
Ga 3.32898338 1.45935578 3.88033345 0.009581 1.213264 -0.328658
O 1.91008810 0.01796875 0.51360079 0.779695 1.543003 0.335630
O 9.10927640 -0.09953309 5.12045093 0.693217 0.810308 -0.235436
O 8.11701716 1.49485368 0.53635243 0.917194 1.238034 0.562947
O 2.92936801 1.52044348 5.15359942 0.947704 0.498122 1.576053
O 1.33404478 -0.00826445 3.19428017 -0.379313 0.115190 -0.450170
O 9.64409475 -0.02346125 2.51987106 -0.237839 -0.959949 -1.510416
O 7.59754413 1.45214779 3.21623448 -0.995263 1.125329 0.083581
O 3.42795999 1.55116504 2.55879228 0.538270 0.453038 0.096620
O -0.35920035 -0.02837764 1.44273661 -0.346268 -0.963273 0.368034
O 11.28335318 0.06939746 4.19222448 -0.205675 -0.569050 -1.658546
O 5.86984939 1.54232101 1.40619258 0.127844 1.229150 0.200764
O 5.10247142 1.54684357 4.21318095 0.704344 -0.885594 1.060794
Ga -1.38440575 0.07550751 10.25184051 0.217351 0.412451 -0.265605
Ga 9.54296418 0.01944145 6.82057338 -0.902334 0.598606 0.213407
Ga 4.87185078 1.51530046 10.22583294 1.752899 1.303960 0.549994
Ga 3.45301064 1.48265890 6.82658081 -0.245577 0.046726 -0.018734
Ga 0.11686893 0.04153515 7.43976080 -0.513365 -0.521707 -0.194145
Ga 7.97502278 -0.01804635 9.63357891 0.294598 -1.469707 -0.483045
Ga 6.38462903 1.51561899 7.48407758 0.537359 0.827407 -0.103459
Ga 1.93805938 1.45935578 9.59596845 0.009581 1.213264 -0.328658
O 0.51916410 0.01796875 6.22923579 0.779695 1.543003 0.335630
O 7.71835240 -0.09953309 10.83608593 0.693217 0.810308 -0.235436
O 6.72609316 1.49485368 6.25198743 0.917194 1.238034 0.562947
O 1.53844401 1.52044348 10.86923442 0.947704 0.498122 1.576053
O -0.05687922 -0.00826445 8.90991517 -0.379313 0.115190 -0.450170
O 8.25317075 -0.02346125 8.23550606 -0.237839 -0.959949 -1.510416
O 6.20662013 1.45214779 8.93186948 -0.995263 1.125329 0.083581
O 2.03703599 1.55116504 8.27442728 0.538270 0.453038 0.096620
O -1.75012435 -0.02837764 7.15837161 -0.346268 -0.963273 0.368034
O 9.89242918 0.06939746 9.90785948 -0.205675 -0.569050 -1.658546
O 4.47892539 1.54232101 7.12182758 0.127844 1.229150 0.200764
O 3.71154742 1.54684357 9.92881595 0.704344 -0.885594 1.060794
Ga 0.00651825 3.16262751 4.53620551 0.217351 0.412451 -0.265605
Ga 10.93388818 3.10656145 1.10493838 -0.902334 0.598606 0.213407
Ga 6.26277478 4.60242046 4.51019794 1.752899 1.303960 0.549994
Ga 4.84393464 4.56977890 1.11094581 -0.245577 0.046726 -0.018734
Ga 1.50779293 3.12865515 1.72412580 -0.513365 -0.521707 -0.194145
Ga 9.36594678 3.06907365 3.91794391 0.294598 -1.469707 -0.483045
Ga 7.77555303 4.60273899 1.76844258 0.537359 0.827407 -0.103459
Ga 3.32898338 4.54647578 3.88033345 0.009581 1.213264 -0.328658
O 1.91008810 3.10508875 0.51360079 0.779695 1.543003 0.335630
O 9.10927640 2.98758691 5.12045093 0.693217 0.810308 -0.235436
O 8.11701716 4.58197368 0.53635243 0.917194 1.238034 0.562947
O 2.92936801 4.60756348 5.15359942 0.947704 0.498122 1.576053
O 1.33404478 3.07885555 3.19428017 -0.379313 0.115190 -0.450170
O 9.64409475 3.06365875 2.51987106 -0.237839 -0.959949 -1.510416
O 7.59754413 4.53926779 3.21623448 -0.995263 1.125329 0.083581
O 3.42795999 4.63828504 2.55879228 0.538270 0.453038 0.096620
O -0.35920035 3.05874236 1.44273661 -0.346268 -0.963273 0.368034
O 11.28335318 3.15651746 4.19222448 -0.205675 -0.569050 -1.658546
O 5.86984939 4.62944101 1.40619258 0.127844 1.229150 0.200764
O 5.10247142 4.63396357 4.21318095 0.704344 -0.885594 1.060794
Ga -1.38440575 3.16262751 10.25184051 0.217351 0.412451 -0.265605
Ga 9.54296418 3.10656145 6.82057338 -0.902334 0.598606 0.213407
Ga 4.87185078 4.60242046 10.22583294 1.752899 1.303960 0.549994
Ga 3.45301064 4.56977890 6.82658081 -0.245577 0.046726 -0.018734
Ga 0.11686893 3.12865515 7.43976080 -0.513365 -0.521707 -0.194145
Ga 7.97502278 3.06907365 9.63357891 0.294598 -1.469707 -0.483045
Ga 6.38462903 4.60273899 7.48407758 0.537359 0.827407 -0.103459
Ga 1.93805938 4.54647578 9.59596845 0.009581 1.213264 -0.328658
O 0.51916410 3.10508875 6.22923579 0.779695 1.543003 0.335630
O 7.71835240 2.98758691 10.83608593 0.693217 0.810308 -0.235436
O 6.72609316 4.58197368 6.25198743 0.917194 1.238034 0.562947
O 1.53844401 4.60756348 10.86923442 0.947704 0.498122 1.576053
O -0.05687922 3.07885555 8.90991517 -0.379313 0.115190 -0.450170
O 8.25317075 3.06365875 8.23550606 -0.237839 -0.959949 -1.510416
O 6.20662013 4.53926779 8.93186948 -0.995263 1.125329 0.083581
O 2.03703599 4.63828504 8.27442728 0.538270 0.453038 0.096620
O -1.75012435 3.05874236 7.15837161 -0.346268 -0.963273 0.368034
O 9.89242918 3.15651746 9.90785948 -0.205675 -0.569050 -1.658546
O 4.47892539 4.62944101 7.12182758 0.127844 1.229150 0.200764
O 3.71154742 4.63396357 9.92881595 0.704344 -0.885594 1.060794
Ga 12.47537925 0.07550751 4.53620551 0.217351 0.412451 -0.265605
Ga 23.40274918 0.01944145 1.10493838 -0.902334 0.598606 0.213407
Ga 18.73163578 1.51530046 4.51019794 1.752899 1.303960 0.549994
Ga 17.31279564 1.48265890 1.11094581 -0.245577 0.046726 -0.018734
Ga 13.97665393 0.04153515 1.72412580 -0.513365 -0.521707 -0.194145
Ga 21.83480778 -0.01804635 3.91794391 0.294598 -1.469707 -0.483045
Ga 20.24441403 1.51561899 1.76844258 0.537359 0.827407 -0.103459
Ga 15.79784438 1.45935578 3.88033345 0.009581 1.213264 -0.328658
O 14.37894910 0.01796875 0.51360079 0.779695 1.543003 0.335630
O 21.57813740 -0.09953309 5.12045093 0.693217 0.810308 -0.235436
O 20.58587816 1.49485368 0.53635243 0.917194 1.238034 0.562947
O 15.39822901 1.52044348 5.15359942 0.947704 0.498122 1.576053
O 13.80290578 -0.00826445 3.19428017 -0.379313 0.115190 -0.450170
O 22.11295575 -0.02346125 2.51987106 -0.237839 -0.959949 -1.510416
O 20.06640513 1.45214779 3.21623448 -0.995263 1.125329 0.083581
O 15.89682099 1.55116504 2.55879228 0.538270 0.453038 0.096620
O 12.10966065 -0.02837764 1.44273661 -0.346268 -0.963273 0.368034
O 23.75221418 0.06939746 4.19222448 -0.205675 -0.569050 -1.658546
O 18.33871039 1.54232101 1.40619258 0.127844 1.229150 0.200764
O 17.57133242 1.54684357 4.21318095 0.704344 -0.885594 1.060794
Ga 11.08445525 0.07550751 10.25184051 0.217351 0.412451 -0.265605
Ga 22.01182518 0.01944145 6.82057338 -0.902334 0.598606 0.213407
Ga 17.34071178 1.51530046 10.22583294 1.752899 1.303960 0.549994
Ga 15.92187164 1.48265890 6.82658081 -0.245577 0.046726 -0.018734
Ga 12.58572993 0.04153515 7.43976080 -0.513365 -0.521707 -0.194145
Ga 20.44388378 -0.01804635 9.63357891 0.294598 -1.469707 -0.483045
Ga 18.85349003 1.51561899 7.48407758 0.537359 0.827407 -0.103459
Ga 14.40692038 1.45935578 9.59596845 0.009581 1.213264 -0.328658
O 12.98802510 0.01796875 6.22923579 0.779695 1.543003 0.335630
O 20.18721340 -0.09953309 10.83608593 0.693217 0.810308 -0.235436
O 19.19495416 1.49485368 6.25198743 0.917194 1.238034 0.562947
O 14.00730501 1.52044348 10.86923442 0.947704 0.498122 1.576053
O 12.41198178 -0.00826445 8.90991517 -0.379313 0.115190 -0.450170
O 20.72203175 -0.02346125 8.23550606 -0.237839 -0.959949 -1.510416
O 18.67548113 1.45214779 8.93186948 -0.995263 1.125329 0.083581
O 14.50589699 1.55116504 8.27442728 0.538270 0.453038 0.096620
O 10.71873665 -0.02837764 7.15837161 -0.346268 -0.963273 0.368034
O 22.36129018 0.06939746 9.90785948 -0.205675 -0.569050 -1.658546
O 16.94778639 1.54232101 7.12182758 0.127844 1.229150 0.200764
O 16.18040842 1.54684357 9.92881595 0.704344 -0.885594 1.060794
Ga 12.47537925 3.16262751 4.53620551 0.217351 0.412451 -0.265605
Ga 23.40274918 3.10656145 1.10493838 -0.902334 0.598606 0.213407
Ga 18.73163578 4.60242046 4.51019794 1.752899 1.303960 0.549994
Ga 17.31279564 4.56977890 1.11094581 -0.245577 0.046726 -0.018734
Ga 13.97665393 3.12865515 1.72412580 -0.513365 -0.521707 -0.194145
Ga 21.83480778 3.06907365 3.91794391 0.294598 -1.469707 -0.483045
Ga 20.24441403 4.60273899 1.76844258 0.537359 0.827407 -0.103459
Ga 15.79784438 4.54647578 3.88033345 0.009581 1.213264 -0.328658
O 14.37894910 3.10508875 0.51360079 0.779695 1.543003 0.335630
O 21.57813740 2.98758691 5.12045093 0.693217 0.810308 -0.235436
O 20.58587816 4.58197368 0.53635243 0.917194 1.238034 0.562947
O 15.39822901 4.60756348 5.15359942 0.947704 0.498122 1.576053
O 13.80290578 3.07885555 3.19428017 -0.379313 0.115190 -0.450170
O 22.11295575 3.06365875 2.51987106 -0.237839 -0.959949 -1.510416
O 20.06640513 4.53926779 3.21623448 -0.995263 1.125329 0.083581
O 15.89682099 4.63828504 2.55879228 0.538270 0.453038 0.096620
O 12.10966065 3.05874236 1.44273661 -0.346268 -0.963273 0.368034
O 23.75221418 3.15651746 4.19222448 -0.205675 -0.569050 -1.658546
O 18.33871039 4.62944101 1.40619258 0.127844 1.229150 0.200764
O 17.57133242 4.63396357 4.21318095 0.704344 -0.885594 1.060794
Ga 11.08445525 3.16262751 10.25184051 0.217351 0.412451 -0.265605
Ga 22.01182518 3.10656145 6.82057338 -0.902334 0.598606 0.213407
Ga 17.34071178 4.60242046 10.22583294 1.752899 1.303960 0.549994
Ga 15.92187164 4.56977890 6.82658081 -0.245577 0.046726 -0.018734
Ga 12.58572993 3.12865515 7.43976080 -0.513365 -0.521707 -0.194145
Ga 20.44388378 3.06907365 9.63357891 0.294598 -1.469707 -0.483045
Ga 18.85349003 4.60273899 7.48407758 0.537359 0.827407 -0.103459
Ga 14.40692038 4.54647578 9.59596845 0.009581 1.213264 -0.328658
O 12.98802510 3.10508875 6.22923579 0.779695 1.543003 0.335630
O 20.18721340 2.98758691 10.83608593 0.693217 0.810308 -0.235436
O 19.19495416 4.58197368 6.25198743 0.917194 1.238034 0.562947
O 14.00730501 4.60756348 10.86923442 0.947704 0.498122 1.576053
O 12.41198178 3.07885555 8.90991517 -0.379313 0.115190 -0.450170
O 20.72203175 3.06365875 8.23550606 -0.237839 -0.959949 -1.510416
O 18.67548113 4.53926779 8.93186948 -0.995263 1.125329 0.083581
O 14.50589699 4.63828504 8.27442728 0.538270 0.453038 0.096620
O 10.71873665 3.05874236 7.15837161 -0.346268 -0.963273 0.368034
O 22.36129018 3.15651746 9.90785948 -0.205675 -0.569050 -1.658546
O 16.94778639 4.62944101 7.12182758 0.127844 1.229150 0.200764
O 16.18040842 4.63396357 9.92881595 0.704344 -0.885594 1.060794
