160
Lattice="25.198869 0.0 0.0 0.0 6.238896 0.0 -2.810979 0.0 11.550976" Properties=species:S:1:pos:R:3:force:R:3 Energy=-631.857951 Virial="-12.151729 -27.148583 -28.615543 -6.610601 -7.823917 38.807367 -13.361038 -9.919354 -15.511222" pbc="T T T"
Ga       0.03306584      -0.09678981       4.69784163      -0.61478000      -0.61947200      -1.03390700
Ga      11.15970862       0.04775825       1.17280904       0.23956100       0.74188400      -1.33656800
Ga       6.33975143       1.61940083       4.63583601       0.31514500       0.37220700      -1.32497500
Ga       4.86260267       1.55431388       1.22642761      -0.53013700      -1.12956000      -0.10479900
Ga       1.64999513       0.00769131       1.89294159       0.92613800      -0.15761200      -0.83437800
Ga       9.62762243       0.03807841       4.00487590       1.06739800       0.16802800      -0.54878200
Ga       7.83998444       1.52984093       1.86047461      -0.34191600      -0.24206500      -0.64857900
Ga       3.31629922       1.52395005       3.93347129       0.25101600       0.27832500      -0.12610000
O        1.91276626       0.03426468       0.56349796       1.13653200       1.30172100      -1.77182700
O        9.28837989       0.01685519       5.20883886       0.40432700       1.79383300      -0.78163500
O        8.26179242       1.60702220       0.56627638       1.04815700       1.31747500       0.44922100
O        2.97802228       1.52904187       5.24106515      -1.19003100      -1.54943100       0.36509600
O        1.36262884      -0.00096111       3.15711170       0.80461000       0.60294400      -0.19075300
O        9.73320353      -0.00764191       2.53082876       0.57913000      -0.31878300      -1.00319600
O        7.69942749       1.55433331       3.22393000       0.91521100       0.92603700      -0.62600900
O        3.52313265       1.54119329       2.54398859       0.05304500       0.03127100      -0.60608200
O       -0.25120667       0.00012337       1.47135714       0.84782400       0.09583100      -0.15705500
O       11.50665238      -0.00645457       4.26858027       1.37221600       0.24544100       0.12937100
O        5.95038779       1.52918680       1.51344232       0.14668200      -0.57906800       0.49139600
O        5.17843916       1.55352706       4.32499261      -0.50898900      -0.41808000      -0.15602200
Ga      -1.35785816      -0.09678981      10.41347663      -0.61478000      -0.61947200      -1.03390700
Ga       9.76878462       0.04775825       6.88844404       0.23956100       0.74188400      -1.33656800
Ga       4.94882743       1.61940083      10.35147101       0.31514500       0.37220700      -1.32497500
Ga       3.47167867       1.55431388       6.94206261      -0.53013700      -1.12956000      -0.10479900
Ga       0.25907113       0.00769131       7.60857659       0.92613800      -0.15761200      -0.83437800
Ga       8.23669843       0.03807841       9.72051090       1.06739800       0.16802800      -0.54878200
Ga       6.44906044       1.52984093       7.57610961      -0.34191600      -0.24206500      -0.64857900
Ga       1.92537522       1.52395005       9.64910629       0.25101600       0.27832500      -0.12610000
O        0.52184226       0.03426468       6.27913296       1.13653200       1.30172100      -1.77182700
O        7.89745589       0.01685519      10.92447386       0.40432700       1.79383300      -0.78163500
O        6.87086842       1.60702220       6.28191138       1.04815700       1.31747500       0.44922100
O        1.58709828       1.52904187      10.95670015      -1.19003100      -1.54943100       0.36509600
O       -0.02829516      -0.00096111       8.87274670       0.80461000       0.60294400      -0.19075300
O        8.34227953      -0.00764191       8.24646376       0.57913000      -0.31878300      -1.00319600
O        6.30850349       1.55433331       8.93956500       0.91521100       0.92603700      -0.62600900
O        2.13220865       1.54119329       8.25962359       0.05304500       0.03127100      -0.60608200
O       -1.64213067       0.00012337       7.18699214       0.84782400       0.09583100      -0.15705500
O       10.11572838      -0.00645457       9.98421527       1.37221600       0.24544100       0.12937100
O        4.55946379       1.52918680       7.22907732       0.14668200      -0.57906800       0.49139600
O        3.78751516       1.55352706      10.04062761      -0.50898900      -0.41808000      -0.15602200
Ga       0.03306584       2.99033019       4.69784163      -0.61478000      -0.61947200      -1.03390700
Ga      11.15970862       3.13487825       1.17280904       0.23956100       0.74188400      -1.33656800
Ga       6.33975143       4.70652083       4.63583601       0.31514500       0.37220700      -1.32497500
Ga       4.86260267       4.64143388       1.22642761      -0.53013700      -1.12956000      -0.10479900
Ga       1.64999513       3.09481131       1.89294159       0.92613800      -0.15761200      -0.83437800
Ga       9.62762243       3.12519841       4.00487590       1.06739800       0.16802800      -0.54878200
Ga       7.83998444       4.61696093       1.86047461      -0.34191600      -0.24206500      -0.64857900
Ga       3.31629922       4.61107005       3.93347129       0.25101600       0.27832500      -0.12610000
O        1.91276626       3.12138468       0.56349796       1.13653200       1.30172100      -1.77182700
O        9.28837989       3.10397519       5.20883886       0.40432700       1.79383300      -0.78163500
O        8.26179242       4.69414220       0.56627638       1.04815700       1.31747500       0.44922100
O        2.97802228       4.61616187       5.24106515      -1.19003100      -1.54943100       0.36509600
O        1.36262884       3.08615889       3.15711170       0.80461000       0.60294400      -0.19075300
O        9.73320353       3.07947809       2.53082876       0.57913000      -0.31878300      -1.00319600
O        7.69942749       4.64145331       3.22393000       0.91521100       0.92603700      -0.62600900
O        3.52313265       4.62831329       2.54398859       0.05304500       0.03127100      -0.60608200
O       -0.25120667       3.08724337       1.47135714       0.84782400       0.09583100      -0.15705500
O       11.50665238       3.08066543       4.26858027       1.37221600       0.24544100       0.12937100
O        5.95038779       4.61630680       1.51344232       0.14668200      -0.57906800       0.49139600
O        5.17843916       4.64064706       4.32499261      -0.50898900      -0.41808000      -0.15602200
Ga      -1.35785816       2.99033019      10.41347663      -0.61478000      -0.61947200      -1.03390700
Ga       9.76878462       3.13487825       6.88844404       0.23956100       0.74188400      -1.33656800
Ga       4.94882743       4.70652083      10.35147101       0.31514500       0.37220700      -1.32497500
Ga       3.47167867       4.64143388       6.94206261      -0.53013700      -1.12956000      -0.10479900
Ga       0.25907113       3.09481131       7.60857659       0.92613800      -0.15761200      -0.83437800
Ga       8.23669843       3.12519841       9.72051090       1.06739800       0.16802800      -0.54878200
Ga       6.44906044       4.61696093       7.57610961      -0.34191600      -0.24206500      -0.64857900
Ga       1.92537522       4.61107005       9.64910629       0.25101600       0.27832500      -0.12610000
O        0.52184226       3.12138468       6.27913296       1.13653200       1.30172100      -1.77182700
O        7.89745589       3.10397519      10.92447386       0.40432700       1.79383300      -0.78163500
O        6.87086842       4.69414220       6.28191138       1.04815700       1.31747500       0.44922100
O        1.58709828       4.61616187      10.95670015      -1.19003100      -1.54943100       0.36509600
O       -0.02829516       3.08615889       8.87274670       0.80461000       0.60294400      -0.19075300
O        8.34227953       3.07947809       8.24646376       0.57913000      -0.31878300      -1.00319600
O        6.30850349       4.64145331       8.93956500       0.91521100       0.92603700      -0.62600900
O        2.13220865       4.62831329       8.25962359       0.05304500       0.03127100      -0.60608200
O       -1.64213067       3.08724337       7.18699214       0.84782400       0.09583100      -0.15705500
O       10.11572838       3.08066543       9.98421527       1.37221600       0.24544100       0.12937100
O        4.55946379       4.61630680       7.22907732       0.14668200      -0.57906800       0.49139600
O        3.78751516       4.64064706      10.04062761      -0.50898900      -0.41808000      -0.15602200
Ga      12.50192684      -0.09678981       4.69784163      -0.61478000      -0.61947200      -1.03390700
Ga      23.62856962       0.04775825       1.17280904       0.23956100       0.74188400      -1.33656800
Ga      18.80861243       1.61940083       4.63583601       0.31514500       0.37220700      -1.32497500
Ga      17.33146367       1.55431388       1.22642761      -0.53013700      -1.12956000      -0.10479900
Ga      14.11885613       0.00769131       1.89294159       0.92613800      -0.15761200      -0.83437800
Ga      22.09648343       0.03807841       4.00487590       1.06739800       0.16802800      -0.54878200
Ga      20.30884544       1.52984093       1.86047461      -0.34191600      -0.24206500      -0.64857900
Ga      15.78516022       1.52395005       3.93347129       0.25101600       0.27832500      -0.12610000
O       14.38162726       0.03426468       0.56349796       1.13653200       1.30172100      -1.77182700
O       21.75724089       0.01685519       5.20883886       0.40432700       1.79383300      -0.78163500
O       20.73065342       1.60702220       0.56627638       1.04815700       1.31747500       0.44922100
O       15.44688328       1.52904187       5.24106515      -1.19003100      -1.54943100       0.36509600
O       13.83148984      -0.00096111       3.15711170       0.80461000       0.60294400      -0.19075300
O       22.20206453      -0.00764191       2.53082876       0.57913000      -0.31878300      -1.00319600
O       20.16828849       1.55433331       3.22393000       0.91521100       0.92603700      -0.62600900
O       15.99199365       1.54119329       2.54398859       0.05304500       0.03127100      -0.60608200
O       12.21765433       0.00012337       1.47135714       0.84782400       0.09583100      -0.15705500
O       23.97551338      -0.00645457       4.26858027       1.37221600       0.24544100       0.12937100
O       18.41924879       1.52918680       1.51344232       0.14668200      -0.57906800       0.49139600
O       17.64730016       1.55352706       4.32499261      -0.50898900      -0.41808000      -0.15602200
Ga      11.11100284      -0.09678981      10.41347663      -0.61478000      -0.61947200      -1.03390700
Ga      22.23764562       0.04775825       6.88844404       0.23956100       0.74188400      -1.33656800
Ga      17.41768843       1.61940083      10.35147101       0.31514500       0.37220700      -1.32497500
Ga      15.94053967       1.55431388       6.94206261      -0.53013700      -1.12956000      -0.10479900
Ga      12.72793213       0.00769131       7.60857659       0.92613800      -0.15761200      -0.83437800
Ga      20.70555943       0.03807841       9.72051090       1.06739800       0.16802800      -0.54878200
Ga      18.91792144       1.52984093       7.57610961      -0.34191600      -0.24206500      -0.64857900
Ga      14.39423622       1.52395005       9.64910629       0.25101600       0.27832500      -0.12610000
O       12.99070326       0.03426468       6.27913296       1.13653200       1.30172100      -1.77182700
O       20.36631689       0.01685519      10.92447386       0.40432700       1.79383300      -0.78163500
O       19.33972942       1.60702220       6.28191138       1.04815700       1.31747500       0.44922100
O       14.05595928       1.52904187      10.95670015      -1.19003100      -1.54943100       0.36509600
O       12.44056584      -0.00096111       8.87274670       0.80461000       0.60294400      -0.19075300
O       20.81114053      -0.00764191       8.24646376       0.57913000      -0.31878300      -1.00319600
O       18.77736449       1.55433331       8.93956500       0.91521100       0.92603700      -0.62600900
O       14.60106965       1.54119329       8.25962359       0.05304500       0.03127100      -0.60608200
O       10.82673033       0.00012337       7.18699214       0.84782400       0.09583100      -0.15705500
O       22.58458938      -0.00645457       9.98421527       1.37221600       0.24544100       0.12937100
O       17.02832479       1.52918680       7.22907732       0.14668200      -0.57906800       0.49139600
O       16.25637616       1.55352706      10.04062761      -0.50898900      -0.41808000      -0.15602200
Ga      12.50192684       2.99033019       4.69784163      -0.61478000      -0.61947200      -1.03390700
Ga      23.62856962       3.13487825       1.17280904       0.23956100       0.74188400      -1.33656800
Ga      18.80861243       4.70652083       4.63583601       0.31514500       0.37220700      -1.32497500
Ga      17.33146367       4.64143388       1.22642761      -0.53013700      -1.12956000      -0.10479900
Ga      14.11885613       3.09481131       1.89294159       0.92613800      -0.15761200      -0.83437800
Ga      22.09648343       3.12519841       4.00487590       1.06739800       0.16802800      -0.54878200
Ga      20.30884544       4.61696093       1.86047461      -0.34191600      -0.24206500      -0.64857900
Ga      15.78516022       4.61107005       3.93347129       0.25101600       0.27832500      -0.12610000
O       14.38162726       3.12138468       0.56349796       1.13653200       1.30172100      -1.77182700
O       21.75724089       3.10397519       5.20883886       0.40432700       1.79383300      -0.78163500
O       20.73065342       4.69414220       0.56627638       1.04815700       1.31747500       0.44922100
O       15.44688328       4.61616187       5.24106515      -1.19003100      -1.54943100       0.36509600
O       13.83148984       3.08615889       3.15711170       0.80461000       0.60294400      -0.19075300
O       22.20206453       3.07947809       2.53082876       0.57913000      -0.31878300      -1.00319600
O       20.16828849       4.64145331       3.22393000       0.91521100       0.92603700      -0.62600900
O       15.99199365       4.62831329       2.54398859       0.05304500       0.03127100      -0.60608200
O       12.21765433       3.08724337       1.47135714       0.84782400       0.09583100      -0.15705500
O       23.97551338       3.08066543       4.26858027       1.37221600       0.24544100       0.12937100
O       18.41924879       4.61630680       1.51344232       0.14668200      -0.57906800       0.49139600
O       17.64730016       4.64064706       4.32499261      -0.50898900      -0.41808000      -0.15602200
Ga      11.11100284       2.99033019      10.41347663      -0.61478000      -0.61947200      -1.03390700
Ga      22.23764562       3.13487825       6.88844404       0.23956100       0.74188400      -1.33656800
Ga      17.41768843       4.70652083      10.35147101       0.31514500       0.37220700      -1.32497500
Ga      15.94053967       4.64143388       6.94206261      -0.53013700      -1.12956000      -0.10479900
Ga      12.72793213       3.09481131       7.60857659       0.92613800      -0.15761200      -0.83437800
Ga      20.70555943       3.12519841       9.72051090       1.06739800       0.16802800      -0.54878200
Ga      18.91792144       4.61696093       7.57610961      -0.34191600      -0.24206500      -0.64857900
Ga      14.39423622       4.61107005       9.64910629       0.25101600       0.27832500      -0.12610000
O       12.99070326       3.12138468       6.27913296       1.13653200       1.30172100      -1.77182700
O       20.36631689       3.10397519      10.92447386       0.40432700       1.79383300      -0.78163500
O       19.33972942       4.69414220       6.28191138       1.04815700       1.31747500       0.44922100
O       14.05595928       4.61616187      10.95670015      -1.19003100      -1.54943100       0.36509600
O       12.44056584       3.08615889       8.87274670       0.80461000       0.60294400      -0.19075300
O       20.81114053       3.07947809       8.24646376       0.57913000      -0.31878300      -1.00319600
O       18.77736449       4.64145331       8.93956500       0.91521100       0.92603700      -0.62600900
O       14.60106965       4.62831329       8.25962359       0.05304500       0.03127100      -0.60608200
O       10.82673033       3.08724337       7.18699214       0.84782400       0.09583100      -0.15705500
O       22.58458938       3.08066543       9.98421527       1.37221600       0.24544100       0.12937100
O       17.02832479       4.61630680       7.22907732       0.14668200      -0.57906800       0.49139600
O       16.25637616       4.64064706      10.04062761      -0.50898900      -0.41808000      -0.15602200
160
Lattice="24.885187 0.0 0.0 0.0 6.161233 0.0 -2.775987 0.0 11.407187" Properties=species:S:1:pos:R:3:force:R:3 Energy=-631.638285 Virial="-4.136175 -11.065818 -11.900362 9.222309 -8.07593 -29.909984 -15.8356 9.402324 -12.896796" pbc="T T T"
Ga       0.04384432       0.05067389       4.45070615       0.63376900      -1.17771600       0.63258300
Ga      10.98175399       0.02056193       1.23354297       0.93551600       0.87697600      -1.32895900
Ga       6.19880158       1.52479771       4.54813467       1.31218100       0.70216800       0.85014000
Ga       4.75204812       1.56117583       1.06449036       0.38070500      -0.03031900      -0.15463500
Ga       1.55697713      -0.03980340       1.77416578      -0.26400200       0.17410300      -0.16156500
Ga       9.54338688       0.01789009       3.91120494      -0.50602600       0.30827900       0.21282900
Ga       7.79734608       1.47230114       1.80024625      -1.70984400       0.43864400      -2.21487300
Ga       3.26440781       1.57702944       3.93900687      -0.56930700      -0.03456900      -0.21841400
O        1.93904739       0.06581527       0.58119203      -0.27481700       0.24066600      -0.33620500
O        9.13818876      -0.00005071       5.19149326      -0.96695200       0.52353800      -0.11378200
O        8.13685736       1.56851511       0.44692531      -1.53309100       1.22121800      -1.08211500
O        2.99842085       1.54274932       5.10255711       1.00435300      -0.80439900       0.97243300
O        1.34151596      -0.08517308       3.13899564      -0.33690000      -0.03442100       0.08383900
O        9.67084145       0.06058858       2.53741580      -1.15274300       1.01192900       0.60738200
O        7.60867902       1.49490400       3.14962563      -1.21522400       0.29007000      -0.93235800
O        3.42535737       1.51206303       2.50692734       0.15027500      -1.71149400       0.65763000
O       -0.31659637      -0.01356313       1.43326750      -0.75564000      -1.05452700      -0.54030800
O       11.36555713      -0.01257659       4.17965070      -0.29114500       0.54611800      -0.90934600
O        5.91711526       1.53563762       1.39693537       0.42148900       0.90888000      -0.08094500
O        5.11520704       1.56419108       4.19801539      -0.86428800      -0.53914600      -0.55236600
Ga      -1.34707968       0.05067389      10.16634115       0.63376900      -1.17771600       0.63258300
Ga       9.59082999       0.02056193       6.94917797       0.93551600       0.87697600      -1.32895900
Ga       4.80787758       1.52479771      10.26376967       1.31218100       0.70216800       0.85014000
Ga       3.36112412       1.56117583       6.78012536       0.38070500      -0.03031900      -0.15463500
Ga       0.16605313      -0.03980340       7.48980078      -0.26400200       0.17410300      -0.16156500
Ga       8.15246288       0.01789009       9.62683994      -0.50602600       0.30827900       0.21282900
Ga       6.40642208       1.47230114       7.51588125      -1.70984400       0.43864400      -2.21487300
Ga       1.87348381       1.57702944       9.65464187      -0.56930700      -0.03456900      -0.21841400
O        0.54812339       0.06581527       6.29682703      -0.27481700       0.24066600      -0.33620500
O        7.74726476      -0.00005071      10.90712826      -0.96695200       0.52353800      -0.11378200
O        6.74593336       1.56851511       6.16256031      -1.53309100       1.22121800      -1.08211500
O        1.60749685       1.54274932      10.81819211       1.00435300      -0.80439900       0.97243300
O       -0.04940804      -0.08517308       8.85463064      -0.33690000      -0.03442100       0.08383900
O        8.27991745       0.06058858       8.25305080      -1.15274300       1.01192900       0.60738200
O        6.21775502       1.49490400       8.86526063      -1.21522400       0.29007000      -0.93235800
O        2.03443337       1.51206303       8.22256234       0.15027500      -1.71149400       0.65763000
O       -1.70752037      -0.01356313       7.14890250      -0.75564000      -1.05452700      -0.54030800
O        9.97463313      -0.01257659       9.89528570      -0.29114500       0.54611800      -0.90934600
O        4.52619126       1.53563762       7.11257037       0.42148900       0.90888000      -0.08094500
O        3.72428304       1.56419108       9.91365039      -0.86428800      -0.53914600      -0.55236600
Ga       0.04384432       3.13779389       4.45070615       0.63376900      -1.17771600       0.63258300
Ga      10.98175399       3.10768193       1.23354297       0.93551600       0.87697600      -1.32895900
Ga       6.19880158       4.61191771       4.54813467       1.31218100       0.70216800       0.85014000
Ga       4.75204812       4.64829583       1.06449036       0.38070500      -0.03031900      -0.15463500
Ga       1.55697713       3.04731660       1.77416578      -0.26400200       0.17410300      -0.16156500
Ga       9.54338688       3.10501009       3.91120494      -0.50602600       0.30827900       0.21282900
Ga       7.79734608       4.55942114       1.80024625      -1.70984400       0.43864400      -2.21487300
Ga       3.26440781       4.66414944       3.93900687      -0.56930700      -0.03456900      -0.21841400
O        1.93904739       3.15293527       0.58119203      -0.27481700       0.24066600      -0.33620500
O        9.13818876       3.08706929       5.19149326      -0.96695200       0.52353800      -0.11378200
O        8.13685736       4.65563511       0.44692531      -1.53309100       1.22121800      -1.08211500
O        2.99842085       4.62986932       5.10255711       1.00435300      -0.80439900       0.97243300
O        1.34151596       3.00194692       3.13899564      -0.33690000      -0.03442100       0.08383900
O        9.67084145       3.14770858       2.53741580      -1.15274300       1.01192900       0.60738200
O        7.60867902       4.58202400       3.14962563      -1.21522400       0.29007000      -0.93235800
O        3.42535737       4.59918303       2.50692734       0.15027500      -1.71149400       0.65763000
O       -0.31659637       3.07355687       1.43326750      -0.75564000      -1.05452700      -0.54030800
O       11.36555713       3.07454341       4.17965070      -0.29114500       0.54611800      -0.90934600
O        5.91711526       4.62275762       1.39693537       0.42148900       0.90888000      -0.08094500
O        5.11520704       4.65131108       4.19801539      -0.86428800      -0.53914600      -0.55236600
Ga      -1.34707968       3.13779389      10.16634115       0.63376900      -1.17771600       0.63258300
Ga       9.59082999       3.10768193       6.94917797       0.93551600       0.87697600      -1.32895900
Ga       4.80787758       4.61191771      10.26376967       1.31218100       0.70216800       0.85014000
Ga       3.36112412       4.64829583       6.78012536       0.38070500      -0.03031900      -0.15463500
Ga       0.16605313       3.04731660       7.48980078      -0.26400200       0.17410300      -0.16156500
Ga       8.15246288       3.10501009       9.62683994      -0.50602600       0.30827900       0.21282900
Ga       6.40642208       4.55942114       7.51588125      -1.70984400       0.43864400      -2.21487300
Ga       1.87348381       4.66414944       9.65464187      -0.56930700      -0.03456900      -0.21841400
O        0.54812339       3.15293527       6.29682703      -0.27481700       0.24066600      -0.33620500
O        7.74726476       3.08706929      10.90712826      -0.96695200       0.52353800      -0.11378200
O        6.74593336       4.65563511       6.16256031      -1.53309100       1.22121800      -1.08211500
O        1.60749685       4.62986932      10.81819211       1.00435300      -0.80439900       0.97243300
O       -0.04940804       3.00194692       8.85463064      -0.33690000      -0.03442100       0.08383900
O        8.27991745       3.14770858       8.25305080      -1.15274300       1.01192900       0.60738200
O        6.21775502       4.58202400       8.86526063      -1.21522400       0.29007000      -0.93235800
O        2.03443337       4.59918303       8.22256234       0.15027500      -1.71149400       0.65763000
O       -1.70752037       3.07355687       7.14890250      -0.75564000      -1.05452700      -0.54030800
O        9.97463313       3.07454341       9.89528570      -0.29114500       0.54611800      -0.90934600
O        4.52619126       4.62275762       7.11257037       0.42148900       0.90888000      -0.08094500
O        3.72428304       4.65131108       9.91365039      -0.86428800      -0.53914600      -0.55236600
Ga      12.51270532       0.05067389       4.45070615       0.63376900      -1.17771600       0.63258300
Ga      23.45061499       0.02056193       1.23354297       0.93551600       0.87697600      -1.32895900
Ga      18.66766258       1.52479771       4.54813467       1.31218100       0.70216800       0.85014000
Ga      17.22090912       1.56117583       1.06449036       0.38070500      -0.03031900      -0.15463500
Ga      14.02583813      -0.03980340       1.77416578      -0.26400200       0.17410300      -0.16156500
Ga      22.01224788       0.01789009       3.91120494      -0.50602600       0.30827900       0.21282900
Ga      20.26620708       1.47230114       1.80024625      -1.70984400       0.43864400      -2.21487300
Ga      15.73326881       1.57702944       3.93900687      -0.56930700      -0.03456900      -0.21841400
O       14.40790839       0.06581527       0.58119203      -0.27481700       0.24066600      -0.33620500
O       21.60704976      -0.00005071       5.19149326      -0.96695200       0.52353800      -0.11378200
O       20.60571836       1.56851511       0.44692531      -1.53309100       1.22121800      -1.08211500
O       15.46728185       1.54274932       5.10255711       1.00435300      -0.80439900       0.97243300
O       13.81037696      -0.08517308       3.13899564      -0.33690000      -0.03442100       0.08383900
O       22.13970245       0.06058858       2.53741580      -1.15274300       1.01192900       0.60738200
O       20.07754002       1.49490400       3.14962563      -1.21522400       0.29007000      -0.93235800
O       15.89421837       1.51206303       2.50692734       0.15027500      -1.71149400       0.65763000
O       12.15226463      -0.01356313       1.43326750      -0.75564000      -1.05452700      -0.54030800
O       23.83441813      -0.01257659       4.17965070      -0.29114500       0.54611800      -0.90934600
O       18.38597626       1.53563762       1.39693537       0.42148900       0.90888000      -0.08094500
O       17.58406804       1.56419108       4.19801539      -0.86428800      -0.53914600      -0.55236600
Ga      11.12178132       0.05067389      10.16634115       0.63376900      -1.17771600       0.63258300
Ga      22.05969099       0.02056193       6.94917797       0.93551600       0.87697600      -1.32895900
Ga      17.27673858       1.52479771      10.26376967       1.31218100       0.70216800       0.85014000
Ga      15.82998512       1.56117583       6.78012536       0.38070500      -0.03031900      -0.15463500
Ga      12.63491413      -0.03980340       7.48980078      -0.26400200       0.17410300      -0.16156500
Ga      20.62132388       0.01789009       9.62683994      -0.50602600       0.30827900       0.21282900
Ga      18.87528308       1.47230114       7.51588125      -1.70984400       0.43864400      -2.21487300
Ga      14.34234481       1.57702944       9.65464187      -0.56930700      -0.03456900      -0.21841400
O       13.01698439       0.06581527       6.29682703      -0.27481700       0.24066600      -0.33620500
O       20.21612576      -0.00005071      10.90712826      -0.96695200       0.52353800      -0.11378200
O       19.21479436       1.56851511       6.16256031      -1.53309100       1.22121800      -1.08211500
O       14.07635785       1.54274932      10.81819211       1.00435300      -0.80439900       0.97243300
O       12.41945296      -0.08517308       8.85463064      -0.33690000      -0.03442100       0.08383900
O       20.74877845       0.06058858       8.25305080      -1.15274300       1.01192900       0.60738200
O       18.68661602       1.49490400       8.86526063      -1.21522400       0.29007000      -0.93235800
O       14.50329437       1.51206303       8.22256234       0.15027500      -1.71149400       0.65763000
O       10.76134063      -0.01356313       7.14890250      -0.75564000      -1.05452700      -0.54030800
O       22.44349413      -0.01257659       9.89528570      -0.29114500       0.54611800      -0.90934600
O       16.99505226       1.53563762       7.11257037       0.42148900       0.90888000      -0.08094500
O       16.19314404       1.56419108       9.91365039      -0.86428800      -0.53914600      -0.55236600
Ga      12.51270532       3.13779389       4.45070615       0.63376900      -1.17771600       0.63258300
Ga      23.45061499       3.10768193       1.23354297       0.93551600       0.87697600      -1.32895900
Ga      18.66766258       4.61191771       4.54813467       1.31218100       0.70216800       0.85014000
Ga      17.22090912       4.64829583       1.06449036       0.38070500      -0.03031900      -0.15463500
Ga      14.02583813       3.04731660       1.77416578      -0.26400200       0.17410300      -0.16156500
Ga      22.01224788       3.10501009       3.91120494      -0.50602600       0.30827900       0.21282900
Ga      20.26620708       4.55942114       1.80024625      -1.70984400       0.43864400      -2.21487300
Ga      15.73326881       4.66414944       3.93900687      -0.56930700      -0.03456900      -0.21841400
O       14.40790839       3.15293527       0.58119203      -0.27481700       0.24066600      -0.33620500
O       21.60704976       3.08706929       5.19149326      -0.96695200       0.52353800      -0.11378200
O       20.60571836       4.65563511       0.44692531      -1.53309100       1.22121800      -1.08211500
O       15.46728185       4.62986932       5.10255711       1.00435300      -0.80439900       0.97243300
O       13.81037696       3.00194692       3.13899564      -0.33690000      -0.03442100       0.08383900
O       22.13970245       3.14770858       2.53741580      -1.15274300       1.01192900       0.60738200
O       20.07754002       4.58202400       3.14962563      -1.21522400       0.29007000      -0.93235800
O       15.89421837       4.59918303       2.50692734       0.15027500      -1.71149400       0.65763000
O       12.15226463       3.07355687       1.43326750      -0.75564000      -1.05452700      -0.54030800
O       23.83441813       3.07454341       4.17965070      -0.29114500       0.54611800      -0.90934600
O       18.38597626       4.62275762       1.39693537       0.42148900       0.90888000      -0.08094500
O       17.58406804       4.65131108       4.19801539      -0.86428800      -0.53914600      -0.55236600
Ga      11.12178132       3.13779389      10.16634115       0.63376900      -1.17771600       0.63258300
Ga      22.05969099       3.10768193       6.94917797       0.93551600       0.87697600      -1.32895900
Ga      17.27673858       4.61191771      10.26376967       1.31218100       0.70216800       0.85014000
Ga      15.82998512       4.64829583       6.78012536       0.38070500      -0.03031900      -0.15463500
Ga      12.63491413       3.04731660       7.48980078      -0.26400200       0.17410300      -0.16156500
Ga      20.62132388       3.10501009       9.62683994      -0.50602600       0.30827900       0.21282900
Ga      18.87528308       4.55942114       7.51588125      -1.70984400       0.43864400      -2.21487300
Ga      14.34234481       4.66414944       9.65464187      -0.56930700      -0.03456900      -0.21841400
O       13.01698439       3.15293527       6.29682703      -0.27481700       0.24066600      -0.33620500
O       20.21612576       3.08706929      10.90712826      -0.96695200       0.52353800      -0.11378200
O       19.21479436       4.65563511       6.16256031      -1.53309100       1.22121800      -1.08211500
O       14.07635785       4.62986932      10.81819211       1.00435300      -0.80439900       0.97243300
O       12.41945296       3.00194692       8.85463064      -0.33690000      -0.03442100       0.08383900
O       20.74877845       3.14770858       8.25305080      -1.15274300       1.01192900       0.60738200
O       18.68661602       4.58202400       8.86526063      -1.21522400       0.29007000      -0.93235800
O       14.50329437       4.59918303       8.22256234       0.15027500      -1.71149400       0.65763000
O       10.76134063       3.07355687       7.14890250      -0.75564000      -1.05452700      -0.54030800
O       22.44349413       3.07454341       9.89528570      -0.29114500       0.54611800      -0.90934600
O       16.99505226       4.62275762       7.11257037       0.42148900       0.90888000      -0.08094500
O       16.19314404       4.65131108       9.91365039      -0.86428800      -0.53914600      -0.55236600
160
Lattice="25.036251 0.0 0.0 0.0 6.198634 0.0 -2.792839 0.0 11.476433" Properties=species:S:1:pos:R:3:force:R:3 Energy=-631.581053 Virial="-30.072174 2.57269 -1.957995 -22.520924 23.249554 0.996812 -6.480366 8.086709 -11.805413" pbc="T T T"
Ga       0.01791507       0.02420461       4.51746226      -0.98707900      -1.25712800       0.13697000
Ga      11.10158075       0.09037135       1.21122239       0.26251700       0.29973600      -0.15201400
Ga       6.27891781       1.56024015       4.55874787      -0.20597400       0.72628300      -1.17811000
Ga       4.84861579       1.53369825       1.19842423       0.68991000       0.40584300       0.79523300
Ga       1.56783196       0.00026552       1.80855069      -0.40158300       1.05040300      -0.67375400
Ga       9.58871650      -0.02108972       3.95467967      -0.40184700      -0.25785300      -0.23193800
Ga       7.83688879       1.60825317       1.81568322      -0.86896700       0.55263400      -0.12909300
Ga       3.29379744       1.54554104       3.88955029      -0.18382700       0.27869600      -0.18251400
O        1.95080279      -0.08238901       0.58037893      -0.74668200       0.49934000       0.87334600
O        9.24580963      -0.11722501       5.24983569      -1.37699900       1.23477200      -0.77108600
O        8.22186305       1.53805645       0.49172010       0.25994400       1.99928900      -0.05164000
O        2.90742339       1.51931781       5.25146669       1.01989300      -0.62557300       0.67549200
O        1.36847156       0.03621292       3.19696243       0.45326100       0.27124300       0.26394500
O        9.73747521      -0.06285582       2.49040952      -0.44907700       0.49717700       0.69627000
O        7.69721998       1.54342962       3.21395123       0.83917900       0.05913700       1.06252700
O        3.54846356       1.54455348       2.52892248       0.37528500       1.29642400      -1.72990500
O       -0.25916735       0.00049399       1.48178432       1.59385700       0.51422200      -1.10253800
O       11.46898879       0.00000459       4.30073668       0.45633100       1.18761700       0.02103100
O        5.94701727       1.58890409       1.48583712       0.15045600      -1.77247400       0.08679800
O        5.16103807       1.55262851       4.17145984      -0.24316500      -0.40678200      -0.60643300
Ga      -1.37300893       0.02420461      10.23309726      -0.98707900      -1.25712800       0.13697000
Ga       9.71065675       0.09037135       6.92685739       0.26251700       0.29973600      -0.15201400
Ga       4.88799381       1.56024015      10.27438287      -0.20597400       0.72628300      -1.17811000
Ga       3.45769179       1.53369825       6.91405923       0.68991000       0.40584300       0.79523300
Ga       0.17690796       0.00026552       7.52418569      -0.40158300       1.05040300      -0.67375400
Ga       8.19779250      -0.02108972       9.67031467      -0.40184700      -0.25785300      -0.23193800
Ga       6.44596479       1.60825317       7.53131822      -0.86896700       0.55263400      -0.12909300
Ga       1.90287344       1.54554104       9.60518529      -0.18382700       0.27869600      -0.18251400
O        0.55987879      -0.08238901       6.29601393      -0.74668200       0.49934000       0.87334600
O        7.85488563      -0.11722501      10.96547069      -1.37699900       1.23477200      -0.77108600
O        6.83093905       1.53805645       6.20735510       0.25994400       1.99928900      -0.05164000
O        1.51649939       1.51931781      10.96710169       1.01989300      -0.62557300       0.67549200
O       -0.02245244       0.03621292       8.91259743       0.45326100       0.27124300       0.26394500
O        8.34655121      -0.06285582       8.20604452      -0.44907700       0.49717700       0.69627000
O        6.30629598       1.54342962       8.92958623       0.83917900       0.05913700       1.06252700
O        2.15753956       1.54455348       8.24455748       0.37528500       1.29642400      -1.72990500
O       -1.65009135       0.00049399       7.19741932       1.59385700       0.51422200      -1.10253800
O       10.07806479       0.00000459      10.01637168       0.45633100       1.18761700       0.02103100
O        4.55609327       1.58890409       7.20147212       0.15045600      -1.77247400       0.08679800
O        3.77011407       1.55262851       9.88709484      -0.24316500      -0.40678200      -0.60643300
Ga       0.01791507       3.11132461       4.51746226      -0.98707900      -1.25712800       0.13697000
Ga      11.10158075       3.17749135       1.21122239       0.26251700       0.29973600      -0.15201400
Ga       6.27891781       4.64736015       4.55874787      -0.20597400       0.72628300      -1.17811000
Ga       4.84861579       4.62081825       1.19842423       0.68991000       0.40584300       0.79523300
Ga       1.56783196       3.08738552       1.80855069      -0.40158300       1.05040300      -0.67375400
Ga       9.58871650       3.06603028       3.95467967      -0.40184700      -0.25785300      -0.23193800
Ga       7.83688879       4.69537317       1.81568322      -0.86896700       0.55263400      -0.12909300
Ga       3.29379744       4.63266104       3.88955029      -0.18382700       0.27869600      -0.18251400
O        1.95080279       3.00473099       0.58037893      -0.74668200       0.49934000       0.87334600
O        9.24580963       2.96989499       5.24983569      -1.37699900       1.23477200      -0.77108600
O        8.22186305       4.62517645       0.49172010       0.25994400       1.99928900      -0.05164000
O        2.90742339       4.60643781       5.25146669       1.01989300      -0.62557300       0.67549200
O        1.36847156       3.12333292       3.19696243       0.45326100       0.27124300       0.26394500
O        9.73747521       3.02426418       2.49040952      -0.44907700       0.49717700       0.69627000
O        7.69721998       4.63054962       3.21395123       0.83917900       0.05913700       1.06252700
O        3.54846356       4.63167348       2.52892248       0.37528500       1.29642400      -1.72990500
O       -0.25916735       3.08761399       1.48178432       1.59385700       0.51422200      -1.10253800
O       11.46898879       3.08712459       4.30073668       0.45633100       1.18761700       0.02103100
O        5.94701727       4.67602409       1.48583712       0.15045600      -1.77247400       0.08679800
O        5.16103807       4.63974851       4.17145984      -0.24316500      -0.40678200      -0.60643300
Ga      -1.37300893       3.11132461      10.23309726      -0.98707900      -1.25712800       0.13697000
Ga       9.71065675       3.17749135       6.92685739       0.26251700       0.29973600      -0.15201400
Ga       4.88799381       4.64736015      10.27438287      -0.20597400       0.72628300      -1.17811000
Ga       3.45769179       4.62081825       6.91405923       0.68991000       0.40584300       0.79523300
Ga       0.17690796       3.08738552       7.52418569      -0.40158300       1.05040300      -0.67375400
Ga       8.19779250       3.06603028       9.67031467      -0.40184700      -0.25785300      -0.23193800
Ga       6.44596479       4.69537317       7.53131822      -0.86896700       0.55263400      -0.12909300
Ga       1.90287344       4.63266104       9.60518529      -0.18382700       0.27869600      -0.18251400
O        0.55987879       3.00473099       6.29601393      -0.74668200       0.49934000       0.87334600
O        7.85488563       2.96989499      10.96547069      -1.37699900       1.23477200      -0.77108600
O        6.83093905       4.62517645       6.20735510       0.25994400       1.99928900      -0.05164000
O        1.51649939       4.60643781      10.96710169       1.01989300      -0.62557300       0.67549200
O       -0.02245244       3.12333292       8.91259743       0.45326100       0.27124300       0.26394500
O        8.34655121       3.02426418       8.20604452      -0.44907700       0.49717700       0.69627000
O        6.30629598       4.63054962       8.92958623       0.83917900       0.05913700       1.06252700
O        2.15753956       4.63167348       8.24455748       0.37528500       1.29642400      -1.72990500
O       -1.65009135       3.08761399       7.19741932       1.59385700       0.51422200      -1.10253800
O       10.07806479       3.08712459      10.01637168       0.45633100       1.18761700       0.02103100
O        4.55609327       4.67602409       7.20147212       0.15045600      -1.77247400       0.08679800
O        3.77011407       4.63974851       9.88709484      -0.24316500      -0.40678200      -0.60643300
Ga      12.48677607       0.02420461       4.51746226      -0.98707900      -1.25712800       0.13697000
Ga      23.57044175       0.09037135       1.21122239       0.26251700       0.29973600      -0.15201400
Ga      18.74777881       1.56024015       4.55874787      -0.20597400       0.72628300      -1.17811000
Ga      17.31747679       1.53369825       1.19842423       0.68991000       0.40584300       0.79523300
Ga      14.03669296       0.00026552       1.80855069      -0.40158300       1.05040300      -0.67375400
Ga      22.05757750      -0.02108972       3.95467967      -0.40184700      -0.25785300      -0.23193800
Ga      20.30574979       1.60825317       1.81568322      -0.86896700       0.55263400      -0.12909300
Ga      15.76265844       1.54554104       3.88955029      -0.18382700       0.27869600      -0.18251400
O       14.41966379      -0.08238901       0.58037893      -0.74668200       0.49934000       0.87334600
O       21.71467063      -0.11722501       5.24983569      -1.37699900       1.23477200      -0.77108600
O       20.69072405       1.53805645       0.49172010       0.25994400       1.99928900      -0.05164000
O       15.37628439       1.51931781       5.25146669       1.01989300      -0.62557300       0.67549200
O       13.83733256       0.03621292       3.19696243       0.45326100       0.27124300       0.26394500
O       22.20633621      -0.06285582       2.49040952      -0.44907700       0.49717700       0.69627000
O       20.16608098       1.54342962       3.21395123       0.83917900       0.05913700       1.06252700
O       16.01732456       1.54455348       2.52892248       0.37528500       1.29642400      -1.72990500
O       12.20969365       0.00049399       1.48178432       1.59385700       0.51422200      -1.10253800
O       23.93784979       0.00000459       4.30073668       0.45633100       1.18761700       0.02103100
O       18.41587827       1.58890409       1.48583712       0.15045600      -1.77247400       0.08679800
O       17.62989907       1.55262851       4.17145984      -0.24316500      -0.40678200      -0.60643300
Ga      11.09585207       0.02420461      10.23309726      -0.98707900      -1.25712800       0.13697000
Ga      22.17951775       0.09037135       6.92685739       0.26251700       0.29973600      -0.15201400
Ga      17.35685481       1.56024015      10.27438287      -0.20597400       0.72628300      -1.17811000
Ga      15.92655279       1.53369825       6.91405923       0.68991000       0.40584300       0.79523300
Ga      12.64576896       0.00026552       7.52418569      -0.40158300       1.05040300      -0.67375400
Ga      20.66665350      -0.02108972       9.67031467      -0.40184700      -0.25785300      -0.23193800
Ga      18.91482579       1.60825317       7.53131822      -0.86896700       0.55263400      -0.12909300
Ga      14.37173444       1.54554104       9.60518529      -0.18382700       0.27869600      -0.18251400
O       13.02873979      -0.08238901       6.29601393      -0.74668200       0.49934000       0.87334600
O       20.32374663      -0.11722501      10.96547069      -1.37699900       1.23477200      -0.77108600
O       19.29980005       1.53805645       6.20735510       0.25994400       1.99928900      -0.05164000
O       13.98536039       1.51931781      10.96710169       1.01989300      -0.62557300       0.67549200
O       12.44640856       0.03621292       8.91259743       0.45326100       0.27124300       0.26394500
O       20.81541221      -0.06285582       8.20604452      -0.44907700       0.49717700       0.69627000
O       18.77515698       1.54342962       8.92958623       0.83917900       0.05913700       1.06252700
O       14.62640056       1.54455348       8.24455748       0.37528500       1.29642400      -1.72990500
O       10.81876965       0.00049399       7.19741932       1.59385700       0.51422200      -1.10253800
O       22.54692579       0.00000459      10.01637168       0.45633100       1.18761700       0.02103100
O       17.02495427       1.58890409       7.20147212       0.15045600      -1.77247400       0.08679800
O       16.23897507       1.55262851       9.88709484      -0.24316500      -0.40678200      -0.60643300
Ga      12.48677607       3.11132461       4.51746226      -0.98707900      -1.25712800       0.13697000
Ga      23.57044175       3.17749135       1.21122239       0.26251700       0.29973600      -0.15201400
Ga      18.74777881       4.64736015       4.55874787      -0.20597400       0.72628300      -1.17811000
Ga      17.31747679       4.62081825       1.19842423       0.68991000       0.40584300       0.79523300
Ga      14.03669296       3.08738552       1.80855069      -0.40158300       1.05040300      -0.67375400
Ga      22.05757750       3.06603028       3.95467967      -0.40184700      -0.25785300      -0.23193800
Ga      20.30574979       4.69537317       1.81568322      -0.86896700       0.55263400      -0.12909300
Ga      15.76265844       4.63266104       3.88955029      -0.18382700       0.27869600      -0.18251400
O       14.41966379       3.00473099       0.58037893      -0.74668200       0.49934000       0.87334600
O       21.71467063       2.96989499       5.24983569      -1.37699900       1.23477200      -0.77108600
O       20.69072405       4.62517645       0.49172010       0.25994400       1.99928900      -0.05164000
O       15.37628439       4.60643781       5.25146669       1.01989300      -0.62557300       0.67549200
O       13.83733256       3.12333292       3.19696243       0.45326100       0.27124300       0.26394500
O       22.20633621       3.02426418       2.49040952      -0.44907700       0.49717700       0.69627000
O       20.16608098       4.63054962       3.21395123       0.83917900       0.05913700       1.06252700
O       16.01732456       4.63167348       2.52892248       0.37528500       1.29642400      -1.72990500
O       12.20969365       3.08761399       1.48178432       1.59385700       0.51422200      -1.10253800
O       23.93784979       3.08712459       4.30073668       0.45633100       1.18761700       0.02103100
O       18.41587827       4.67602409       1.48583712       0.15045600      -1.77247400       0.08679800
O       17.62989907       4.63974851       4.17145984      -0.24316500      -0.40678200      -0.60643300
Ga      11.09585207       3.11132461      10.23309726      -0.98707900      -1.25712800       0.13697000
Ga      22.17951775       3.17749135       6.92685739       0.26251700       0.29973600      -0.15201400
Ga      17.35685481       4.64736015      10.27438287      -0.20597400       0.72628300      -1.17811000
Ga      15.92655279       4.62081825       6.91405923       0.68991000       0.40584300       0.79523300
Ga      12.64576896       3.08738552       7.52418569      -0.40158300       1.05040300      -0.67375400
Ga      20.66665350       3.06603028       9.67031467      -0.40184700      -0.25785300      -0.23193800
Ga      18.91482579       4.69537317       7.53131822      -0.86896700       0.55263400      -0.12909300
Ga      14.37173444       4.63266104       9.60518529      -0.18382700       0.27869600      -0.18251400
O       13.02873979       3.00473099       6.29601393      -0.74668200       0.49934000       0.87334600
O       20.32374663       2.96989499      10.96547069      -1.37699900       1.23477200      -0.77108600
O       19.29980005       4.62517645       6.20735510       0.25994400       1.99928900      -0.05164000
O       13.98536039       4.60643781      10.96710169       1.01989300      -0.62557300       0.67549200
O       12.44640856       3.12333292       8.91259743       0.45326100       0.27124300       0.26394500
O       20.81541221       3.02426418       8.20604452      -0.44907700       0.49717700       0.69627000
O       18.77515698       4.63054962       8.92958623       0.83917900       0.05913700       1.06252700
O       14.62640056       4.63167348       8.24455748       0.37528500       1.29642400      -1.72990500
O       10.81876965       3.08761399       7.19741932       1.59385700       0.51422200      -1.10253800
O       22.54692579       3.08712459      10.01637168       0.45633100       1.18761700       0.02103100
O       17.02495427       4.67602409       7.20147212       0.15045600      -1.77247400       0.08679800
O       16.23897507       4.63974851       9.88709484      -0.24316500      -0.40678200      -0.60643300
160
Lattice="24.857856 0.0 0.0 0.0 6.154466 0.0 -2.772939 0.0 11.394659" Properties=species:S:1:pos:R:3:force:R:3 Energy=-631.530005 Virial="-24.020718 -20.250318 1.678414 14.229077 -8.989006 5.011879 16.468514 11.766635 -11.161022" pbc="T T T"
Ga       0.00894259      -0.05465853       4.50532810      -1.02039500       0.41115900       0.01377700
Ga      11.02764390       0.02932994       1.22224350       1.59563700       0.36745800       2.65344300
Ga       6.24010940       1.52526324       4.55450149       0.61419800       0.56160800       1.41635000
Ga       4.83117070       1.54336766       1.20261602       0.58332500       0.05267700       0.64125900
Ga       1.51118926      -0.00096093       1.70878258       0.89939100      -0.11523900      -1.01453600
Ga       9.56245380      -0.01966766       3.96305088       0.67801900      -0.23242800      -0.80615700
Ga       7.72381591       1.55070548       1.79229128       1.97055900       0.04545200      -1.07365900
Ga       3.26831498       1.55780087       3.95830629       1.49562100       0.15738700       2.35286300
O        1.97960730       0.02970892       0.48714800      -0.03670400       1.32841100       0.12163800
O        9.07821946       0.04555743       5.12188887      -0.45379700       0.34793800      -0.58298900
O        8.14711819       1.54397413       0.58829737      -0.05152400       0.30335400      -0.33233900
O        2.94037636       1.53739338       5.24423035       0.63566900       0.72685900      -0.80167600
O        1.40948412       0.02218929       3.15180548      -0.00994000      -0.57616500      -0.75118100
O        9.62003834      -0.01037872       2.45826713      -0.04499000       0.61250500       0.34592300
O        7.57813946       1.57065467       3.21838132       0.15597400       0.51308500      -0.03918900
O        3.43775957       1.65605552       2.56915374      -0.32396800       0.03970200       0.59503000
O       -0.30641912       0.04565694       1.43533716       1.34143000      -1.45405300       0.06546500
O       11.35783526      -0.01442267       4.19034189      -0.01733400      -0.65460300      -0.21708900
O        5.93054822       1.53838043       1.46124821       0.80537600      -0.00708400      -0.03397900
O        5.13212990       1.50269247       4.30234648      -0.93994300      -0.23558100      -0.21134300
Ga      -1.38198141      -0.05465853      10.22096310      -1.02039500       0.41115900       0.01377700
Ga       9.63671990       0.02932994       6.93787850       1.59563700       0.36745800       2.65344300
Ga       4.84918540       1.52526324      10.27013649       0.61419800       0.56160800       1.41635000
Ga       3.44024670       1.54336766       6.91825102       0.58332500       0.05267700       0.64125900
Ga       0.12026526      -0.00096093       7.42441758       0.89939100      -0.11523900      -1.01453600
Ga       8.17152980      -0.01966766       9.67868588       0.67801900      -0.23242800      -0.80615700
Ga       6.33289191       1.55070548       7.50792628       1.97055900       0.04545200      -1.07365900
Ga       1.87739098       1.55780087       9.67394129       1.49562100       0.15738700       2.35286300
O        0.58868330       0.02970892       6.20278300      -0.03670400       1.32841100       0.12163800
O        7.68729546       0.04555743      10.83752387      -0.45379700       0.34793800      -0.58298900
O        6.75619419       1.54397413       6.30393237      -0.05152400       0.30335400      -0.33233900
O        1.54945236       1.53739338      10.95986535       0.63566900       0.72685900      -0.80167600
O        0.01856012       0.02218929       8.86744048      -0.00994000      -0.57616500      -0.75118100
O        8.22911434      -0.01037872       8.17390213      -0.04499000       0.61250500       0.34592300
O        6.18721546       1.57065467       8.93401632       0.15597400       0.51308500      -0.03918900
O        2.04683557       1.65605552       8.28478874      -0.32396800       0.03970200       0.59503000
O       -1.69734312       0.04565694       7.15097216       1.34143000      -1.45405300       0.06546500
O        9.96691126      -0.01442267       9.90597689      -0.01733400      -0.65460300      -0.21708900
O        4.53962422       1.53838043       7.17688321       0.80537600      -0.00708400      -0.03397900
O        3.74120590       1.50269247      10.01798148      -0.93994300      -0.23558100      -0.21134300
Ga       0.00894259       3.03246147       4.50532810      -1.02039500       0.41115900       0.01377700
Ga      11.02764390       3.11644994       1.22224350       1.59563700       0.36745800       2.65344300
Ga       6.24010940       4.61238324       4.55450149       0.61419800       0.56160800       1.41635000
Ga       4.83117070       4.63048766       1.20261602       0.58332500       0.05267700       0.64125900
Ga       1.51118926       3.08615907       1.70878258       0.89939100      -0.11523900      -1.01453600
Ga       9.56245380       3.06745234       3.96305088       0.67801900      -0.23242800      -0.80615700
Ga       7.72381591       4.63782548       1.79229128       1.97055900       0.04545200      -1.07365900
Ga       3.26831498       4.64492087       3.95830629       1.49562100       0.15738700       2.35286300
O        1.97960730       3.11682892       0.48714800      -0.03670400       1.32841100       0.12163800
O        9.07821946       3.13267743       5.12188887      -0.45379700       0.34793800      -0.58298900
O        8.14711819       4.63109413       0.58829737      -0.05152400       0.30335400      -0.33233900
O        2.94037636       4.62451338       5.24423035       0.63566900       0.72685900      -0.80167600
O        1.40948412       3.10930929       3.15180548      -0.00994000      -0.57616500      -0.75118100
O        9.62003834       3.07674128       2.45826713      -0.04499000       0.61250500       0.34592300
O        7.57813946       4.65777467       3.21838132       0.15597400       0.51308500      -0.03918900
O        3.43775957       4.74317552       2.56915374      -0.32396800       0.03970200       0.59503000
O       -0.30641912       3.13277694       1.43533716       1.34143000      -1.45405300       0.06546500
O       11.35783526       3.07269733       4.19034189      -0.01733400      -0.65460300      -0.21708900
O        5.93054822       4.62550043       1.46124821       0.80537600      -0.00708400      -0.03397900
O        5.13212990       4.58981247       4.30234648      -0.93994300      -0.23558100      -0.21134300
Ga      -1.38198141       3.03246147      10.22096310      -1.02039500       0.41115900       0.01377700
Ga       9.63671990       3.11644994       6.93787850       1.59563700       0.36745800       2.65344300
Ga       4.84918540       4.61238324      10.27013649       0.61419800       0.56160800       1.41635000
Ga       3.44024670       4.63048766       6.91825102       0.58332500       0.05267700       0.64125900
Ga       0.12026526       3.08615907       7.42441758       0.89939100      -0.11523900      -1.01453600
Ga       8.17152980       3.06745234       9.67868588       0.67801900      -0.23242800      -0.80615700
Ga       6.33289191       4.63782548       7.50792628       1.97055900       0.04545200      -1.07365900
Ga       1.87739098       4.64492087       9.67394129       1.49562100       0.15738700       2.35286300
O        0.58868330       3.11682892       6.20278300      -0.03670400       1.32841100       0.12163800
O        7.68729546       3.13267743      10.83752387      -0.45379700       0.34793800      -0.58298900
O        6.75619419       4.63109413       6.30393237      -0.05152400       0.30335400      -0.33233900
O        1.54945236       4.62451338      10.95986535       0.63566900       0.72685900      -0.80167600
O        0.01856012       3.10930929       8.86744048      -0.00994000      -0.57616500      -0.75118100
O        8.22911434       3.07674128       8.17390213      -0.04499000       0.61250500       0.34592300
O        6.18721546       4.65777467       8.93401632       0.15597400       0.51308500      -0.03918900
O        2.04683557       4.74317552       8.28478874      -0.32396800       0.03970200       0.59503000
O       -1.69734312       3.13277694       7.15097216       1.34143000      -1.45405300       0.06546500
O        9.96691126       3.07269733       9.90597689      -0.01733400      -0.65460300      -0.21708900
O        4.53962422       4.62550043       7.17688321       0.80537600      -0.00708400      -0.03397900
O        3.74120590       4.58981247      10.01798148      -0.93994300      -0.23558100      -0.21134300
Ga      12.47780359      -0.05465853       4.50532810      -1.02039500       0.41115900       0.01377700
Ga      23.49650490       0.02932994       1.22224350       1.59563700       0.36745800       2.65344300
Ga      18.70897040       1.52526324       4.55450149       0.61419800       0.56160800       1.41635000
Ga      17.30003170       1.54336766       1.20261602       0.58332500       0.05267700       0.64125900
Ga      13.98005026      -0.00096093       1.70878258       0.89939100      -0.11523900      -1.01453600
Ga      22.03131480      -0.01966766       3.96305088       0.67801900      -0.23242800      -0.80615700
Ga      20.19267691       1.55070548       1.79229128       1.97055900       0.04545200      -1.07365900
Ga      15.73717598       1.55780087       3.95830629       1.49562100       0.15738700       2.35286300
O       14.44846830       0.02970892       0.48714800      -0.03670400       1.32841100       0.12163800
O       21.54708046       0.04555743       5.12188887      -0.45379700       0.34793800      -0.58298900
O       20.61597919       1.54397413       0.58829737      -0.05152400       0.30335400      -0.33233900
O       15.40923736       1.53739338       5.24423035       0.63566900       0.72685900      -0.80167600
O       13.87834512       0.02218929       3.15180548      -0.00994000      -0.57616500      -0.75118100
O       22.08889934      -0.01037872       2.45826713      -0.04499000       0.61250500       0.34592300
O       20.04700046       1.57065467       3.21838132       0.15597400       0.51308500      -0.03918900
O       15.90662057       1.65605552       2.56915374      -0.32396800       0.03970200       0.59503000
O       12.16244188       0.04565694       1.43533716       1.34143000      -1.45405300       0.06546500
O       23.82669626      -0.01442267       4.19034189      -0.01733400      -0.65460300      -0.21708900
O       18.39940922       1.53838043       1.46124821       0.80537600      -0.00708400      -0.03397900
O       17.60099090       1.50269247       4.30234648      -0.93994300      -0.23558100      -0.21134300
Ga      11.08687959      -0.05465853      10.22096310      -1.02039500       0.41115900       0.01377700
Ga      22.10558090       0.02932994       6.93787850       1.59563700       0.36745800       2.65344300
Ga      17.31804640       1.52526324      10.27013649       0.61419800       0.56160800       1.41635000
Ga      15.90910770       1.54336766       6.91825102       0.58332500       0.05267700       0.64125900
Ga      12.58912626      -0.00096093       7.42441758       0.89939100      -0.11523900      -1.01453600
Ga      20.64039080      -0.01966766       9.67868588       0.67801900      -0.23242800      -0.80615700
Ga      18.80175291       1.55070548       7.50792628       1.97055900       0.04545200      -1.07365900
Ga      14.34625198       1.55780087       9.67394129       1.49562100       0.15738700       2.35286300
O       13.05754430       0.02970892       6.20278300      -0.03670400       1.32841100       0.12163800
O       20.15615646       0.04555743      10.83752387      -0.45379700       0.34793800      -0.58298900
O       19.22505519       1.54397413       6.30393237      -0.05152400       0.30335400      -0.33233900
O       14.01831336       1.53739338      10.95986535       0.63566900       0.72685900      -0.80167600
O       12.48742112       0.02218929       8.86744048      -0.00994000      -0.57616500      -0.75118100
O       20.69797534      -0.01037872       8.17390213      -0.04499000       0.61250500       0.34592300
O       18.65607646       1.57065467       8.93401632       0.15597400       0.51308500      -0.03918900
O       14.51569657       1.65605552       8.28478874      -0.32396800       0.03970200       0.59503000
O       10.77151788       0.04565694       7.15097216       1.34143000      -1.45405300       0.06546500
O       22.43577226      -0.01442267       9.90597689      -0.01733400      -0.65460300      -0.21708900
O       17.00848522       1.53838043       7.17688321       0.80537600      -0.00708400      -0.03397900
O       16.21006690       1.50269247      10.01798148      -0.93994300      -0.23558100      -0.21134300
Ga      12.47780359       3.03246147       4.50532810      -1.02039500       0.41115900       0.01377700
Ga      23.49650490       3.11644994       1.22224350       1.59563700       0.36745800       2.65344300
Ga      18.70897040       4.61238324       4.55450149       0.61419800       0.56160800       1.41635000
Ga      17.30003170       4.63048766       1.20261602       0.58332500       0.05267700       0.64125900
Ga      13.98005026       3.08615907       1.70878258       0.89939100      -0.11523900      -1.01453600
Ga      22.03131480       3.06745234       3.96305088       0.67801900      -0.23242800      -0.80615700
Ga      20.19267691       4.63782548       1.79229128       1.97055900       0.04545200      -1.07365900
Ga      15.73717598       4.64492087       3.95830629       1.49562100       0.15738700       2.35286300
O       14.44846830       3.11682892       0.48714800      -0.03670400       1.32841100       0.12163800
O       21.54708046       3.13267743       5.12188887      -0.45379700       0.34793800      -0.58298900
O       20.61597919       4.63109413       0.58829737      -0.05152400       0.30335400      -0.33233900
O       15.40923736       4.62451338       5.24423035       0.63566900       0.72685900      -0.80167600
O       13.87834512       3.10930929       3.15180548      -0.00994000      -0.57616500      -0.75118100
O       22.08889934       3.07674128       2.45826713      -0.04499000       0.61250500       0.34592300
O       20.04700046       4.65777467       3.21838132       0.15597400       0.51308500      -0.03918900
O       15.90662057       4.74317552       2.56915374      -0.32396800       0.03970200       0.59503000
O       12.16244188       3.13277694       1.43533716       1.34143000      -1.45405300       0.06546500
O       23.82669626       3.07269733       4.19034189      -0.01733400      -0.65460300      -0.21708900
O       18.39940922       4.62550043       1.46124821       0.80537600      -0.00708400      -0.03397900
O       17.60099090       4.58981247       4.30234648      -0.93994300      -0.23558100      -0.21134300
Ga      11.08687959       3.03246147      10.22096310      -1.02039500       0.41115900       0.01377700
Ga      22.10558090       3.11644994       6.93787850       1.59563700       0.36745800       2.65344300
Ga      17.31804640       4.61238324      10.27013649       0.61419800       0.56160800       1.41635000
Ga      15.90910770       4.63048766       6.91825102       0.58332500       0.05267700       0.64125900
Ga      12.58912626       3.08615907       7.42441758       0.89939100      -0.11523900      -1.01453600
Ga      20.64039080       3.06745234       9.67868588       0.67801900      -0.23242800      -0.80615700
Ga      18.80175291       4.63782548       7.50792628       1.97055900       0.04545200      -1.07365900
Ga      14.34625198       4.64492087       9.67394129       1.49562100       0.15738700       2.35286300
O       13.05754430       3.11682892       6.20278300      -0.03670400       1.32841100       0.12163800
O       20.15615646       3.13267743      10.83752387      -0.45379700       0.34793800      -0.58298900
O       19.22505519       4.63109413       6.30393237      -0.05152400       0.30335400      -0.33233900
O       14.01831336       4.62451338      10.95986535       0.63566900       0.72685900      -0.80167600
O       12.48742112       3.10930929       8.86744048      -0.00994000      -0.57616500      -0.75118100
O       20.69797534       3.07674128       8.17390213      -0.04499000       0.61250500       0.34592300
O       18.65607646       4.65777467       8.93401632       0.15597400       0.51308500      -0.03918900
O       14.51569657       4.74317552       8.28478874      -0.32396800       0.03970200       0.59503000
O       10.77151788       3.13277694       7.15097216       1.34143000      -1.45405300       0.06546500
O       22.43577226       3.07269733       9.90597689      -0.01733400      -0.65460300      -0.21708900
O       17.00848522       4.62550043       7.17688321       0.80537600      -0.00708400      -0.03397900
O       16.21006690       4.58981247      10.01798148      -0.93994300      -0.23558100      -0.21134300
160
Lattice="25.136466 0.0 0.0 0.0 6.223446 0.0 -2.804018 0.0 11.522371" Properties=species:S:1:pos:R:3:force:R:3 Energy=-631.449163 Virial="18.241714 -11.824274 7.872448 -15.42669 18.7615 14.984064 -3.263461 -6.244563 10.056893" pbc="T T T"
Ga      -0.03709049      -0.01655271       4.62471099       0.02017200       0.07909000       0.33919500
Ga      11.16275980      -0.00197716       1.20365320      -0.71600100      -0.22104700      -0.71860900
Ga       6.26335680       1.58732063       4.59269727      -0.06113700      -0.15876300      -1.61022000
Ga       4.86212869       1.54870502       1.19258951      -0.44499400      -0.72064300       0.12896700
Ga       1.54183944      -0.01295529       1.88171982       0.62958000       0.01402800      -0.34628600
Ga       9.54995181      -0.06263875       3.98228166      -0.79846300      -0.05995100       0.19703700
Ga       7.78813762       1.47572028       1.85073584      -1.11023400       1.65320700       1.41074000
Ga       3.37969902       1.50354006       3.87920781      -0.56214700      -0.61291600       0.72571400
O        1.88064985      -0.02799638       0.61810832      -0.75342800       1.20634700       1.79548100
O        9.21963250       0.03327431       5.24850498      -0.68716000       0.01174400       0.28099300
O        8.26641442       1.53082226       0.54114404       0.22591000       1.41946400       1.39694500
O        2.94393774       1.57738132       5.26826965       0.04582300      -0.71935400       0.71989400
O        1.47911943      -0.01562515       3.22039674       0.52647900       0.15296200       1.36378300
O        9.80890922       0.02447074       2.61504811       0.35943600       0.26241900      -1.66035100
O        7.67178501       1.53996398       3.26979335      -0.47803300       0.40304100      -0.63384200
O        3.50224585       1.57747112       2.54353728      -0.36026000       0.09600100      -0.24673400
O       -0.27155739      -0.03460308       1.45653313       0.19974100       0.04384200       0.23741800
O       11.36893508      -0.02510287       4.32358520       0.66848500       1.00436300       1.61588600
O        5.97733103       1.51890476       1.53204267       0.89758000      -1.20063900       0.64384600
O        5.19628933       1.62361152       4.32058952      -1.74270200       0.76406700      -0.10391300
Ga      -1.42801449      -0.01655271      10.34034599       0.02017200       0.07909000       0.33919500
Ga       9.77183580      -0.00197716       6.91928820      -0.71600100      -0.22104700      -0.71860900
Ga       4.87243280       1.58732063      10.30833227      -0.06113700      -0.15876300      -1.61022000
Ga       3.47120469       1.54870502       6.90822451      -0.44499400      -0.72064300       0.12896700
Ga       0.15091544      -0.01295529       7.59735482       0.62958000       0.01402800      -0.34628600
Ga       8.15902781      -0.06263875       9.69791666      -0.79846300      -0.05995100       0.19703700
Ga       6.39721362       1.47572028       7.56637084      -1.11023400       1.65320700       1.41074000
Ga       1.98877502       1.50354006       9.59484281      -0.56214700      -0.61291600       0.72571400
O        0.48972585      -0.02799638       6.33374332      -0.75342800       1.20634700       1.79548100
O        7.82870850       0.03327431      10.96413998      -0.68716000       0.01174400       0.28099300
O        6.87549042       1.53082226       6.25677904       0.22591000       1.41946400       1.39694500
O        1.55301374       1.57738132      10.98390465       0.04582300      -0.71935400       0.71989400
O        0.08819543      -0.01562515       8.93603174       0.52647900       0.15296200       1.36378300
O        8.41798522       0.02447074       8.33068311       0.35943600       0.26241900      -1.66035100
O        6.28086101       1.53996398       8.98542835      -0.47803300       0.40304100      -0.63384200
O        2.11132185       1.57747112       8.25917228      -0.36026000       0.09600100      -0.24673400
O       -1.66248139      -0.03460308       7.17216813       0.19974100       0.04384200       0.23741800
O        9.97801108      -0.02510287      10.03922020       0.66848500       1.00436300       1.61588600
O        4.58640703       1.51890476       7.24767767       0.89758000      -1.20063900       0.64384600
O        3.80536533       1.62361152      10.03622452      -1.74270200       0.76406700      -0.10391300
Ga      -0.03709049       3.07056729       4.62471099       0.02017200       0.07909000       0.33919500
Ga      11.16275980       3.08514284       1.20365320      -0.71600100      -0.22104700      -0.71860900
Ga       6.26335680       4.67444063       4.59269727      -0.06113700      -0.15876300      -1.61022000
Ga       4.86212869       4.63582502       1.19258951      -0.44499400      -0.72064300       0.12896700
Ga       1.54183944       3.07416471       1.88171982       0.62958000       0.01402800      -0.34628600
Ga       9.54995181       3.02448125       3.98228166      -0.79846300      -0.05995100       0.19703700
Ga       7.78813762       4.56284028       1.85073584      -1.11023400       1.65320700       1.41074000
Ga       3.37969902       4.59066006       3.87920781      -0.56214700      -0.61291600       0.72571400
O        1.88064985       3.05912362       0.61810832      -0.75342800       1.20634700       1.79548100
O        9.21963250       3.12039431       5.24850498      -0.68716000       0.01174400       0.28099300
O        8.26641442       4.61794226       0.54114404       0.22591000       1.41946400       1.39694500
O        2.94393774       4.66450132       5.26826965       0.04582300      -0.71935400       0.71989400
O        1.47911943       3.07149485       3.22039674       0.52647900       0.15296200       1.36378300
O        9.80890922       3.11159074       2.61504811       0.35943600       0.26241900      -1.66035100
O        7.67178501       4.62708398       3.26979335      -0.47803300       0.40304100      -0.63384200
O        3.50224585       4.66459112       2.54353728      -0.36026000       0.09600100      -0.24673400
O       -0.27155739       3.05251692       1.45653313       0.19974100       0.04384200       0.23741800
O       11.36893508       3.06201713       4.32358520       0.66848500       1.00436300       1.61588600
O        5.97733103       4.60602476       1.53204267       0.89758000      -1.20063900       0.64384600
O        5.19628933       4.71073152       4.32058952      -1.74270200       0.76406700      -0.10391300
Ga      -1.42801449       3.07056729      10.34034599       0.02017200       0.07909000       0.33919500
Ga       9.77183580       3.08514284       6.91928820      -0.71600100      -0.22104700      -0.71860900
Ga       4.87243280       4.67444063      10.30833227      -0.06113700      -0.15876300      -1.61022000
Ga       3.47120469       4.63582502       6.90822451      -0.44499400      -0.72064300       0.12896700
Ga       0.15091544       3.07416471       7.59735482       0.62958000       0.01402800      -0.34628600
Ga       8.15902781       3.02448125       9.69791666      -0.79846300      -0.05995100       0.19703700
Ga       6.39721362       4.56284028       7.56637084      -1.11023400       1.65320700       1.41074000
Ga       1.98877502       4.59066006       9.59484281      -0.56214700      -0.61291600       0.72571400
O        0.48972585       3.05912362       6.33374332      -0.75342800       1.20634700       1.79548100
O        7.82870850       3.12039431      10.96413998      -0.68716000       0.01174400       0.28099300
O        6.87549042       4.61794226       6.25677904       0.22591000       1.41946400       1.39694500
O        1.55301374       4.66450132      10.98390465       0.04582300      -0.71935400       0.71989400
O        0.08819543       3.07149485       8.93603174       0.52647900       0.15296200       1.36378300
O        8.41798522       3.11159074       8.33068311       0.35943600       0.26241900      -1.66035100
O        6.28086101       4.62708398       8.98542835      -0.47803300       0.40304100      -0.63384200
O        2.11132185       4.66459112       8.25917228      -0.36026000       0.09600100      -0.24673400
O       -1.66248139       3.05251692       7.17216813       0.19974100       0.04384200       0.23741800
O        9.97801108       3.06201713      10.03922020       0.66848500       1.00436300       1.61588600
O        4.58640703       4.60602476       7.24767767       0.89758000      -1.20063900       0.64384600
O        3.80536533       4.71073152      10.03622452      -1.74270200       0.76406700      -0.10391300
Ga      12.43177051      -0.01655271       4.62471099       0.02017200       0.07909000       0.33919500
Ga      23.63162080      -0.00197716       1.20365320      -0.71600100      -0.22104700      -0.71860900
Ga      18.73221780       1.58732063       4.59269727      -0.06113700      -0.15876300      -1.61022000
Ga      17.33098969       1.54870502       1.19258951      -0.44499400      -0.72064300       0.12896700
Ga      14.01070044      -0.01295529       1.88171982       0.62958000       0.01402800      -0.34628600
Ga      22.01881281      -0.06263875       3.98228166      -0.79846300      -0.05995100       0.19703700
Ga      20.25699862       1.47572028       1.85073584      -1.11023400       1.65320700       1.41074000
Ga      15.84856002       1.50354006       3.87920781      -0.56214700      -0.61291600       0.72571400
O       14.34951085      -0.02799638       0.61810832      -0.75342800       1.20634700       1.79548100
O       21.68849350       0.03327431       5.24850498      -0.68716000       0.01174400       0.28099300
O       20.73527542       1.53082226       0.54114404       0.22591000       1.41946400       1.39694500
O       15.41279874       1.57738132       5.26826965       0.04582300      -0.71935400       0.71989400
O       13.94798043      -0.01562515       3.22039674       0.52647900       0.15296200       1.36378300
O       22.27777022       0.02447074       2.61504811       0.35943600       0.26241900      -1.66035100
O       20.14064601       1.53996398       3.26979335      -0.47803300       0.40304100      -0.63384200
O       15.97110685       1.57747112       2.54353728      -0.36026000       0.09600100      -0.24673400
O       12.19730361      -0.03460308       1.45653313       0.19974100       0.04384200       0.23741800
O       23.83779608      -0.02510287       4.32358520       0.66848500       1.00436300       1.61588600
O       18.44619203       1.51890476       1.53204267       0.89758000      -1.20063900       0.64384600
O       17.66515033       1.62361152       4.32058952      -1.74270200       0.76406700      -0.10391300
Ga      11.04084651      -0.01655271      10.34034599       0.02017200       0.07909000       0.33919500
Ga      22.24069680      -0.00197716       6.91928820      -0.71600100      -0.22104700      -0.71860900
Ga      17.34129380       1.58732063      10.30833227      -0.06113700      -0.15876300      -1.61022000
Ga      15.94006569       1.54870502       6.90822451      -0.44499400      -0.72064300       0.12896700
Ga      12.61977644      -0.01295529       7.59735482       0.62958000       0.01402800      -0.34628600
Ga      20.62788881      -0.06263875       9.69791666      -0.79846300      -0.05995100       0.19703700
Ga      18.86607462       1.47572028       7.56637084      -1.11023400       1.65320700       1.41074000
Ga      14.45763602       1.50354006       9.59484281      -0.56214700      -0.61291600       0.72571400
O       12.95858685      -0.02799638       6.33374332      -0.75342800       1.20634700       1.79548100
O       20.29756950       0.03327431      10.96413998      -0.68716000       0.01174400       0.28099300
O       19.34435142       1.53082226       6.25677904       0.22591000       1.41946400       1.39694500
O       14.02187474       1.57738132      10.98390465       0.04582300      -0.71935400       0.71989400
O       12.55705643      -0.01562515       8.93603174       0.52647900       0.15296200       1.36378300
O       20.88684622       0.02447074       8.33068311       0.35943600       0.26241900      -1.66035100
O       18.74972201       1.53996398       8.98542835      -0.47803300       0.40304100      -0.63384200
O       14.58018285       1.57747112       8.25917228      -0.36026000       0.09600100      -0.24673400
O       10.80637961      -0.03460308       7.17216813       0.19974100       0.04384200       0.23741800
O       22.44687208      -0.02510287      10.03922020       0.66848500       1.00436300       1.61588600
O       17.05526803       1.51890476       7.24767767       0.89758000      -1.20063900       0.64384600
O       16.27422633       1.62361152      10.03622452      -1.74270200       0.76406700      -0.10391300
Ga      12.43177051       3.07056729       4.62471099       0.02017200       0.07909000       0.33919500
Ga      23.63162080       3.08514284       1.20365320      -0.71600100      -0.22104700      -0.71860900
Ga      18.73221780       4.67444063       4.59269727      -0.06113700      -0.15876300      -1.61022000
Ga      17.33098969       4.63582502       1.19258951      -0.44499400      -0.72064300       0.12896700
Ga      14.01070044       3.07416471       1.88171982       0.62958000       0.01402800      -0.34628600
Ga      22.01881281       3.02448125       3.98228166      -0.79846300      -0.05995100       0.19703700
Ga      20.25699862       4.56284028       1.85073584      -1.11023400       1.65320700       1.41074000
Ga      15.84856002       4.59066006       3.87920781      -0.56214700      -0.61291600       0.72571400
O       14.34951085       3.05912362       0.61810832      -0.75342800       1.20634700       1.79548100
O       21.68849350       3.12039431       5.24850498      -0.68716000       0.01174400       0.28099300
O       20.73527542       4.61794226       0.54114404       0.22591000       1.41946400       1.39694500
O       15.41279874       4.66450132       5.26826965       0.04582300      -0.71935400       0.71989400
O       13.94798043       3.07149485       3.22039674       0.52647900       0.15296200       1.36378300
O       22.27777022       3.11159074       2.61504811       0.35943600       0.26241900      -1.66035100
O       20.14064601       4.62708398       3.26979335      -0.47803300       0.40304100      -0.63384200
O       15.97110685       4.66459112       2.54353728      -0.36026000       0.09600100      -0.24673400
O       12.19730361       3.05251692       1.45653313       0.19974100       0.04384200       0.23741800
O       23.83779608       3.06201713       4.32358520       0.66848500       1.00436300       1.61588600
O       18.44619203       4.60602476       1.53204267       0.89758000      -1.20063900       0.64384600
O       17.66515033       4.71073152       4.32058952      -1.74270200       0.76406700      -0.10391300
Ga      11.04084651       3.07056729      10.34034599       0.02017200       0.07909000       0.33919500
Ga      22.24069680       3.08514284       6.91928820      -0.71600100      -0.22104700      -0.71860900
Ga      17.34129380       4.67444063      10.30833227      -0.06113700      -0.15876300      -1.61022000
Ga      15.94006569       4.63582502       6.90822451      -0.44499400      -0.72064300       0.12896700
Ga      12.61977644       3.07416471       7.59735482       0.62958000       0.01402800      -0.34628600
Ga      20.62788881       3.02448125       9.69791666      -0.79846300      -0.05995100       0.19703700
Ga      18.86607462       4.56284028       7.56637084      -1.11023400       1.65320700       1.41074000
Ga      14.45763602       4.59066006       9.59484281      -0.56214700      -0.61291600       0.72571400
O       12.95858685       3.05912362       6.33374332      -0.75342800       1.20634700       1.79548100
O       20.29756950       3.12039431      10.96413998      -0.68716000       0.01174400       0.28099300
O       19.34435142       4.61794226       6.25677904       0.22591000       1.41946400       1.39694500
O       14.02187474       4.66450132      10.98390465       0.04582300      -0.71935400       0.71989400
O       12.55705643       3.07149485       8.93603174       0.52647900       0.15296200       1.36378300
O       20.88684622       3.11159074       8.33068311       0.35943600       0.26241900      -1.66035100
O       18.74972201       4.62708398       8.98542835      -0.47803300       0.40304100      -0.63384200
O       14.58018285       4.66459112       8.25917228      -0.36026000       0.09600100      -0.24673400
O       10.80637961       3.05251692       7.17216813       0.19974100       0.04384200       0.23741800
O       22.44687208       3.06201713      10.03922020       0.66848500       1.00436300       1.61588600
O       17.05526803       4.60602476       7.24767767       0.89758000      -1.20063900       0.64384600
O       16.27422633       4.71073152      10.03622452      -1.74270200       0.76406700      -0.10391300
160
Lattice="25.127381 0.0 0.0 0.0 6.221197 0.0 -2.803005 0.0 11.518207" Properties=species:S:1:pos:R:3:force:R:3 Energy=-631.394525 Virial="-9.577521 -10.875609 -3.650918 9.861012 -24.179028 0.415026 -15.198421 -5.574811 -8.122119" pbc="T T T"
Ga       0.06086154      -0.01056819       4.57597364      -0.17331000       0.65283800      -1.55468700
Ga      11.15503363      -0.02425607       1.08839234      -0.41905400      -0.26075600      -1.06800400
Ga       6.32108357       1.59375383       4.57839243       0.08596300       0.80913400       1.44488900
Ga       4.83312633       1.54207132       1.10178858      -1.49684700       1.04996300      -0.94323400
Ga       1.53892011      -0.04460339       1.78152525      -0.36467700      -0.08147400       0.77929200
Ga       9.56331105      -0.05123910       3.90942844       0.00471400       0.32563300       0.78088500
Ga       7.85940732       1.53490758       1.76519391      -0.24840800       0.22155200       0.75795400
Ga       3.35825351       1.56045805       3.85504632      -0.66948800       0.10445400       0.55744100
O        1.96852854       0.00288294       0.57217103      -0.47881300       0.39488400      -1.10780800
O        9.22447506       0.06418763       5.20247223      -1.32415900       0.43712500       0.52145600
O        8.10511544       1.51972436       0.56144164       0.05087600       0.06159800      -0.56969300
O        2.95800199       1.55039860       5.17829234       0.51040900      -1.17068700      -0.10613000
O        1.39221645      -0.00057502       3.21259366       0.42923200       0.14567000       0.80075600
O        9.79221465       0.00727076       2.53543241       0.01298000      -0.05035200       0.12704500
O        7.63322252       1.60969898       3.29284367      -0.22052800      -0.84198700      -0.07968700
O        3.55863081       1.58326240       2.47852100       1.11861200       1.44304600      -0.29367100
O       -0.38042314      -0.02193692       1.47214097       0.03535200       1.01829500      -0.62130200
O       11.46688418       0.00775007       4.22907496      -0.59913100       0.78757000      -0.57494500
O        6.03761146       1.61550871       1.42187687       0.36047100       2.30706700       0.09781000
O        5.11441110       1.55170935       4.33525644      -1.45582800       1.60115100       0.85318400
Ga      -1.33006246      -0.01056819      10.29160864      -0.17331000       0.65283800      -1.55468700
Ga       9.76410963      -0.02425607       6.80402734      -0.41905400      -0.26075600      -1.06800400
Ga       4.93015957       1.59375383      10.29402743       0.08596300       0.80913400       1.44488900
Ga       3.44220233       1.54207132       6.81742358      -1.49684700       1.04996300      -0.94323400
Ga       0.14799611      -0.04460339       7.49716025      -0.36467700      -0.08147400       0.77929200
Ga       8.17238705      -0.05123910       9.62506344       0.00471400       0.32563300       0.78088500
Ga       6.46848332       1.53490758       7.48082891      -0.24840800       0.22155200       0.75795400
Ga       1.96732951       1.56045805       9.57068132      -0.66948800       0.10445400       0.55744100
O        0.57760454       0.00288294       6.28780603      -0.47881300       0.39488400      -1.10780800
O        7.83355106       0.06418763      10.91810723      -1.32415900       0.43712500       0.52145600
O        6.71419144       1.51972436       6.27707664       0.05087600       0.06159800      -0.56969300
O        1.56707799       1.55039860      10.89392734       0.51040900      -1.17068700      -0.10613000
O        0.00129245      -0.00057502       8.92822866       0.42923200       0.14567000       0.80075600
O        8.40129065       0.00727076       8.25106741       0.01298000      -0.05035200       0.12704500
O        6.24229852       1.60969898       9.00847867      -0.22052800      -0.84198700      -0.07968700
O        2.16770681       1.58326240       8.19415600       1.11861200       1.44304600      -0.29367100
O       -1.77134714      -0.02193692       7.18777597       0.03535200       1.01829500      -0.62130200
O       10.07596018       0.00775007       9.94470996      -0.59913100       0.78757000      -0.57494500
O        4.64668746       1.61550871       7.13751187       0.36047100       2.30706700       0.09781000
O        3.72348710       1.55170935      10.05089144      -1.45582800       1.60115100       0.85318400
Ga       0.06086154       3.07655181       4.57597364      -0.17331000       0.65283800      -1.55468700
Ga      11.15503363       3.06286393       1.08839234      -0.41905400      -0.26075600      -1.06800400
Ga       6.32108357       4.68087383       4.57839243       0.08596300       0.80913400       1.44488900
Ga       4.83312633       4.62919132       1.10178858      -1.49684700       1.04996300      -0.94323400
Ga       1.53892011       3.04251661       1.78152525      -0.36467700      -0.08147400       0.77929200
Ga       9.56331105       3.03588090       3.90942844       0.00471400       0.32563300       0.78088500
Ga       7.85940732       4.62202758       1.76519391      -0.24840800       0.22155200       0.75795400
Ga       3.35825351       4.64757805       3.85504632      -0.66948800       0.10445400       0.55744100
O        1.96852854       3.09000294       0.57217103      -0.47881300       0.39488400      -1.10780800
O        9.22447506       3.15130763       5.20247223      -1.32415900       0.43712500       0.52145600
O        8.10511544       4.60684436       0.56144164       0.05087600       0.06159800      -0.56969300
O        2.95800199       4.63751860       5.17829234       0.51040900      -1.17068700      -0.10613000
O        1.39221645       3.08654498       3.21259366       0.42923200       0.14567000       0.80075600
O        9.79221465       3.09439076       2.53543241       0.01298000      -0.05035200       0.12704500
O        7.63322252       4.69681898       3.29284367      -0.22052800      -0.84198700      -0.07968700
O        3.55863081       4.67038240       2.47852100       1.11861200       1.44304600      -0.29367100
O       -0.38042314       3.06518308       1.47214097       0.03535200       1.01829500      -0.62130200
O       11.46688418       3.09487007       4.22907496      -0.59913100       0.78757000      -0.57494500
O        6.03761146       4.70262871       1.42187687       0.36047100       2.30706700       0.09781000
O        5.11441110       4.63882935       4.33525644      -1.45582800       1.60115100       0.85318400
Ga      -1.33006246       3.07655181      10.29160864      -0.17331000       0.65283800      -1.55468700
Ga       9.76410963       3.06286393       6.80402734      -0.41905400      -0.26075600      -1.06800400
Ga       4.93015957       4.68087383      10.29402743       0.08596300       0.80913400       1.44488900
Ga       3.44220233       4.62919132       6.81742358      -1.49684700       1.04996300      -0.94323400
Ga       0.14799611       3.04251661       7.49716025      -0.36467700      -0.08147400       0.77929200
Ga       8.17238705       3.03588090       9.62506344       0.00471400       0.32563300       0.78088500
Ga       6.46848332       4.62202758       7.48082891      -0.24840800       0.22155200       0.75795400
Ga       1.96732951       4.64757805       9.57068132      -0.66948800       0.10445400       0.55744100
O        0.57760454       3.09000294       6.28780603      -0.47881300       0.39488400      -1.10780800
O        7.83355106       3.15130763      10.91810723      -1.32415900       0.43712500       0.52145600
O        6.71419144       4.60684436       6.27707664       0.05087600       0.06159800      -0.56969300
O        1.56707799       4.63751860      10.89392734       0.51040900      -1.17068700      -0.10613000
O        0.00129245       3.08654498       8.92822866       0.42923200       0.14567000       0.80075600
O        8.40129065       3.09439076       8.25106741       0.01298000      -0.05035200       0.12704500
O        6.24229852       4.69681898       9.00847867      -0.22052800      -0.84198700      -0.07968700
O        2.16770681       4.67038240       8.19415600       1.11861200       1.44304600      -0.29367100
O       -1.77134714       3.06518308       7.18777597       0.03535200       1.01829500      -0.62130200
O       10.07596018       3.09487007       9.94470996      -0.59913100       0.78757000      -0.57494500
O        4.64668746       4.70262871       7.13751187       0.36047100       2.30706700       0.09781000
O        3.72348710       4.63882935      10.05089144      -1.45582800       1.60115100       0.85318400
Ga      12.52972254      -0.01056819       4.57597364      -0.17331000       0.65283800      -1.55468700
Ga      23.62389463      -0.02425607       1.08839234      -0.41905400      -0.26075600      -1.06800400
Ga      18.78994457       1.59375383       4.57839243       0.08596300       0.80913400       1.44488900
Ga      17.30198733       1.54207132       1.10178858      -1.49684700       1.04996300      -0.94323400
Ga      14.00778111      -0.04460339       1.78152525      -0.36467700      -0.08147400       0.77929200
Ga      22.03217205      -0.05123910       3.90942844       0.00471400       0.32563300       0.78088500
Ga      20.32826832       1.53490758       1.76519391      -0.24840800       0.22155200       0.75795400
Ga      15.82711451       1.56045805       3.85504632      -0.66948800       0.10445400       0.55744100
O       14.43738954       0.00288294       0.57217103      -0.47881300       0.39488400      -1.10780800
O       21.69333606       0.06418763       5.20247223      -1.32415900       0.43712500       0.52145600
O       20.57397644       1.51972436       0.56144164       0.05087600       0.06159800      -0.56969300
O       15.42686299       1.55039860       5.17829234       0.51040900      -1.17068700      -0.10613000
O       13.86107745      -0.00057502       3.21259366       0.42923200       0.14567000       0.80075600
O       22.26107565       0.00727076       2.53543241       0.01298000      -0.05035200       0.12704500
O       20.10208352       1.60969898       3.29284367      -0.22052800      -0.84198700      -0.07968700
O       16.02749181       1.58326240       2.47852100       1.11861200       1.44304600      -0.29367100
O       12.08843786      -0.02193692       1.47214097       0.03535200       1.01829500      -0.62130200
O       23.93574518       0.00775007       4.22907496      -0.59913100       0.78757000      -0.57494500
O       18.50647246       1.61550871       1.42187687       0.36047100       2.30706700       0.09781000
O       17.58327210       1.55170935       4.33525644      -1.45582800       1.60115100       0.85318400
Ga      11.13879854      -0.01056819      10.29160864      -0.17331000       0.65283800      -1.55468700
Ga      22.23297063      -0.02425607       6.80402734      -0.41905400      -0.26075600      -1.06800400
Ga      17.39902057       1.59375383      10.29402743       0.08596300       0.80913400       1.44488900
Ga      15.91106333       1.54207132       6.81742358      -1.49684700       1.04996300      -0.94323400
Ga      12.61685711      -0.04460339       7.49716025      -0.36467700      -0.08147400       0.77929200
Ga      20.64124805      -0.05123910       9.62506344       0.00471400       0.32563300       0.78088500
Ga      18.93734432       1.53490758       7.48082891      -0.24840800       0.22155200       0.75795400
Ga      14.43619051       1.56045805       9.57068132      -0.66948800       0.10445400       0.55744100
O       13.04646554       0.00288294       6.28780603      -0.47881300       0.39488400      -1.10780800
O       20.30241206       0.06418763      10.91810723      -1.32415900       0.43712500       0.52145600
O       19.18305244       1.51972436       6.27707664       0.05087600       0.06159800      -0.56969300
O       14.03593899       1.55039860      10.89392734       0.51040900      -1.17068700      -0.10613000
O       12.47015345      -0.00057502       8.92822866       0.42923200       0.14567000       0.80075600
O       20.87015165       0.00727076       8.25106741       0.01298000      -0.05035200       0.12704500
O       18.71115952       1.60969898       9.00847867      -0.22052800      -0.84198700      -0.07968700
O       14.63656781       1.58326240       8.19415600       1.11861200       1.44304600      -0.29367100
O       10.69751386      -0.02193692       7.18777597       0.03535200       1.01829500      -0.62130200
O       22.54482118       0.00775007       9.94470996      -0.59913100       0.78757000      -0.57494500
O       17.11554846       1.61550871       7.13751187       0.36047100       2.30706700       0.09781000
O       16.19234810       1.55170935      10.05089144      -1.45582800       1.60115100       0.85318400
Ga      12.52972254       3.07655181       4.57597364      -0.17331000       0.65283800      -1.55468700
Ga      23.62389463       3.06286393       1.08839234      -0.41905400      -0.26075600      -1.06800400
Ga      18.78994457       4.68087383       4.57839243       0.08596300       0.80913400       1.44488900
Ga      17.30198733       4.62919132       1.10178858      -1.49684700       1.04996300      -0.94323400
Ga      14.00778111       3.04251661       1.78152525      -0.36467700      -0.08147400       0.77929200
Ga      22.03217205       3.03588090       3.90942844       0.00471400       0.32563300       0.78088500
Ga      20.32826832       4.62202758       1.76519391      -0.24840800       0.22155200       0.75795400
Ga      15.82711451       4.64757805       3.85504632      -0.66948800       0.10445400       0.55744100
O       14.43738954       3.09000294       0.57217103      -0.47881300       0.39488400      -1.10780800
O       21.69333606       3.15130763       5.20247223      -1.32415900       0.43712500       0.52145600
O       20.57397644       4.60684436       0.56144164       0.05087600       0.06159800      -0.56969300
O       15.42686299       4.63751860       5.17829234       0.51040900      -1.17068700      -0.10613000
O       13.86107745       3.08654498       3.21259366       0.42923200       0.14567000       0.80075600
O       22.26107565       3.09439076       2.53543241       0.01298000      -0.05035200       0.12704500
O       20.10208352       4.69681898       3.29284367      -0.22052800      -0.84198700      -0.07968700
O       16.02749181       4.67038240       2.47852100       1.11861200       1.44304600      -0.29367100
O       12.08843786       3.06518308       1.47214097       0.03535200       1.01829500      -0.62130200
O       23.93574518       3.09487007       4.22907496      -0.59913100       0.78757000      -0.57494500
O       18.50647246       4.70262871       1.42187687       0.36047100       2.30706700       0.09781000
O       17.58327210       4.63882935       4.33525644      -1.45582800       1.60115100       0.85318400
Ga      11.13879854       3.07655181      10.29160864      -0.17331000       0.65283800      -1.55468700
Ga      22.23297063       3.06286393       6.80402734      -0.41905400      -0.26075600      -1.06800400
Ga      17.39902057       4.68087383      10.29402743       0.08596300       0.80913400       1.44488900
Ga      15.91106333       4.62919132       6.81742358      -1.49684700       1.04996300      -0.94323400
Ga      12.61685711       3.04251661       7.49716025      -0.36467700      -0.08147400       0.77929200
Ga      20.64124805       3.03588090       9.62506344       0.00471400       0.32563300       0.78088500
Ga      18.93734432       4.62202758       7.48082891      -0.24840800       0.22155200       0.75795400
Ga      14.43619051       4.64757805       9.57068132      -0.66948800       0.10445400       0.55744100
O       13.04646554       3.09000294       6.28780603      -0.47881300       0.39488400      -1.10780800
O       20.30241206       3.15130763      10.91810723      -1.32415900       0.43712500       0.52145600
O       19.18305244       4.60684436       6.27707664       0.05087600       0.06159800      -0.56969300
O       14.03593899       4.63751860      10.89392734       0.51040900      -1.17068700      -0.10613000
O       12.47015345       3.08654498       8.92822866       0.42923200       0.14567000       0.80075600
O       20.87015165       3.09439076       8.25106741       0.01298000      -0.05035200       0.12704500
O       18.71115952       4.69681898       9.00847867      -0.22052800      -0.84198700      -0.07968700
O       14.63656781       4.67038240       8.19415600       1.11861200       1.44304600      -0.29367100
O       10.69751386       3.06518308       7.18777597       0.03535200       1.01829500      -0.62130200
O       22.54482118       3.09487007       9.94470996      -0.59913100       0.78757000      -0.57494500
O       17.11554846       4.70262871       7.13751187       0.36047100       2.30706700       0.09781000
O       16.19234810       4.63882935      10.05089144      -1.45582800       1.60115100       0.85318400
160
Lattice="24.851563 0.0 0.0 0.0 6.152908 0.0 -2.772237 0.0 11.391774" Properties=species:S:1:pos:R:3:force:R:3 Energy=-631.349983 Virial="-16.911868 -8.76896 -2.537819 -8.002546 11.45112 -13.821878 -5.91395 -21.95887 -22.327707" pbc="T T T"
Ga       0.05044633       0.01578094       4.54837372      -0.95875100      -0.44130700       0.19886300
Ga      10.97836256      -0.04780282       1.17207541      -0.59050500       0.28231100       1.47506000
Ga       6.23857788       1.53233618       4.51437322      -0.71101200      -0.61206500       0.11074300
Ga       4.87207981       1.55526798       1.24876198      -0.03105400      -0.42946000       0.15940400
Ga       1.58596904       0.06813084       1.74666979      -0.71346000      -0.47216500       0.38479600
Ga       9.52817896      -0.01727062       3.83970362      -0.47032200      -0.58945800       0.42785500
Ga       7.80794150       1.52647927       1.74744423      -0.91514400      -0.66535000      -0.74765800
Ga       3.27497862       1.50637801       3.87849117       1.09382800      -0.01901300      -0.91483300
O        1.89866846       0.06923261       0.50876103       0.95995700      -0.59684600      -0.56188000
O        9.19850078       0.03395347       5.17632453      -0.25854100      -0.32803000      -1.29103700
O        8.15034834       1.53877320       0.58685573      -0.29134800      -0.29080400      -0.84530600
O        2.94191823       1.47164034       5.17232374      -0.88907900       1.13469600       1.16360700
O        1.40756463      -0.01156005       3.18335507       0.25124200       1.02789100      -0.52924400
O        9.63894253      -0.05510503       2.45556748      -0.22417500      -1.51197400       0.46467900
O        7.52761392       1.56498877       3.07869357      -0.86888000       0.12479400      -0.56795700
O        3.42390671       1.50760084       2.50629617       1.38900900      -1.04515400      -0.91879000
O       -0.37940033       0.01615552       1.40722115      -0.46151500       1.97597200       0.12413500
O       11.39010184      -0.02487063       4.23391526       0.45670100      -0.02997400      -0.65764000
O        5.90789783       1.54799662       1.45962819       0.32225500       0.29993700       0.96999900
O        5.11483126       1.55194892       4.25638567       1.42729300      -0.44100500       0.61952100
Ga      -1.34047767       0.01578094      10.26400872      -0.95875100      -0.44130700       0.19886300
Ga       9.58743856      -0.04780282       6.88771041      -0.59050500       0.28231100       1.47506000
Ga       4.84765388       1.53233618      10.23000822      -0.71101200      -0.61206500       0.11074300
Ga       3.48115581       1.55526798       6.96439698      -0.03105400      -0.42946000       0.15940400
Ga       0.19504504       0.06813084       7.46230479      -0.71346000      -0.47216500       0.38479600
Ga       8.13725496      -0.01727062       9.55533862      -0.47032200      -0.58945800       0.42785500
Ga       6.41701750       1.52647927       7.46307923      -0.91514400      -0.66535000      -0.74765800
Ga       1.88405462       1.50637801       9.59412617       1.09382800      -0.01901300      -0.91483300
O        0.50774446       0.06923261       6.22439603       0.95995700      -0.59684600      -0.56188000
O        7.80757678       0.03395347      10.89195953      -0.25854100      -0.32803000      -1.29103700
O        6.75942434       1.53877320       6.30249073      -0.29134800      -0.29080400      -0.84530600
O        1.55099423       1.47164034      10.88795874      -0.88907900       1.13469600       1.16360700
O        0.01664063      -0.01156005       8.89899007       0.25124200       1.02789100      -0.52924400
O        8.24801853      -0.05510503       8.17120248      -0.22417500      -1.51197400       0.46467900
O        6.13668992       1.56498877       8.79432857      -0.86888000       0.12479400      -0.56795700
O        2.03298271       1.50760084       8.22193117       1.38900900      -1.04515400      -0.91879000
O       -1.77032433       0.01615552       7.12285615      -0.46151500       1.97597200       0.12413500
O        9.99917784      -0.02487063       9.94955026       0.45670100      -0.02997400      -0.65764000
O        4.51697383       1.54799662       7.17526319       0.32225500       0.29993700       0.96999900
O        3.72390726       1.55194892       9.97202067       1.42729300      -0.44100500       0.61952100
Ga       0.05044633       3.10290094       4.54837372      -0.95875100      -0.44130700       0.19886300
Ga      10.97836256       3.03931718       1.17207541      -0.59050500       0.28231100       1.47506000
Ga       6.23857788       4.61945618       4.51437322      -0.71101200      -0.61206500       0.11074300
Ga       4.87207981       4.64238798       1.24876198      -0.03105400      -0.42946000       0.15940400
Ga       1.58596904       3.15525084       1.74666979      -0.71346000      -0.47216500       0.38479600
Ga       9.52817896       3.06984938       3.83970362      -0.47032200      -0.58945800       0.42785500
Ga       7.80794150       4.61359927       1.74744423      -0.91514400      -0.66535000      -0.74765800
Ga       3.27497862       4.59349801       3.87849117       1.09382800      -0.01901300      -0.91483300
O        1.89866846       3.15635261       0.50876103       0.95995700      -0.59684600      -0.56188000
O        9.19850078       3.12107347       5.17632453      -0.25854100      -0.32803000      -1.29103700
O        8.15034834       4.62589320       0.58685573      -0.29134800      -0.29080400      -0.84530600
O        2.94191823       4.55876034       5.17232374      -0.88907900       1.13469600       1.16360700
O        1.40756463       3.07555995       3.18335507       0.25124200       1.02789100      -0.52924400
O        9.63894253       3.03201497       2.45556748      -0.22417500      -1.51197400       0.46467900
O        7.52761392       4.65210877       3.07869357      -0.86888000       0.12479400      -0.56795700
O        3.42390671       4.59472084       2.50629617       1.38900900      -1.04515400      -0.91879000
O       -0.37940033       3.10327552       1.40722115      -0.46151500       1.97597200       0.12413500
O       11.39010184       3.06224937       4.23391526       0.45670100      -0.02997400      -0.65764000
O        5.90789783       4.63511662       1.45962819       0.32225500       0.29993700       0.96999900
O        5.11483126       4.63906892       4.25638567       1.42729300      -0.44100500       0.61952100
Ga      -1.34047767       3.10290094      10.26400872      -0.95875100      -0.44130700       0.19886300
Ga       9.58743856       3.03931718       6.88771041      -0.59050500       0.28231100       1.47506000
Ga       4.84765388       4.61945618      10.23000822      -0.71101200      -0.61206500       0.11074300
Ga       3.48115581       4.64238798       6.96439698      -0.03105400      -0.42946000       0.15940400
Ga       0.19504504       3.15525084       7.46230479      -0.71346000      -0.47216500       0.38479600
Ga       8.13725496       3.06984938       9.55533862      -0.47032200      -0.58945800       0.42785500
Ga       6.41701750       4.61359927       7.46307923      -0.91514400      -0.66535000      -0.74765800
Ga       1.88405462       4.59349801       9.59412617       1.09382800      -0.01901300      -0.91483300
O        0.50774446       3.15635261       6.22439603       0.95995700      -0.59684600      -0.56188000
O        7.80757678       3.12107347      10.89195953      -0.25854100      -0.32803000      -1.29103700
O        6.75942434       4.62589320       6.30249073      -0.29134800      -0.29080400      -0.84530600
O        1.55099423       4.55876034      10.88795874      -0.88907900       1.13469600       1.16360700
O        0.01664063       3.07555995       8.89899007       0.25124200       1.02789100      -0.52924400
O        8.24801853       3.03201497       8.17120248      -0.22417500      -1.51197400       0.46467900
O        6.13668992       4.65210877       8.79432857      -0.86888000       0.12479400      -0.56795700
O        2.03298271       4.59472084       8.22193117       1.38900900      -1.04515400      -0.91879000
O       -1.77032433       3.10327552       7.12285615      -0.46151500       1.97597200       0.12413500
O        9.99917784       3.06224937       9.94955026       0.45670100      -0.02997400      -0.65764000
O        4.51697383       4.63511662       7.17526319       0.32225500       0.29993700       0.96999900
O        3.72390726       4.63906892       9.97202067       1.42729300      -0.44100500       0.61952100
Ga      12.51930733       0.01578094       4.54837372      -0.95875100      -0.44130700       0.19886300
Ga      23.44722356      -0.04780282       1.17207541      -0.59050500       0.28231100       1.47506000
Ga      18.70743888       1.53233618       4.51437322      -0.71101200      -0.61206500       0.11074300
Ga      17.34094081       1.55526798       1.24876198      -0.03105400      -0.42946000       0.15940400
Ga      14.05483004       0.06813084       1.74666979      -0.71346000      -0.47216500       0.38479600
Ga      21.99703996      -0.01727062       3.83970362      -0.47032200      -0.58945800       0.42785500
Ga      20.27680250       1.52647927       1.74744423      -0.91514400      -0.66535000      -0.74765800
Ga      15.74383962       1.50637801       3.87849117       1.09382800      -0.01901300      -0.91483300
O       14.36752946       0.06923261       0.50876103       0.95995700      -0.59684600      -0.56188000
O       21.66736178       0.03395347       5.17632453      -0.25854100      -0.32803000      -1.29103700
O       20.61920934       1.53877320       0.58685573      -0.29134800      -0.29080400      -0.84530600
O       15.41077923       1.47164034       5.17232374      -0.88907900       1.13469600       1.16360700
O       13.87642563      -0.01156005       3.18335507       0.25124200       1.02789100      -0.52924400
O       22.10780353      -0.05510503       2.45556748      -0.22417500      -1.51197400       0.46467900
O       19.99647492       1.56498877       3.07869357      -0.86888000       0.12479400      -0.56795700
O       15.89276771       1.50760084       2.50629617       1.38900900      -1.04515400      -0.91879000
O       12.08946067       0.01615552       1.40722115      -0.46151500       1.97597200       0.12413500
O       23.85896284      -0.02487063       4.23391526       0.45670100      -0.02997400      -0.65764000
O       18.37675883       1.54799662       1.45962819       0.32225500       0.29993700       0.96999900
O       17.58369226       1.55194892       4.25638567       1.42729300      -0.44100500       0.61952100
Ga      11.12838333       0.01578094      10.26400872      -0.95875100      -0.44130700       0.19886300
Ga      22.05629956      -0.04780282       6.88771041      -0.59050500       0.28231100       1.47506000
Ga      17.31651488       1.53233618      10.23000822      -0.71101200      -0.61206500       0.11074300
Ga      15.95001681       1.55526798       6.96439698      -0.03105400      -0.42946000       0.15940400
Ga      12.66390604       0.06813084       7.46230479      -0.71346000      -0.47216500       0.38479600
Ga      20.60611596      -0.01727062       9.55533862      -0.47032200      -0.58945800       0.42785500
Ga      18.88587850       1.52647927       7.46307923      -0.91514400      -0.66535000      -0.74765800
Ga      14.35291562       1.50637801       9.59412617       1.09382800      -0.01901300      -0.91483300
O       12.97660546       0.06923261       6.22439603       0.95995700      -0.59684600      -0.56188000
O       20.27643778       0.03395347      10.89195953      -0.25854100      -0.32803000      -1.29103700
O       19.22828534       1.53877320       6.30249073      -0.29134800      -0.29080400      -0.84530600
O       14.01985523       1.47164034      10.88795874      -0.88907900       1.13469600       1.16360700
O       12.48550163      -0.01156005       8.89899007       0.25124200       1.02789100      -0.52924400
O       20.71687953      -0.05510503       8.17120248      -0.22417500      -1.51197400       0.46467900
O       18.60555092       1.56498877       8.79432857      -0.86888000       0.12479400      -0.56795700
O       14.50184371       1.50760084       8.22193117       1.38900900      -1.04515400      -0.91879000
O       10.69853667       0.01615552       7.12285615      -0.46151500       1.97597200       0.12413500
O       22.46803884      -0.02487063       9.94955026       0.45670100      -0.02997400      -0.65764000
O       16.98583483       1.54799662       7.17526319       0.32225500       0.29993700       0.96999900
O       16.19276826       1.55194892       9.97202067       1.42729300      -0.44100500       0.61952100
Ga      12.51930733       3.10290094       4.54837372      -0.95875100      -0.44130700       0.19886300
Ga      23.44722356       3.03931718       1.17207541      -0.59050500       0.28231100       1.47506000
Ga      18.70743888       4.61945618       4.51437322      -0.71101200      -0.61206500       0.11074300
Ga      17.34094081       4.64238798       1.24876198      -0.03105400      -0.42946000       0.15940400
Ga      14.05483004       3.15525084       1.74666979      -0.71346000      -0.47216500       0.38479600
Ga      21.99703996       3.06984938       3.83970362      -0.47032200      -0.58945800       0.42785500
Ga      20.27680250       4.61359927       1.74744423      -0.91514400      -0.66535000      -0.74765800
Ga      15.74383962       4.59349801       3.87849117       1.09382800      -0.01901300      -0.91483300
O       14.36752946       3.15635261       0.50876103       0.95995700      -0.59684600      -0.56188000
O       21.66736178       3.12107347       5.17632453      -0.25854100      -0.32803000      -1.29103700
O       20.61920934       4.62589320       0.58685573      -0.29134800      -0.29080400      -0.84530600
O       15.41077923       4.55876034       5.17232374      -0.88907900       1.13469600       1.16360700
O       13.87642563       3.07555995       3.18335507       0.25124200       1.02789100      -0.52924400
O       22.10780353       3.03201497       2.45556748      -0.22417500      -1.51197400       0.46467900
O       19.99647492       4.65210877       3.07869357      -0.86888000       0.12479400      -0.56795700
O       15.89276771       4.59472084       2.50629617       1.38900900      -1.04515400      -0.91879000
O       12.08946067       3.10327552       1.40722115      -0.46151500       1.97597200       0.12413500
O       23.85896284       3.06224937       4.23391526       0.45670100      -0.02997400      -0.65764000
O       18.37675883       4.63511662       1.45962819       0.32225500       0.29993700       0.96999900
O       17.58369226       4.63906892       4.25638567       1.42729300      -0.44100500       0.61952100
Ga      11.12838333       3.10290094      10.26400872      -0.95875100      -0.44130700       0.19886300
Ga      22.05629956       3.03931718       6.88771041      -0.59050500       0.28231100       1.47506000
Ga      17.31651488       4.61945618      10.23000822      -0.71101200      -0.61206500       0.11074300
Ga      15.95001681       4.64238798       6.96439698      -0.03105400      -0.42946000       0.15940400
Ga      12.66390604       3.15525084       7.46230479      -0.71346000      -0.47216500       0.38479600
Ga      20.60611596       3.06984938       9.55533862      -0.47032200      -0.58945800       0.42785500
Ga      18.88587850       4.61359927       7.46307923      -0.91514400      -0.66535000      -0.74765800
Ga      14.35291562       4.59349801       9.59412617       1.09382800      -0.01901300      -0.91483300
O       12.97660546       3.15635261       6.22439603       0.95995700      -0.59684600      -0.56188000
O       20.27643778       3.12107347      10.89195953      -0.25854100      -0.32803000      -1.29103700
O       19.22828534       4.62589320       6.30249073      -0.29134800      -0.29080400      -0.84530600
O       14.01985523       4.55876034      10.88795874      -0.88907900       1.13469600       1.16360700
O       12.48550163       3.07555995       8.89899007       0.25124200       1.02789100      -0.52924400
O       20.71687953       3.03201497       8.17120248      -0.22417500      -1.51197400       0.46467900
O       18.60555092       4.65210877       8.79432857      -0.86888000       0.12479400      -0.56795700
O       14.50184371       4.59472084       8.22193117       1.38900900      -1.04515400      -0.91879000
O       10.69853667       3.10327552       7.12285615      -0.46151500       1.97597200       0.12413500
O       22.46803884       3.06224937       9.94955026       0.45670100      -0.02997400      -0.65764000
O       16.98583483       4.63511662       7.17526319       0.32225500       0.29993700       0.96999900
O       16.19276826       4.63906892       9.97202067       1.42729300      -0.44100500       0.61952100
160
Lattice="24.728502 0.0 0.0 0.0 6.12244 0.0 -2.758509 0.0 11.335364" Properties=species:S:1:pos:R:3:force:R:3 Energy=-631.335236 Virial="-23.36557 -8.178138 -28.590619 -9.011436 19.04055 -11.699251 -15.276405 1.276753 -23.754256" pbc="T T T"
Ga      -0.03888182      -0.04837690       4.47041258      -0.87830400       0.14329300      -0.29141000
Ga      10.97459911       0.01067305       1.13696991      -1.35322500       0.91444500       0.54400700
Ga       6.11602213       1.58971766       4.49211022      -0.58907400       0.11491700      -0.74561100
Ga       4.73521033       1.54160717       1.17231933       0.49070000      -0.49296600      -0.26984100
Ga       1.51470128       0.00594124       1.73458508       0.50810500       1.74802700      -0.49963700
Ga       9.48778423      -0.03987468       3.86267328      -1.56848200      -0.29051600       0.05022500
Ga       7.73568619       1.57876830       1.84421725       0.76682100      -0.03137400       0.00654500
Ga       3.31749386       1.51764705       3.82525475      -0.22270700       0.90843600      -0.58277700
O        1.95428905       0.05482784       0.50588340       0.53818000      -0.39020600      -1.41599700
O        9.12375679      -0.01328711       5.19497097      -0.82732700       0.25153200      -0.79954800
O        8.05961802       1.60975599       0.56420727       0.93068100       0.52781400       0.03922800
O        2.97668524       1.51205805       5.15112108      -0.39113400      -0.02889200      -1.15267400
O        1.33061980       0.03375957       3.19852808      -0.38507300       1.65653400       0.20051700
O        9.71148604       0.01928159       2.53407969       1.26521300      -0.37101800       0.37512100
O        7.53268353       1.55226512       3.14737077       0.49636400      -0.02173400       0.01970400
O        3.43811373       1.53759057       2.49102373      -1.28597600      -1.39821500       0.08221100
O       -0.30111425      -0.01501181       1.43573787      -0.61181600      -0.08356300       0.59381500
O       11.33169469       0.00701655       4.23063788       1.35221000       1.30325000      -1.14087300
O        5.82020054       1.54754827       1.47214405       0.34005700      -1.21300700       0.41874000
O        5.09056977       1.61401113       4.12518613       0.61700300       0.19898100      -0.45484000
Ga      -1.42980582      -0.04837690      10.18604758      -0.87830400       0.14329300      -0.29141000
Ga       9.58367511       0.01067305       6.85260491      -1.35322500       0.91444500       0.54400700
Ga       4.72509813       1.58971766      10.20774522      -0.58907400       0.11491700      -0.74561100
Ga       3.34428633       1.54160717       6.88795433       0.49070000      -0.49296600      -0.26984100
Ga       0.12377728       0.00594124       7.45022008       0.50810500       1.74802700      -0.49963700
Ga       8.09686023      -0.03987468       9.57830828      -1.56848200      -0.29051600       0.05022500
Ga       6.34476219       1.57876830       7.55985225       0.76682100      -0.03137400       0.00654500
Ga       1.92656986       1.51764705       9.54088975      -0.22270700       0.90843600      -0.58277700
O        0.56336505       0.05482784       6.22151840       0.53818000      -0.39020600      -1.41599700
O        7.73283279      -0.01328711      10.91060597      -0.82732700       0.25153200      -0.79954800
O        6.66869402       1.60975599       6.27984227       0.93068100       0.52781400       0.03922800
O        1.58576124       1.51205805      10.86675608      -0.39113400      -0.02889200      -1.15267400
O       -0.06030420       0.03375957       8.91416308      -0.38507300       1.65653400       0.20051700
O        8.32056204       0.01928159       8.24971469       1.26521300      -0.37101800       0.37512100
O        6.14175953       1.55226512       8.86300577       0.49636400      -0.02173400       0.01970400
O        2.04718973       1.53759057       8.20665873      -1.28597600      -1.39821500       0.08221100
O       -1.69203825      -0.01501181       7.15137287      -0.61181600      -0.08356300       0.59381500
O        9.94077069       0.00701655       9.94627288       1.35221000       1.30325000      -1.14087300
O        4.42927654       1.54754827       7.18777905       0.34005700      -1.21300700       0.41874000
O        3.69964577       1.61401113       9.84082113       0.61700300       0.19898100      -0.45484000
Ga      -0.03888182       3.03874310       4.47041258      -0.87830400       0.14329300      -0.29141000
Ga      10.97459911       3.09779305       1.13696991      -1.35322500       0.91444500       0.54400700
Ga       6.11602213       4.67683766       4.49211022      -0.58907400       0.11491700      -0.74561100
Ga       4.73521033       4.62872717       1.17231933       0.49070000      -0.49296600      -0.26984100
Ga       1.51470128       3.09306124       1.73458508       0.50810500       1.74802700      -0.49963700
Ga       9.48778423       3.04724532       3.86267328      -1.56848200      -0.29051600       0.05022500
Ga       7.73568619       4.66588830       1.84421725       0.76682100      -0.03137400       0.00654500
Ga       3.31749386       4.60476705       3.82525475      -0.22270700       0.90843600      -0.58277700
O        1.95428905       3.14194784       0.50588340       0.53818000      -0.39020600      -1.41599700
O        9.12375679       3.07383289       5.19497097      -0.82732700       0.25153200      -0.79954800
O        8.05961802       4.69687599       0.56420727       0.93068100       0.52781400       0.03922800
O        2.97668524       4.59917805       5.15112108      -0.39113400      -0.02889200      -1.15267400
O        1.33061980       3.12087957       3.19852808      -0.38507300       1.65653400       0.20051700
O        9.71148604       3.10640159       2.53407969       1.26521300      -0.37101800       0.37512100
O        7.53268353       4.63938512       3.14737077       0.49636400      -0.02173400       0.01970400
O        3.43811373       4.62471057       2.49102373      -1.28597600      -1.39821500       0.08221100
O       -0.30111425       3.07210819       1.43573787      -0.61181600      -0.08356300       0.59381500
O       11.33169469       3.09413655       4.23063788       1.35221000       1.30325000      -1.14087300
O        5.82020054       4.63466827       1.47214405       0.34005700      -1.21300700       0.41874000
O        5.09056977       4.70113113       4.12518613       0.61700300       0.19898100      -0.45484000
Ga      -1.42980582       3.03874310      10.18604758      -0.87830400       0.14329300      -0.29141000
Ga       9.58367511       3.09779305       6.85260491      -1.35322500       0.91444500       0.54400700
Ga       4.72509813       4.67683766      10.20774522      -0.58907400       0.11491700      -0.74561100
Ga       3.34428633       4.62872717       6.88795433       0.49070000      -0.49296600      -0.26984100
Ga       0.12377728       3.09306124       7.45022008       0.50810500       1.74802700      -0.49963700
Ga       8.09686023       3.04724532       9.57830828      -1.56848200      -0.29051600       0.05022500
Ga       6.34476219       4.66588830       7.55985225       0.76682100      -0.03137400       0.00654500
Ga       1.92656986       4.60476705       9.54088975      -0.22270700       0.90843600      -0.58277700
O        0.56336505       3.14194784       6.22151840       0.53818000      -0.39020600      -1.41599700
O        7.73283279       3.07383289      10.91060597      -0.82732700       0.25153200      -0.79954800
O        6.66869402       4.69687599       6.27984227       0.93068100       0.52781400       0.03922800
O        1.58576124       4.59917805      10.86675608      -0.39113400      -0.02889200      -1.15267400
O       -0.06030420       3.12087957       8.91416308      -0.38507300       1.65653400       0.20051700
O        8.32056204       3.10640159       8.24971469       1.26521300      -0.37101800       0.37512100
O        6.14175953       4.63938512       8.86300577       0.49636400      -0.02173400       0.01970400
O        2.04718973       4.62471057       8.20665873      -1.28597600      -1.39821500       0.08221100
O       -1.69203825       3.07210819       7.15137287      -0.61181600      -0.08356300       0.59381500
O        9.94077069       3.09413655       9.94627288       1.35221000       1.30325000      -1.14087300
O        4.42927654       4.63466827       7.18777905       0.34005700      -1.21300700       0.41874000
O        3.69964577       4.70113113       9.84082113       0.61700300       0.19898100      -0.45484000
Ga      12.42997918      -0.04837690       4.47041258      -0.87830400       0.14329300      -0.29141000
Ga      23.44346011       0.01067305       1.13696991      -1.35322500       0.91444500       0.54400700
Ga      18.58488313       1.58971766       4.49211022      -0.58907400       0.11491700      -0.74561100
Ga      17.20407133       1.54160717       1.17231933       0.49070000      -0.49296600      -0.26984100
Ga      13.98356228       0.00594124       1.73458508       0.50810500       1.74802700      -0.49963700
Ga      21.95664523      -0.03987468       3.86267328      -1.56848200      -0.29051600       0.05022500
Ga      20.20454719       1.57876830       1.84421725       0.76682100      -0.03137400       0.00654500
Ga      15.78635486       1.51764705       3.82525475      -0.22270700       0.90843600      -0.58277700
O       14.42315005       0.05482784       0.50588340       0.53818000      -0.39020600      -1.41599700
O       21.59261779      -0.01328711       5.19497097      -0.82732700       0.25153200      -0.79954800
O       20.52847902       1.60975599       0.56420727       0.93068100       0.52781400       0.03922800
O       15.44554624       1.51205805       5.15112108      -0.39113400      -0.02889200      -1.15267400
O       13.79948080       0.03375957       3.19852808      -0.38507300       1.65653400       0.20051700
O       22.18034704       0.01928159       2.53407969       1.26521300      -0.37101800       0.37512100
O       20.00154453       1.55226512       3.14737077       0.49636400      -0.02173400       0.01970400
O       15.90697473       1.53759057       2.49102373      -1.28597600      -1.39821500       0.08221100
O       12.16774675      -0.01501181       1.43573787      -0.61181600      -0.08356300       0.59381500
O       23.80055569       0.00701655       4.23063788       1.35221000       1.30325000      -1.14087300
O       18.28906154       1.54754827       1.47214405       0.34005700      -1.21300700       0.41874000
O       17.55943077       1.61401113       4.12518613       0.61700300       0.19898100      -0.45484000
Ga      11.03905518      -0.04837690      10.18604758      -0.87830400       0.14329300      -0.29141000
Ga      22.05253611       0.01067305       6.85260491      -1.35322500       0.91444500       0.54400700
Ga      17.19395913       1.58971766      10.20774522      -0.58907400       0.11491700      -0.74561100
Ga      15.81314733       1.54160717       6.88795433       0.49070000      -0.49296600      -0.26984100
Ga      12.59263828       0.00594124       7.45022008       0.50810500       1.74802700      -0.49963700
Ga      20.56572123      -0.03987468       9.57830828      -1.56848200      -0.29051600       0.05022500
Ga      18.81362319       1.57876830       7.55985225       0.76682100      -0.03137400       0.00654500
Ga      14.39543086       1.51764705       9.54088975      -0.22270700       0.90843600      -0.58277700
O       13.03222605       0.05482784       6.22151840       0.53818000      -0.39020600      -1.41599700
O       20.20169379      -0.01328711      10.91060597      -0.82732700       0.25153200      -0.79954800
O       19.13755502       1.60975599       6.27984227       0.93068100       0.52781400       0.03922800
O       14.05462224       1.51205805      10.86675608      -0.39113400      -0.02889200      -1.15267400
O       12.40855680       0.03375957       8.91416308      -0.38507300       1.65653400       0.20051700
O       20.78942304       0.01928159       8.24971469       1.26521300      -0.37101800       0.37512100
O       18.61062053       1.55226512       8.86300577       0.49636400      -0.02173400       0.01970400
O       14.51605073       1.53759057       8.20665873      -1.28597600      -1.39821500       0.08221100
O       10.77682275      -0.01501181       7.15137287      -0.61181600      -0.08356300       0.59381500
O       22.40963169       0.00701655       9.94627288       1.35221000       1.30325000      -1.14087300
O       16.89813754       1.54754827       7.18777905       0.34005700      -1.21300700       0.41874000
O       16.16850677       1.61401113       9.84082113       0.61700300       0.19898100      -0.45484000
Ga      12.42997918       3.03874310       4.47041258      -0.87830400       0.14329300      -0.29141000
Ga      23.44346011       3.09779305       1.13696991      -1.35322500       0.91444500       0.54400700
Ga      18.58488313       4.67683766       4.49211022      -0.58907400       0.11491700      -0.74561100
Ga      17.20407133       4.62872717       1.17231933       0.49070000      -0.49296600      -0.26984100
Ga      13.98356228       3.09306124       1.73458508       0.50810500       1.74802700      -0.49963700
Ga      21.95664523       3.04724532       3.86267328      -1.56848200      -0.29051600       0.05022500
Ga      20.20454719       4.66588830       1.84421725       0.76682100      -0.03137400       0.00654500
Ga      15.78635486       4.60476705       3.82525475      -0.22270700       0.90843600      -0.58277700
O       14.42315005       3.14194784       0.50588340       0.53818000      -0.39020600      -1.41599700
O       21.59261779       3.07383289       5.19497097      -0.82732700       0.25153200      -0.79954800
O       20.52847902       4.69687599       0.56420727       0.93068100       0.52781400       0.03922800
O       15.44554624       4.59917805       5.15112108      -0.39113400      -0.02889200      -1.15267400
O       13.79948080       3.12087957       3.19852808      -0.38507300       1.65653400       0.20051700
O       22.18034704       3.10640159       2.53407969       1.26521300      -0.37101800       0.37512100
O       20.00154453       4.63938512       3.14737077       0.49636400      -0.02173400       0.01970400
O       15.90697473       4.62471057       2.49102373      -1.28597600      -1.39821500       0.08221100
O       12.16774675       3.07210819       1.43573787      -0.61181600      -0.08356300       0.59381500
O       23.80055569       3.09413655       4.23063788       1.35221000       1.30325000      -1.14087300
O       18.28906154       4.63466827       1.47214405       0.34005700      -1.21300700       0.41874000
O       17.55943077       4.70113113       4.12518613       0.61700300       0.19898100      -0.45484000
Ga      11.03905518       3.03874310      10.18604758      -0.87830400       0.14329300      -0.29141000
Ga      22.05253611       3.09779305       6.85260491      -1.35322500       0.91444500       0.54400700
Ga      17.19395913       4.67683766      10.20774522      -0.58907400       0.11491700      -0.74561100
Ga      15.81314733       4.62872717       6.88795433       0.49070000      -0.49296600      -0.26984100
Ga      12.59263828       3.09306124       7.45022008       0.50810500       1.74802700      -0.49963700
Ga      20.56572123       3.04724532       9.57830828      -1.56848200      -0.29051600       0.05022500
Ga      18.81362319       4.66588830       7.55985225       0.76682100      -0.03137400       0.00654500
Ga      14.39543086       4.60476705       9.54088975      -0.22270700       0.90843600      -0.58277700
O       13.03222605       3.14194784       6.22151840       0.53818000      -0.39020600      -1.41599700
O       20.20169379       3.07383289      10.91060597      -0.82732700       0.25153200      -0.79954800
O       19.13755502       4.69687599       6.27984227       0.93068100       0.52781400       0.03922800
O       14.05462224       4.59917805      10.86675608      -0.39113400      -0.02889200      -1.15267400
O       12.40855680       3.12087957       8.91416308      -0.38507300       1.65653400       0.20051700
O       20.78942304       3.10640159       8.24971469       1.26521300      -0.37101800       0.37512100
O       18.61062053       4.63938512       8.86300577       0.49636400      -0.02173400       0.01970400
O       14.51605073       4.62471057       8.20665873      -1.28597600      -1.39821500       0.08221100
O       10.77682275       3.07210819       7.15137287      -0.61181600      -0.08356300       0.59381500
O       22.40963169       3.09413655       9.94627288       1.35221000       1.30325000      -1.14087300
O       16.89813754       4.63466827       7.18777905       0.34005700      -1.21300700       0.41874000
O       16.16850677       4.70113113       9.84082113       0.61700300       0.19898100      -0.45484000
160
Lattice="25.103685 0.0 0.0 0.0 6.21533 0.0 -2.800361 0.0 11.507345" Properties=species:S:1:pos:R:3:force:R:3 Energy=-631.320741 Virial="30.315999 40.393968 -3.381109 -11.333314 20.10787 -11.969226 11.733402 -16.012285 -4.100846" pbc="T T T"
Ga      -0.01828178       0.02333734       4.56612793       0.09242400      -0.13492600       0.63859900
Ga      11.07169356       0.08925985       1.16770482      -1.41245200       0.34253900      -0.16937900
Ga       6.28416416       1.56022590       4.64107359       0.47436400      -0.47879500      -0.97419000
Ga       4.78519260       1.56487192       1.26529487      -0.48225300       0.47791800      -0.49449000
Ga       1.55593449      -0.04941336       1.78306864      -0.09894100      -0.96166500      -0.79830700
Ga       9.60915131       0.05323216       3.93229495       0.84416100      -0.48647700       0.92043300
Ga       7.85977293       1.49641773       1.75005578       0.67039600       0.40466300      -0.25362300
Ga       3.30564246       1.61135363       3.94862337      -1.78936300       0.22416700      -0.52305800
O        1.93847721       0.01112318       0.58521388       0.25878000      -0.16619500      -0.28500200
O        9.20036776       0.02753140       5.17959203       0.24328000      -0.82882300      -0.10127300
O        8.28213718       1.52181684       0.50554999      -0.01760400      -0.37882400       0.68025300
O        2.97084186       1.55702402       5.22590143      -1.28371100      -0.00872300      -1.29008600
O        1.39926004      -0.04361569       3.27508350       0.47162300      -1.27654900       0.76268100
O        9.79723555       0.05435800       2.52199052      -0.64573400      -0.23645900      -0.41522100
O        7.68274995       1.56172722       3.25566925      -0.80220800       0.46918400      -0.15010500
O        3.53198227       1.56155452       2.48240571       2.51673400       1.39722300      -0.72913600
O       -0.23705231       0.02223950       1.44860322      -1.22692500       0.77146500      -0.25211300
O       11.47616182      -0.06044374       4.32294632      -0.35684900       1.32025600      -1.52371100
O        5.90883326       1.54499911       1.48271888      -0.46319500      -0.91688700      -0.11667200
O        5.22553321       1.55809427       4.30613071      -1.15133900      -0.06171900      -0.46644200
Ga      -1.40920578       0.02333734      10.28176293       0.09242400      -0.13492600       0.63859900
Ga       9.68076956       0.08925985       6.88333982      -1.41245200       0.34253900      -0.16937900
Ga       4.89324016       1.56022590      10.35670859       0.47436400      -0.47879500      -0.97419000
Ga       3.39426860       1.56487192       6.98092987      -0.48225300       0.47791800      -0.49449000
Ga       0.16501049      -0.04941336       7.49870364      -0.09894100      -0.96166500      -0.79830700
Ga       8.21822731       0.05323216       9.64792995       0.84416100      -0.48647700       0.92043300
Ga       6.46884893       1.49641773       7.46569078       0.67039600       0.40466300      -0.25362300
Ga       1.91471846       1.61135363       9.66425837      -1.78936300       0.22416700      -0.52305800
O        0.54755321       0.01112318       6.30084888       0.25878000      -0.16619500      -0.28500200
O        7.80944376       0.02753140      10.89522703       0.24328000      -0.82882300      -0.10127300
O        6.89121318       1.52181684       6.22118499      -0.01760400      -0.37882400       0.68025300
O        1.57991786       1.55702402      10.94153643      -1.28371100      -0.00872300      -1.29008600
O        0.00833604      -0.04361569       8.99071850       0.47162300      -1.27654900       0.76268100
O        8.40631155       0.05435800       8.23762552      -0.64573400      -0.23645900      -0.41522100
O        6.29182595       1.56172722       8.97130425      -0.80220800       0.46918400      -0.15010500
O        2.14105827       1.56155452       8.19804071       2.51673400       1.39722300      -0.72913600
O       -1.62797631       0.02223950       7.16423822      -1.22692500       0.77146500      -0.25211300
O       10.08523782      -0.06044374      10.03858132      -0.35684900       1.32025600      -1.52371100
O        4.51790926       1.54499911       7.19835388      -0.46319500      -0.91688700      -0.11667200
O        3.83460921       1.55809427      10.02176571      -1.15133900      -0.06171900      -0.46644200
Ga      -0.01828178       3.11045734       4.56612793       0.09242400      -0.13492600       0.63859900
Ga      11.07169356       3.17637985       1.16770482      -1.41245200       0.34253900      -0.16937900
Ga       6.28416416       4.64734590       4.64107359       0.47436400      -0.47879500      -0.97419000
Ga       4.78519260       4.65199192       1.26529487      -0.48225300       0.47791800      -0.49449000
Ga       1.55593449       3.03770664       1.78306864      -0.09894100      -0.96166500      -0.79830700
Ga       9.60915131       3.14035216       3.93229495       0.84416100      -0.48647700       0.92043300
Ga       7.85977293       4.58353773       1.75005578       0.67039600       0.40466300      -0.25362300
Ga       3.30564246       4.69847363       3.94862337      -1.78936300       0.22416700      -0.52305800
O        1.93847721       3.09824318       0.58521388       0.25878000      -0.16619500      -0.28500200
O        9.20036776       3.11465140       5.17959203       0.24328000      -0.82882300      -0.10127300
O        8.28213718       4.60893684       0.50554999      -0.01760400      -0.37882400       0.68025300
O        2.97084186       4.64414402       5.22590143      -1.28371100      -0.00872300      -1.29008600
O        1.39926004       3.04350431       3.27508350       0.47162300      -1.27654900       0.76268100
O        9.79723555       3.14147800       2.52199052      -0.64573400      -0.23645900      -0.41522100
O        7.68274995       4.64884722       3.25566925      -0.80220800       0.46918400      -0.15010500
O        3.53198227       4.64867452       2.48240571       2.51673400       1.39722300      -0.72913600
O       -0.23705231       3.10935950       1.44860322      -1.22692500       0.77146500      -0.25211300
O       11.47616182       3.02667626       4.32294632      -0.35684900       1.32025600      -1.52371100
O        5.90883326       4.63211911       1.48271888      -0.46319500      -0.91688700      -0.11667200
O        5.22553321       4.64521427       4.30613071      -1.15133900      -0.06171900      -0.46644200
Ga      -1.40920578       3.11045734      10.28176293       0.09242400      -0.13492600       0.63859900
Ga       9.68076956       3.17637985       6.88333982      -1.41245200       0.34253900      -0.16937900
Ga       4.89324016       4.64734590      10.35670859       0.47436400      -0.47879500      -0.97419000
Ga       3.39426860       4.65199192       6.98092987      -0.48225300       0.47791800      -0.49449000
Ga       0.16501049       3.03770664       7.49870364      -0.09894100      -0.96166500      -0.79830700
Ga       8.21822731       3.14035216       9.64792995       0.84416100      -0.48647700       0.92043300
Ga       6.46884893       4.58353773       7.46569078       0.67039600       0.40466300      -0.25362300
Ga       1.91471846       4.69847363       9.66425837      -1.78936300       0.22416700      -0.52305800
O        0.54755321       3.09824318       6.30084888       0.25878000      -0.16619500      -0.28500200
O        7.80944376       3.11465140      10.89522703       0.24328000      -0.82882300      -0.10127300
O        6.89121318       4.60893684       6.22118499      -0.01760400      -0.37882400       0.68025300
O        1.57991786       4.64414402      10.94153643      -1.28371100      -0.00872300      -1.29008600
O        0.00833604       3.04350431       8.99071850       0.47162300      -1.27654900       0.76268100
O        8.40631155       3.14147800       8.23762552      -0.64573400      -0.23645900      -0.41522100
O        6.29182595       4.64884722       8.97130425      -0.80220800       0.46918400      -0.15010500
O        2.14105827       4.64867452       8.19804071       2.51673400       1.39722300      -0.72913600
O       -1.62797631       3.10935950       7.16423822      -1.22692500       0.77146500      -0.25211300
O       10.08523782       3.02667626      10.03858132      -0.35684900       1.32025600      -1.52371100
O        4.51790926       4.63211911       7.19835388      -0.46319500      -0.91688700      -0.11667200
O        3.83460921       4.64521427      10.02176571      -1.15133900      -0.06171900      -0.46644200
Ga      12.45057922       0.02333734       4.56612793       0.09242400      -0.13492600       0.63859900
Ga      23.54055456       0.08925985       1.16770482      -1.41245200       0.34253900      -0.16937900
Ga      18.75302516       1.56022590       4.64107359       0.47436400      -0.47879500      -0.97419000
Ga      17.25405360       1.56487192       1.26529487      -0.48225300       0.47791800      -0.49449000
Ga      14.02479549      -0.04941336       1.78306864      -0.09894100      -0.96166500      -0.79830700
Ga      22.07801231       0.05323216       3.93229495       0.84416100      -0.48647700       0.92043300
Ga      20.32863393       1.49641773       1.75005578       0.67039600       0.40466300      -0.25362300
Ga      15.77450346       1.61135363       3.94862337      -1.78936300       0.22416700      -0.52305800
O       14.40733821       0.01112318       0.58521388       0.25878000      -0.16619500      -0.28500200
O       21.66922876       0.02753140       5.17959203       0.24328000      -0.82882300      -0.10127300
O       20.75099818       1.52181684       0.50554999      -0.01760400      -0.37882400       0.68025300
O       15.43970286       1.55702402       5.22590143      -1.28371100      -0.00872300      -1.29008600
O       13.86812104      -0.04361569       3.27508350       0.47162300      -1.27654900       0.76268100
O       22.26609655       0.05435800       2.52199052      -0.64573400      -0.23645900      -0.41522100
O       20.15161095       1.56172722       3.25566925      -0.80220800       0.46918400      -0.15010500
O       16.00084327       1.56155452       2.48240571       2.51673400       1.39722300      -0.72913600
O       12.23180869       0.02223950       1.44860322      -1.22692500       0.77146500      -0.25211300
O       23.94502282      -0.06044374       4.32294632      -0.35684900       1.32025600      -1.52371100
O       18.37769426       1.54499911       1.48271888      -0.46319500      -0.91688700      -0.11667200
O       17.69439421       1.55809427       4.30613071      -1.15133900      -0.06171900      -0.46644200
Ga      11.05965522       0.02333734      10.28176293       0.09242400      -0.13492600       0.63859900
Ga      22.14963056       0.08925985       6.88333982      -1.41245200       0.34253900      -0.16937900
Ga      17.36210116       1.56022590      10.35670859       0.47436400      -0.47879500      -0.97419000
Ga      15.86312960       1.56487192       6.98092987      -0.48225300       0.47791800      -0.49449000
Ga      12.63387149      -0.04941336       7.49870364      -0.09894100      -0.96166500      -0.79830700
Ga      20.68708831       0.05323216       9.64792995       0.84416100      -0.48647700       0.92043300
Ga      18.93770993       1.49641773       7.46569078       0.67039600       0.40466300      -0.25362300
Ga      14.38357946       1.61135363       9.66425837      -1.78936300       0.22416700      -0.52305800
O       13.01641421       0.01112318       6.30084888       0.25878000      -0.16619500      -0.28500200
O       20.27830476       0.02753140      10.89522703       0.24328000      -0.82882300      -0.10127300
O       19.36007418       1.52181684       6.22118499      -0.01760400      -0.37882400       0.68025300
O       14.04877886       1.55702402      10.94153643      -1.28371100      -0.00872300      -1.29008600
O       12.47719704      -0.04361569       8.99071850       0.47162300      -1.27654900       0.76268100
O       20.87517255       0.05435800       8.23762552      -0.64573400      -0.23645900      -0.41522100
O       18.76068695       1.56172722       8.97130425      -0.80220800       0.46918400      -0.15010500
O       14.60991927       1.56155452       8.19804071       2.51673400       1.39722300      -0.72913600
O       10.84088469       0.02223950       7.16423822      -1.22692500       0.77146500      -0.25211300
O       22.55409882      -0.06044374      10.03858132      -0.35684900       1.32025600      -1.52371100
O       16.98677026       1.54499911       7.19835388      -0.46319500      -0.91688700      -0.11667200
O       16.30347021       1.55809427      10.02176571      -1.15133900      -0.06171900      -0.46644200
Ga      12.45057922       3.11045734       4.56612793       0.09242400      -0.13492600       0.63859900
Ga      23.54055456       3.17637985       1.16770482      -1.41245200       0.34253900      -0.16937900
Ga      18.75302516       4.64734590       4.64107359       0.47436400      -0.47879500      -0.97419000
Ga      17.25405360       4.65199192       1.26529487      -0.48225300       0.47791800      -0.49449000
Ga      14.02479549       3.03770664       1.78306864      -0.09894100      -0.96166500      -0.79830700
Ga      22.07801231       3.14035216       3.93229495       0.84416100      -0.48647700       0.92043300
Ga      20.32863393       4.58353773       1.75005578       0.67039600       0.40466300      -0.25362300
Ga      15.77450346       4.69847363       3.94862337      -1.78936300       0.22416700      -0.52305800
O       14.40733821       3.09824318       0.58521388       0.25878000      -0.16619500      -0.28500200
O       21.66922876       3.11465140       5.17959203       0.24328000      -0.82882300      -0.10127300
O       20.75099818       4.60893684       0.50554999      -0.01760400      -0.37882400       0.68025300
O       15.43970286       4.64414402       5.22590143      -1.28371100      -0.00872300      -1.29008600
O       13.86812104       3.04350431       3.27508350       0.47162300      -1.27654900       0.76268100
O       22.26609655       3.14147800       2.52199052      -0.64573400      -0.23645900      -0.41522100
O       20.15161095       4.64884722       3.25566925      -0.80220800       0.46918400      -0.15010500
O       16.00084327       4.64867452       2.48240571       2.51673400       1.39722300      -0.72913600
O       12.23180869       3.10935950       1.44860322      -1.22692500       0.77146500      -0.25211300
O       23.94502282       3.02667626       4.32294632      -0.35684900       1.32025600      -1.52371100
O       18.37769426       4.63211911       1.48271888      -0.46319500      -0.91688700      -0.11667200
O       17.69439421       4.64521427       4.30613071      -1.15133900      -0.06171900      -0.46644200
Ga      11.05965522       3.11045734      10.28176293       0.09242400      -0.13492600       0.63859900
Ga      22.14963056       3.17637985       6.88333982      -1.41245200       0.34253900      -0.16937900
Ga      17.36210116       4.64734590      10.35670859       0.47436400      -0.47879500      -0.97419000
Ga      15.86312960       4.65199192       6.98092987      -0.48225300       0.47791800      -0.49449000
Ga      12.63387149       3.03770664       7.49870364      -0.09894100      -0.96166500      -0.79830700
Ga      20.68708831       3.14035216       9.64792995       0.84416100      -0.48647700       0.92043300
Ga      18.93770993       4.58353773       7.46569078       0.67039600       0.40466300      -0.25362300
Ga      14.38357946       4.69847363       9.66425837      -1.78936300       0.22416700      -0.52305800
O       13.01641421       3.09824318       6.30084888       0.25878000      -0.16619500      -0.28500200
O       20.27830476       3.11465140      10.89522703       0.24328000      -0.82882300      -0.10127300
O       19.36007418       4.60893684       6.22118499      -0.01760400      -0.37882400       0.68025300
O       14.04877886       4.64414402      10.94153643      -1.28371100      -0.00872300      -1.29008600
O       12.47719704       3.04350431       8.99071850       0.47162300      -1.27654900       0.76268100
O       20.87517255       3.14147800       8.23762552      -0.64573400      -0.23645900      -0.41522100
O       18.76068695       4.64884722       8.97130425      -0.80220800       0.46918400      -0.15010500
O       14.60991927       4.64867452       8.19804071       2.51673400       1.39722300      -0.72913600
O       10.84088469       3.10935950       7.16423822      -1.22692500       0.77146500      -0.25211300
O       22.55409882       3.02667626      10.03858132      -0.35684900       1.32025600      -1.52371100
O       16.98677026       4.63211911       7.19835388      -0.46319500      -0.91688700      -0.11667200
O       16.30347021       4.64521427      10.02176571      -1.15133900      -0.06171900      -0.46644200
160
Lattice="24.902535 0.0 0.0 0.0 6.165528 0.0 -2.777923 0.0 11.415139" Properties=species:S:1:pos:R:3:force:R:3 Energy=-631.261245 Virial="-8.049461 -10.073312 20.117307 -14.907422 18.694578 -13.011786 8.066714 12.505298 -0.147125" pbc="T T T"
Ga      -0.03009201       0.07461174       4.58538648      -0.97681700      -0.34906000       0.30632900
Ga      11.01521169      -0.01159076       1.09144461      -0.57702100       0.55512000       0.05027600
Ga       6.18510468       1.49626082       4.53389212       0.71428100      -0.34453500       0.61373100
Ga       4.80891245       1.55465084       1.19947875      -1.42822800       0.03819800       1.04970500
Ga       1.54947960      -0.04325631       1.80627990       1.36675200       0.06361200       1.14056200
Ga       9.54936032      -0.01709090       3.84039413      -0.08221200       0.88365000      -0.35528400
Ga       7.81135590       1.54491454       1.68240541      -0.97958200       1.02627800       0.82350400
Ga       3.38112246       1.52223146       4.01181192      -0.34808400       0.90582700       1.07017300
O        1.92653962      -0.00810719       0.54385567      -0.32870400       0.19434500       0.68736700
O        9.12248957       0.00245242       5.25148289       0.16796700      -0.42689300       0.70787400
O        8.10113406       1.56271655       0.50772153       0.50557700       0.07033400       0.56284400
O        2.91850329       1.62044637       5.19211654      -1.38909600       0.59040800       0.99186700
O        1.40885531       0.00283386       3.29264325       0.42669400       0.73921800       0.06062600
O        9.64529156      -0.06317488       2.59018675       0.10263000       0.39606400      -0.69372400
O        7.58939894       1.55779232       3.25347805       1.32352700       0.22937400       0.73755500
O        3.47458555       1.63061469       2.52819408      -0.36894400       1.71530700      -0.51821600
O       -0.33409401      -0.09413933       1.47316025      -1.81861200       0.26105300       0.78277200
O       11.27861737       0.01298559       4.30481313       0.31348000       0.92358500      -0.55205800
O        5.91918155       1.54898621       1.49776494       0.73688600       0.36700500      -0.25243400
O        5.16922288       1.58780190       4.24566446       0.41958200      -1.55641700      -0.60168100
Ga      -1.42101601       0.07461174      10.30102148      -0.97681700      -0.34906000       0.30632900
Ga       9.62428769      -0.01159076       6.80707961      -0.57702100       0.55512000       0.05027600
Ga       4.79418068       1.49626082      10.24952712       0.71428100      -0.34453500       0.61373100
Ga       3.41798845       1.55465084       6.91511375      -1.42822800       0.03819800       1.04970500
Ga       0.15855560      -0.04325631       7.52191490       1.36675200       0.06361200       1.14056200
Ga       8.15843632      -0.01709090       9.55602913      -0.08221200       0.88365000      -0.35528400
Ga       6.42043190       1.54491454       7.39804041      -0.97958200       1.02627800       0.82350400
Ga       1.99019846       1.52223146       9.72744692      -0.34808400       0.90582700       1.07017300
O        0.53561562      -0.00810719       6.25949067      -0.32870400       0.19434500       0.68736700
O        7.73156557       0.00245242      10.96711789       0.16796700      -0.42689300       0.70787400
O        6.71021006       1.56271655       6.22335653       0.50557700       0.07033400       0.56284400
O        1.52757929       1.62044637      10.90775154      -1.38909600       0.59040800       0.99186700
O        0.01793131       0.00283386       9.00827825       0.42669400       0.73921800       0.06062600
O        8.25436756      -0.06317488       8.30582175       0.10263000       0.39606400      -0.69372400
O        6.19847494       1.55779232       8.96911305       1.32352700       0.22937400       0.73755500
O        2.08366155       1.63061469       8.24382908      -0.36894400       1.71530700      -0.51821600
O       -1.72501801      -0.09413933       7.18879525      -1.81861200       0.26105300       0.78277200
O        9.88769337       0.01298559      10.02044813       0.31348000       0.92358500      -0.55205800
O        4.52825755       1.54898621       7.21339994       0.73688600       0.36700500      -0.25243400
O        3.77829888       1.58780190       9.96129946       0.41958200      -1.55641700      -0.60168100
Ga      -0.03009201       3.16173174       4.58538648      -0.97681700      -0.34906000       0.30632900
Ga      11.01521169       3.07552924       1.09144461      -0.57702100       0.55512000       0.05027600
Ga       6.18510468       4.58338082       4.53389212       0.71428100      -0.34453500       0.61373100
Ga       4.80891245       4.64177084       1.19947875      -1.42822800       0.03819800       1.04970500
Ga       1.54947960       3.04386369       1.80627990       1.36675200       0.06361200       1.14056200
Ga       9.54936032       3.07002910       3.84039413      -0.08221200       0.88365000      -0.35528400
Ga       7.81135590       4.63203454       1.68240541      -0.97958200       1.02627800       0.82350400
Ga       3.38112246       4.60935146       4.01181192      -0.34808400       0.90582700       1.07017300
O        1.92653962       3.07901281       0.54385567      -0.32870400       0.19434500       0.68736700
O        9.12248957       3.08957242       5.25148289       0.16796700      -0.42689300       0.70787400
O        8.10113406       4.64983655       0.50772153       0.50557700       0.07033400       0.56284400
O        2.91850329       4.70756637       5.19211654      -1.38909600       0.59040800       0.99186700
O        1.40885531       3.08995386       3.29264325       0.42669400       0.73921800       0.06062600
O        9.64529156       3.02394512       2.59018675       0.10263000       0.39606400      -0.69372400
O        7.58939894       4.64491232       3.25347805       1.32352700       0.22937400       0.73755500
O        3.47458555       4.71773469       2.52819408      -0.36894400       1.71530700      -0.51821600
O       -0.33409401       2.99298067       1.47316025      -1.81861200       0.26105300       0.78277200
O       11.27861737       3.10010559       4.30481313       0.31348000       0.92358500      -0.55205800
O        5.91918155       4.63610621       1.49776494       0.73688600       0.36700500      -0.25243400
O        5.16922288       4.67492190       4.24566446       0.41958200      -1.55641700      -0.60168100
Ga      -1.42101601       3.16173174      10.30102148      -0.97681700      -0.34906000       0.30632900
Ga       9.62428769       3.07552924       6.80707961      -0.57702100       0.55512000       0.05027600
Ga       4.79418068       4.58338082      10.24952712       0.71428100      -0.34453500       0.61373100
Ga       3.41798845       4.64177084       6.91511375      -1.42822800       0.03819800       1.04970500
Ga       0.15855560       3.04386369       7.52191490       1.36675200       0.06361200       1.14056200
Ga       8.15843632       3.07002910       9.55602913      -0.08221200       0.88365000      -0.35528400
Ga       6.42043190       4.63203454       7.39804041      -0.97958200       1.02627800       0.82350400
Ga       1.99019846       4.60935146       9.72744692      -0.34808400       0.90582700       1.07017300
O        0.53561562       3.07901281       6.25949067      -0.32870400       0.19434500       0.68736700
O        7.73156557       3.08957242      10.96711789       0.16796700      -0.42689300       0.70787400
O        6.71021006       4.64983655       6.22335653       0.50557700       0.07033400       0.56284400
O        1.52757929       4.70756637      10.90775154      -1.38909600       0.59040800       0.99186700
O        0.01793131       3.08995386       9.00827825       0.42669400       0.73921800       0.06062600
O        8.25436756       3.02394512       8.30582175       0.10263000       0.39606400      -0.69372400
O        6.19847494       4.64491232       8.96911305       1.32352700       0.22937400       0.73755500
O        2.08366155       4.71773469       8.24382908      -0.36894400       1.71530700      -0.51821600
O       -1.72501801       2.99298067       7.18879525      -1.81861200       0.26105300       0.78277200
O        9.88769337       3.10010559      10.02044813       0.31348000       0.92358500      -0.55205800
O        4.52825755       4.63610621       7.21339994       0.73688600       0.36700500      -0.25243400
O        3.77829888       4.67492190       9.96129946       0.41958200      -1.55641700      -0.60168100
Ga      12.43876899       0.07461174       4.58538648      -0.97681700      -0.34906000       0.30632900
Ga      23.48407269      -0.01159076       1.09144461      -0.57702100       0.55512000       0.05027600
Ga      18.65396568       1.49626082       4.53389212       0.71428100      -0.34453500       0.61373100
Ga      17.27777345       1.55465084       1.19947875      -1.42822800       0.03819800       1.04970500
Ga      14.01834060      -0.04325631       1.80627990       1.36675200       0.06361200       1.14056200
Ga      22.01822132      -0.01709090       3.84039413      -0.08221200       0.88365000      -0.35528400
Ga      20.28021690       1.54491454       1.68240541      -0.97958200       1.02627800       0.82350400
Ga      15.84998346       1.52223146       4.01181192      -0.34808400       0.90582700       1.07017300
O       14.39540062      -0.00810719       0.54385567      -0.32870400       0.19434500       0.68736700
O       21.59135057       0.00245242       5.25148289       0.16796700      -0.42689300       0.70787400
O       20.56999506       1.56271655       0.50772153       0.50557700       0.07033400       0.56284400
O       15.38736429       1.62044637       5.19211654      -1.38909600       0.59040800       0.99186700
O       13.87771631       0.00283386       3.29264325       0.42669400       0.73921800       0.06062600
O       22.11415256      -0.06317488       2.59018675       0.10263000       0.39606400      -0.69372400
O       20.05825994       1.55779232       3.25347805       1.32352700       0.22937400       0.73755500
O       15.94344655       1.63061469       2.52819408      -0.36894400       1.71530700      -0.51821600
O       12.13476699      -0.09413933       1.47316025      -1.81861200       0.26105300       0.78277200
O       23.74747837       0.01298559       4.30481313       0.31348000       0.92358500      -0.55205800
O       18.38804255       1.54898621       1.49776494       0.73688600       0.36700500      -0.25243400
O       17.63808388       1.58780190       4.24566446       0.41958200      -1.55641700      -0.60168100
Ga      11.04784499       0.07461174      10.30102148      -0.97681700      -0.34906000       0.30632900
Ga      22.09314869      -0.01159076       6.80707961      -0.57702100       0.55512000       0.05027600
Ga      17.26304168       1.49626082      10.24952712       0.71428100      -0.34453500       0.61373100
Ga      15.88684945       1.55465084       6.91511375      -1.42822800       0.03819800       1.04970500
Ga      12.62741660      -0.04325631       7.52191490       1.36675200       0.06361200       1.14056200
Ga      20.62729732      -0.01709090       9.55602913      -0.08221200       0.88365000      -0.35528400
Ga      18.88929290       1.54491454       7.39804041      -0.97958200       1.02627800       0.82350400
Ga      14.45905946       1.52223146       9.72744692      -0.34808400       0.90582700       1.07017300
O       13.00447662      -0.00810719       6.25949067      -0.32870400       0.19434500       0.68736700
O       20.20042657       0.00245242      10.96711789       0.16796700      -0.42689300       0.70787400
O       19.17907106       1.56271655       6.22335653       0.50557700       0.07033400       0.56284400
O       13.99644029       1.62044637      10.90775154      -1.38909600       0.59040800       0.99186700
O       12.48679231       0.00283386       9.00827825       0.42669400       0.73921800       0.06062600
O       20.72322856      -0.06317488       8.30582175       0.10263000       0.39606400      -0.69372400
O       18.66733594       1.55779232       8.96911305       1.32352700       0.22937400       0.73755500
O       14.55252255       1.63061469       8.24382908      -0.36894400       1.71530700      -0.51821600
O       10.74384299      -0.09413933       7.18879525      -1.81861200       0.26105300       0.78277200
O       22.35655437       0.01298559      10.02044813       0.31348000       0.92358500      -0.55205800
O       16.99711855       1.54898621       7.21339994       0.73688600       0.36700500      -0.25243400
O       16.24715988       1.58780190       9.96129946       0.41958200      -1.55641700      -0.60168100
Ga      12.43876899       3.16173174       4.58538648      -0.97681700      -0.34906000       0.30632900
Ga      23.48407269       3.07552924       1.09144461      -0.57702100       0.55512000       0.05027600
Ga      18.65396568       4.58338082       4.53389212       0.71428100      -0.34453500       0.61373100
Ga      17.27777345       4.64177084       1.19947875      -1.42822800       0.03819800       1.04970500
Ga      14.01834060       3.04386369       1.80627990       1.36675200       0.06361200       1.14056200
Ga      22.01822132       3.07002910       3.84039413      -0.08221200       0.88365000      -0.35528400
Ga      20.28021690       4.63203454       1.68240541      -0.97958200       1.02627800       0.82350400
Ga      15.84998346       4.60935146       4.01181192      -0.34808400       0.90582700       1.07017300
O       14.39540062       3.07901281       0.54385567      -0.32870400       0.19434500       0.68736700
O       21.59135057       3.08957242       5.25148289       0.16796700      -0.42689300       0.70787400
O       20.56999506       4.64983655       0.50772153       0.50557700       0.07033400       0.56284400
O       15.38736429       4.70756637       5.19211654      -1.38909600       0.59040800       0.99186700
O       13.87771631       3.08995386       3.29264325       0.42669400       0.73921800       0.06062600
O       22.11415256       3.02394512       2.59018675       0.10263000       0.39606400      -0.69372400
O       20.05825994       4.64491232       3.25347805       1.32352700       0.22937400       0.73755500
O       15.94344655       4.71773469       2.52819408      -0.36894400       1.71530700      -0.51821600
O       12.13476699       2.99298067       1.47316025      -1.81861200       0.26105300       0.78277200
O       23.74747837       3.10010559       4.30481313       0.31348000       0.92358500      -0.55205800
O       18.38804255       4.63610621       1.49776494       0.73688600       0.36700500      -0.25243400
O       17.63808388       4.67492190       4.24566446       0.41958200      -1.55641700      -0.60168100
Ga      11.04784499       3.16173174      10.30102148      -0.97681700      -0.34906000       0.30632900
Ga      22.09314869       3.07552924       6.80707961      -0.57702100       0.55512000       0.05027600
Ga      17.26304168       4.58338082      10.24952712       0.71428100      -0.34453500       0.61373100
Ga      15.88684945       4.64177084       6.91511375      -1.42822800       0.03819800       1.04970500
Ga      12.62741660       3.04386369       7.52191490       1.36675200       0.06361200       1.14056200
Ga      20.62729732       3.07002910       9.55602913      -0.08221200       0.88365000      -0.35528400
Ga      18.88929290       4.63203454       7.39804041      -0.97958200       1.02627800       0.82350400
Ga      14.45905946       4.60935146       9.72744692      -0.34808400       0.90582700       1.07017300
O       13.00447662       3.07901281       6.25949067      -0.32870400       0.19434500       0.68736700
O       20.20042657       3.08957242      10.96711789       0.16796700      -0.42689300       0.70787400
O       19.17907106       4.64983655       6.22335653       0.50557700       0.07033400       0.56284400
O       13.99644029       4.70756637      10.90775154      -1.38909600       0.59040800       0.99186700
O       12.48679231       3.08995386       9.00827825       0.42669400       0.73921800       0.06062600
O       20.72322856       3.02394512       8.30582175       0.10263000       0.39606400      -0.69372400
O       18.66733594       4.64491232       8.96911305       1.32352700       0.22937400       0.73755500
O       14.55252255       4.71773469       8.24382908      -0.36894400       1.71530700      -0.51821600
O       10.74384299       2.99298067       7.18879525      -1.81861200       0.26105300       0.78277200
O       22.35655437       3.10010559      10.02044813       0.31348000       0.92358500      -0.55205800
O       16.99711855       4.63610621       7.21339994       0.73688600       0.36700500      -0.25243400
O       16.24715988       4.67492190       9.96129946       0.41958200      -1.55641700      -0.60168100
160
Lattice="25.316079 0.0 0.0 0.0 6.267916 0.0 -2.824054 0.0 11.604705" Properties=species:S:1:pos:R:3:force:R:3 Energy=-631.224661 Virial="-4.161018 11.160368 2.190007 0.214205 -4.071211 -5.98953 17.781282 38.748674 -3.633462" pbc="T T T"
Ga       0.01287846       0.06704086       4.60935183       0.83525100       1.15934900      -1.02568600
Ga      11.23572283       0.00168998       1.17563668       1.32776600      -0.06793900      -1.06228700
Ga       6.35403533       1.48850028       4.54864176       0.24208900      -0.62733600       0.92437600
Ga       4.90742206       1.62970694       1.20573168       0.06676400       1.06942700       0.26909000
Ga       1.53509128      -0.05771415       1.85448085       0.04146800      -0.66529400       0.37984900
Ga       9.65941809       0.02572942       3.99484770       0.44464100       0.80429300       0.13449400
Ga       7.91205809       1.56832303       1.83844553      -0.74762500      -0.11942700      -0.58908700
Ga       3.34830767       1.54156670       3.94071313       0.31789500       0.47889700       0.87096300
O        1.84778715      -0.00724438       0.60619661      -0.68407900      -0.99053800      -0.53837400
O        9.33202762       0.00910836       5.22757117      -0.49344700       0.67974600       0.04217600
O        8.31210112       1.56220658       0.60841886      -1.33057500       1.03667600      -0.81734300
O        2.93456088       1.53698018       5.22304057      -0.62489500       1.67308000      -0.25407700
O        1.34264451      -0.03748179       3.24184121       0.98940200      -0.83789200      -0.89451000
O        9.81559464      -0.15425501       2.60761123      -0.56909300      -0.94290400       0.97525500
O        7.66358554       1.59054809       3.23896114      -0.03487900      -0.27292500       0.78079000
O        3.59975755       1.60685726       2.54445611      -0.14998000      -0.94526300       0.00965500
O       -0.33892924       0.06010911       1.42636793       0.15015700       0.21911200       0.37511600
O       11.56449382      -0.00524482       4.30322103      -1.49928900      -1.61889300      -0.36157500
O        6.03231290       1.57456135       1.50369881       0.43060300      -0.45923100       1.02253000
O        5.23339861       1.58368621       4.32068468      -1.33706300       0.16178100       0.47160900
Ga      -1.37804554       0.06704086      10.32498683       0.83525100       1.15934900      -1.02568600
Ga       9.84479883       0.00168998       6.89127168       1.32776600      -0.06793900      -1.06228700
Ga       4.96311133       1.48850028      10.26427676       0.24208900      -0.62733600       0.92437600
Ga       3.51649806       1.62970694       6.92136668       0.06676400       1.06942700       0.26909000
Ga       0.14416728      -0.05771415       7.57011585       0.04146800      -0.66529400       0.37984900
Ga       8.26849409       0.02572942       9.71048270       0.44464100       0.80429300       0.13449400
Ga       6.52113409       1.56832303       7.55408053      -0.74762500      -0.11942700      -0.58908700
Ga       1.95738367       1.54156670       9.65634813       0.31789500       0.47889700       0.87096300
O        0.45686315      -0.00724438       6.32183161      -0.68407900      -0.99053800      -0.53837400
O        7.94110362       0.00910836      10.94320617      -0.49344700       0.67974600       0.04217600
O        6.92117712       1.56220658       6.32405386      -1.33057500       1.03667600      -0.81734300
O        1.54363688       1.53698018      10.93867557      -0.62489500       1.67308000      -0.25407700
O       -0.04827949      -0.03748179       8.95747621       0.98940200      -0.83789200      -0.89451000
O        8.42467064      -0.15425501       8.32324623      -0.56909300      -0.94290400       0.97525500
O        6.27266154       1.59054809       8.95459614      -0.03487900      -0.27292500       0.78079000
O        2.20883355       1.60685726       8.26009111      -0.14998000      -0.94526300       0.00965500
O       -1.72985324       0.06010911       7.14200293       0.15015700       0.21911200       0.37511600
O       10.17356982      -0.00524482      10.01885603      -1.49928900      -1.61889300      -0.36157500
O        4.64138890       1.57456135       7.21933381       0.43060300      -0.45923100       1.02253000
O        3.84247461       1.58368621      10.03631968      -1.33706300       0.16178100       0.47160900
Ga       0.01287846       3.15416086       4.60935183       0.83525100       1.15934900      -1.02568600
Ga      11.23572283       3.08880998       1.17563668       1.32776600      -0.06793900      -1.06228700
Ga       6.35403533       4.57562028       4.54864176       0.24208900      -0.62733600       0.92437600
Ga       4.90742206       4.71682694       1.20573168       0.06676400       1.06942700       0.26909000
Ga       1.53509128       3.02940585       1.85448085       0.04146800      -0.66529400       0.37984900
Ga       9.65941809       3.11284942       3.99484770       0.44464100       0.80429300       0.13449400
Ga       7.91205809       4.65544303       1.83844553      -0.74762500      -0.11942700      -0.58908700
Ga       3.34830767       4.62868670       3.94071313       0.31789500       0.47889700       0.87096300
O        1.84778715       3.07987562       0.60619661      -0.68407900      -0.99053800      -0.53837400
O        9.33202762       3.09622836       5.22757117      -0.49344700       0.67974600       0.04217600
O        8.31210112       4.64932658       0.60841886      -1.33057500       1.03667600      -0.81734300
O        2.93456088       4.62410018       5.22304057      -0.62489500       1.67308000      -0.25407700
O        1.34264451       3.04963821       3.24184121       0.98940200      -0.83789200      -0.89451000
O        9.81559464       2.93286499       2.60761123      -0.56909300      -0.94290400       0.97525500
O        7.66358554       4.67766809       3.23896114      -0.03487900      -0.27292500       0.78079000
O        3.59975755       4.69397726       2.54445611      -0.14998000      -0.94526300       0.00965500
O       -0.33892924       3.14722911       1.42636793       0.15015700       0.21911200       0.37511600
O       11.56449382       3.08187518       4.30322103      -1.49928900      -1.61889300      -0.36157500
O        6.03231290       4.66168135       1.50369881       0.43060300      -0.45923100       1.02253000
O        5.23339861       4.67080621       4.32068468      -1.33706300       0.16178100       0.47160900
Ga      -1.37804554       3.15416086      10.32498683       0.83525100       1.15934900      -1.02568600
Ga       9.84479883       3.08880998       6.89127168       1.32776600      -0.06793900      -1.06228700
Ga       4.96311133       4.57562028      10.26427676       0.24208900      -0.62733600       0.92437600
Ga       3.51649806       4.71682694       6.92136668       0.06676400       1.06942700       0.26909000
Ga       0.14416728       3.02940585       7.57011585       0.04146800      -0.66529400       0.37984900
Ga       8.26849409       3.11284942       9.71048270       0.44464100       0.80429300       0.13449400
Ga       6.52113409       4.65544303       7.55408053      -0.74762500      -0.11942700      -0.58908700
Ga       1.95738367       4.62868670       9.65634813       0.31789500       0.47889700       0.87096300
O        0.45686315       3.07987562       6.32183161      -0.68407900      -0.99053800      -0.53837400
O        7.94110362       3.09622836      10.94320617      -0.49344700       0.67974600       0.04217600
O        6.92117712       4.64932658       6.32405386      -1.33057500       1.03667600      -0.81734300
O        1.54363688       4.62410018      10.93867557      -0.62489500       1.67308000      -0.25407700
O       -0.04827949       3.04963821       8.95747621       0.98940200      -0.83789200      -0.89451000
O        8.42467064       2.93286499       8.32324623      -0.56909300      -0.94290400       0.97525500
O        6.27266154       4.67766809       8.95459614      -0.03487900      -0.27292500       0.78079000
O        2.20883355       4.69397726       8.26009111      -0.14998000      -0.94526300       0.00965500
O       -1.72985324       3.14722911       7.14200293       0.15015700       0.21911200       0.37511600
O       10.17356982       3.08187518      10.01885603      -1.49928900      -1.61889300      -0.36157500
O        4.64138890       4.66168135       7.21933381       0.43060300      -0.45923100       1.02253000
O        3.84247461       4.67080621      10.03631968      -1.33706300       0.16178100       0.47160900
Ga      12.48173946       0.06704086       4.60935183       0.83525100       1.15934900      -1.02568600
Ga      23.70458383       0.00168998       1.17563668       1.32776600      -0.06793900      -1.06228700
Ga      18.82289633       1.48850028       4.54864176       0.24208900      -0.62733600       0.92437600
Ga      17.37628306       1.62970694       1.20573168       0.06676400       1.06942700       0.26909000
Ga      14.00395228      -0.05771415       1.85448085       0.04146800      -0.66529400       0.37984900
Ga      22.12827909       0.02572942       3.99484770       0.44464100       0.80429300       0.13449400
Ga      20.38091909       1.56832303       1.83844553      -0.74762500      -0.11942700      -0.58908700
Ga      15.81716867       1.54156670       3.94071313       0.31789500       0.47889700       0.87096300
O       14.31664815      -0.00724438       0.60619661      -0.68407900      -0.99053800      -0.53837400
O       21.80088862       0.00910836       5.22757117      -0.49344700       0.67974600       0.04217600
O       20.78096212       1.56220658       0.60841886      -1.33057500       1.03667600      -0.81734300
O       15.40342188       1.53698018       5.22304057      -0.62489500       1.67308000      -0.25407700
O       13.81150551      -0.03748179       3.24184121       0.98940200      -0.83789200      -0.89451000
O       22.28445564      -0.15425501       2.60761123      -0.56909300      -0.94290400       0.97525500
O       20.13244654       1.59054809       3.23896114      -0.03487900      -0.27292500       0.78079000
O       16.06861855       1.60685726       2.54445611      -0.14998000      -0.94526300       0.00965500
O       12.12993176       0.06010911       1.42636793       0.15015700       0.21911200       0.37511600
O       24.03335482      -0.00524482       4.30322103      -1.49928900      -1.61889300      -0.36157500
O       18.50117390       1.57456135       1.50369881       0.43060300      -0.45923100       1.02253000
O       17.70225961       1.58368621       4.32068468      -1.33706300       0.16178100       0.47160900
Ga      11.09081546       0.06704086      10.32498683       0.83525100       1.15934900      -1.02568600
Ga      22.31365983       0.00168998       6.89127168       1.32776600      -0.06793900      -1.06228700
Ga      17.43197233       1.48850028      10.26427676       0.24208900      -0.62733600       0.92437600
Ga      15.98535906       1.62970694       6.92136668       0.06676400       1.06942700       0.26909000
Ga      12.61302828      -0.05771415       7.57011585       0.04146800      -0.66529400       0.37984900
Ga      20.73735509       0.02572942       9.71048270       0.44464100       0.80429300       0.13449400
Ga      18.98999509       1.56832303       7.55408053      -0.74762500      -0.11942700      -0.58908700
Ga      14.42624467       1.54156670       9.65634813       0.31789500       0.47889700       0.87096300
O       12.92572415      -0.00724438       6.32183161      -0.68407900      -0.99053800      -0.53837400
O       20.40996462       0.00910836      10.94320617      -0.49344700       0.67974600       0.04217600
O       19.39003812       1.56220658       6.32405386      -1.33057500       1.03667600      -0.81734300
O       14.01249788       1.53698018      10.93867557      -0.62489500       1.67308000      -0.25407700
O       12.42058151      -0.03748179       8.95747621       0.98940200      -0.83789200      -0.89451000
O       20.89353164      -0.15425501       8.32324623      -0.56909300      -0.94290400       0.97525500
O       18.74152254       1.59054809       8.95459614      -0.03487900      -0.27292500       0.78079000
O       14.67769455       1.60685726       8.26009111      -0.14998000      -0.94526300       0.00965500
O       10.73900776       0.06010911       7.14200293       0.15015700       0.21911200       0.37511600
O       22.64243082      -0.00524482      10.01885603      -1.49928900      -1.61889300      -0.36157500
O       17.11024990       1.57456135       7.21933381       0.43060300      -0.45923100       1.02253000
O       16.31133561       1.58368621      10.03631968      -1.33706300       0.16178100       0.47160900
Ga      12.48173946       3.15416086       4.60935183       0.83525100       1.15934900      -1.02568600
Ga      23.70458383       3.08880998       1.17563668       1.32776600      -0.06793900      -1.06228700
Ga      18.82289633       4.57562028       4.54864176       0.24208900      -0.62733600       0.92437600
Ga      17.37628306       4.71682694       1.20573168       0.06676400       1.06942700       0.26909000
Ga      14.00395228       3.02940585       1.85448085       0.04146800      -0.66529400       0.37984900
Ga      22.12827909       3.11284942       3.99484770       0.44464100       0.80429300       0.13449400
Ga      20.38091909       4.65544303       1.83844553      -0.74762500      -0.11942700      -0.58908700
Ga      15.81716867       4.62868670       3.94071313       0.31789500       0.47889700       0.87096300
O       14.31664815       3.07987562       0.60619661      -0.68407900      -0.99053800      -0.53837400
O       21.80088862       3.09622836       5.22757117      -0.49344700       0.67974600       0.04217600
O       20.78096212       4.64932658       0.60841886      -1.33057500       1.03667600      -0.81734300
O       15.40342188       4.62410018       5.22304057      -0.62489500       1.67308000      -0.25407700
O       13.81150551       3.04963821       3.24184121       0.98940200      -0.83789200      -0.89451000
O       22.28445564       2.93286499       2.60761123      -0.56909300      -0.94290400       0.97525500
O       20.13244654       4.67766809       3.23896114      -0.03487900      -0.27292500       0.78079000
O       16.06861855       4.69397726       2.54445611      -0.14998000      -0.94526300       0.00965500
O       12.12993176       3.14722911       1.42636793       0.15015700       0.21911200       0.37511600
O       24.03335482       3.08187518       4.30322103      -1.49928900      -1.61889300      -0.36157500
O       18.50117390       4.66168135       1.50369881       0.43060300      -0.45923100       1.02253000
O       17.70225961       4.67080621       4.32068468      -1.33706300       0.16178100       0.47160900
Ga      11.09081546       3.15416086      10.32498683       0.83525100       1.15934900      -1.02568600
Ga      22.31365983       3.08880998       6.89127168       1.32776600      -0.06793900      -1.06228700
Ga      17.43197233       4.57562028      10.26427676       0.24208900      -0.62733600       0.92437600
Ga      15.98535906       4.71682694       6.92136668       0.06676400       1.06942700       0.26909000
Ga      12.61302828       3.02940585       7.57011585       0.04146800      -0.66529400       0.37984900
Ga      20.73735509       3.11284942       9.71048270       0.44464100       0.80429300       0.13449400
Ga      18.98999509       4.65544303       7.55408053      -0.74762500      -0.11942700      -0.58908700
Ga      14.42624467       4.62868670       9.65634813       0.31789500       0.47889700       0.87096300
O       12.92572415       3.07987562       6.32183161      -0.68407900      -0.99053800      -0.53837400
O       20.40996462       3.09622836      10.94320617      -0.49344700       0.67974600       0.04217600
O       19.39003812       4.64932658       6.32405386      -1.33057500       1.03667600      -0.81734300
O       14.01249788       4.62410018      10.93867557      -0.62489500       1.67308000      -0.25407700
O       12.42058151       3.04963821       8.95747621       0.98940200      -0.83789200      -0.89451000
O       20.89353164       2.93286499       8.32324623      -0.56909300      -0.94290400       0.97525500
O       18.74152254       4.67766809       8.95459614      -0.03487900      -0.27292500       0.78079000
O       14.67769455       4.69397726       8.26009111      -0.14998000      -0.94526300       0.00965500
O       10.73900776       3.14722911       7.14200293       0.15015700       0.21911200       0.37511600
O       22.64243082       3.08187518      10.01885603      -1.49928900      -1.61889300      -0.36157500
O       17.11024990       4.66168135       7.21933381       0.43060300      -0.45923100       1.02253000
O       16.31133561       4.67080621      10.03631968      -1.33706300       0.16178100       0.47160900
160
Lattice="25.138896 0.0 0.0 0.0 6.224048 0.0 -2.804289 0.0 11.523485" Properties=species:S:1:pos:R:3:force:R:3 Energy=-631.21573 Virial="10.313364 15.447015 -21.315935 -15.343867 11.070425 -9.208131 14.569988 0.892467 3.745858" pbc="T T T"
Ga       0.04188128       0.04187516       4.57872975      -0.88595600      -1.02431300       1.34607600
Ga      11.05258028       0.00989160       1.21391881      -0.10836600       0.43309700      -0.29977600
Ga       6.27021740       1.54584571       4.53206159      -0.46409900      -0.07208200       0.60772800
Ga       4.75638247       1.59709207       1.18331164       0.44541900      -0.29246500       0.18850400
Ga       1.61686747       0.03429289       1.79617175       0.41155800       1.17954600      -0.76254600
Ga       9.61101498       0.02264710       3.99007821      -0.52892900      -0.23172700       0.68668100
Ga       7.85059143       1.60023562       1.79847339       0.65702000      -0.41175800      -0.07846900
Ga       3.28973233       1.55341952       3.95961026      -1.02715000       2.05940000       0.15718300
O        1.88152599      -0.05346888       0.55949961       0.15815300      -1.53706900      -0.39483300
O        9.22146100      -0.00663364       5.20575115      -2.13490300       1.34207200       1.19123500
O        8.27513558       1.60648234       0.49211001      -1.28229900       0.95760600       0.33973800
O        2.93167941       1.59001206       5.24421630       0.33763800      -0.00983400       1.11999200
O        1.39045902      -0.04550401       3.18775066       0.86360800       0.32390000       0.00726100
O        9.75451464       0.01107977       2.61483983      -0.26496900       0.19019900      -0.84967700
O        7.64936626       1.51497048       3.21070881      -0.57145800       0.36800500       0.84471400
O        3.53173077       1.49813657       2.60483611      -1.31268200       1.71462000      -0.78740000
O       -0.31555238      -0.02937280       1.41099908       0.13444300       0.45951000       0.28727200
O       11.50423463      -0.00684685       4.29356457       0.26471500      -0.51552900       1.14245800
O        5.94001953       1.54324805       1.45554340      -0.95394300       0.52531100      -0.14547500
O        5.18722695       1.52922980       4.22536912      -0.71012700       0.12804500      -0.40954900
Ga      -1.34904272       0.04187516      10.29436475      -0.88595600      -1.02431300       1.34607600
Ga       9.66165628       0.00989160       6.92955381      -0.10836600       0.43309700      -0.29977600
Ga       4.87929340       1.54584571      10.24769659      -0.46409900      -0.07208200       0.60772800
Ga       3.36545847       1.59709207       6.89894664       0.44541900      -0.29246500       0.18850400
Ga       0.22594347       0.03429289       7.51180675       0.41155800       1.17954600      -0.76254600
Ga       8.22009098       0.02264710       9.70571321      -0.52892900      -0.23172700       0.68668100
Ga       6.45966743       1.60023562       7.51410839       0.65702000      -0.41175800      -0.07846900
Ga       1.89880833       1.55341952       9.67524526      -1.02715000       2.05940000       0.15718300
O        0.49060199      -0.05346888       6.27513461       0.15815300      -1.53706900      -0.39483300
O        7.83053700      -0.00663364      10.92138615      -2.13490300       1.34207200       1.19123500
O        6.88421158       1.60648234       6.20774501      -1.28229900       0.95760600       0.33973800
O        1.54075541       1.59001206      10.95985130       0.33763800      -0.00983400       1.11999200
O       -0.00046498      -0.04550401       8.90338566       0.86360800       0.32390000       0.00726100
O        8.36359064       0.01107977       8.33047483      -0.26496900       0.19019900      -0.84967700
O        6.25844226       1.51497048       8.92634381      -0.57145800       0.36800500       0.84471400
O        2.14080677       1.49813657       8.32047111      -1.31268200       1.71462000      -0.78740000
O       -1.70647638      -0.02937280       7.12663408       0.13444300       0.45951000       0.28727200
O       10.11331063      -0.00684685      10.00919957       0.26471500      -0.51552900       1.14245800
O        4.54909553       1.54324805       7.17117840      -0.95394300       0.52531100      -0.14547500
O        3.79630295       1.52922980       9.94100412      -0.71012700       0.12804500      -0.40954900
Ga       0.04188128       3.12899516       4.57872975      -0.88595600      -1.02431300       1.34607600
Ga      11.05258028       3.09701160       1.21391881      -0.10836600       0.43309700      -0.29977600
Ga       6.27021740       4.63296571       4.53206159      -0.46409900      -0.07208200       0.60772800
Ga       4.75638247       4.68421207       1.18331164       0.44541900      -0.29246500       0.18850400
Ga       1.61686747       3.12141289       1.79617175       0.41155800       1.17954600      -0.76254600
Ga       9.61101498       3.10976710       3.99007821      -0.52892900      -0.23172700       0.68668100
Ga       7.85059143       4.68735562       1.79847339       0.65702000      -0.41175800      -0.07846900
Ga       3.28973233       4.64053952       3.95961026      -1.02715000       2.05940000       0.15718300
O        1.88152599       3.03365112       0.55949961       0.15815300      -1.53706900      -0.39483300
O        9.22146100       3.08048636       5.20575115      -2.13490300       1.34207200       1.19123500
O        8.27513558       4.69360234       0.49211001      -1.28229900       0.95760600       0.33973800
O        2.93167941       4.67713206       5.24421630       0.33763800      -0.00983400       1.11999200
O        1.39045902       3.04161599       3.18775066       0.86360800       0.32390000       0.00726100
O        9.75451464       3.09819977       2.61483983      -0.26496900       0.19019900      -0.84967700
O        7.64936626       4.60209048       3.21070881      -0.57145800       0.36800500       0.84471400
O        3.53173077       4.58525657       2.60483611      -1.31268200       1.71462000      -0.78740000
O       -0.31555238       3.05774720       1.41099908       0.13444300       0.45951000       0.28727200
O       11.50423463       3.08027315       4.29356457       0.26471500      -0.51552900       1.14245800
O        5.94001953       4.63036805       1.45554340      -0.95394300       0.52531100      -0.14547500
O        5.18722695       4.61634980       4.22536912      -0.71012700       0.12804500      -0.40954900
Ga      -1.34904272       3.12899516      10.29436475      -0.88595600      -1.02431300       1.34607600
Ga       9.66165628       3.09701160       6.92955381      -0.10836600       0.43309700      -0.29977600
Ga       4.87929340       4.63296571      10.24769659      -0.46409900      -0.07208200       0.60772800
Ga       3.36545847       4.68421207       6.89894664       0.44541900      -0.29246500       0.18850400
Ga       0.22594347       3.12141289       7.51180675       0.41155800       1.17954600      -0.76254600
Ga       8.22009098       3.10976710       9.70571321      -0.52892900      -0.23172700       0.68668100
Ga       6.45966743       4.68735562       7.51410839       0.65702000      -0.41175800      -0.07846900
Ga       1.89880833       4.64053952       9.67524526      -1.02715000       2.05940000       0.15718300
O        0.49060199       3.03365112       6.27513461       0.15815300      -1.53706900      -0.39483300
O        7.83053700       3.08048636      10.92138615      -2.13490300       1.34207200       1.19123500
O        6.88421158       4.69360234       6.20774501      -1.28229900       0.95760600       0.33973800
O        1.54075541       4.67713206      10.95985130       0.33763800      -0.00983400       1.11999200
O       -0.00046498       3.04161599       8.90338566       0.86360800       0.32390000       0.00726100
O        8.36359064       3.09819977       8.33047483      -0.26496900       0.19019900      -0.84967700
O        6.25844226       4.60209048       8.92634381      -0.57145800       0.36800500       0.84471400
O        2.14080677       4.58525657       8.32047111      -1.31268200       1.71462000      -0.78740000
O       -1.70647638       3.05774720       7.12663408       0.13444300       0.45951000       0.28727200
O       10.11331063       3.08027315      10.00919957       0.26471500      -0.51552900       1.14245800
O        4.54909553       4.63036805       7.17117840      -0.95394300       0.52531100      -0.14547500
O        3.79630295       4.61634980       9.94100412      -0.71012700       0.12804500      -0.40954900
Ga      12.51074228       0.04187516       4.57872975      -0.88595600      -1.02431300       1.34607600
Ga      23.52144128       0.00989160       1.21391881      -0.10836600       0.43309700      -0.29977600
Ga      18.73907840       1.54584571       4.53206159      -0.46409900      -0.07208200       0.60772800
Ga      17.22524347       1.59709207       1.18331164       0.44541900      -0.29246500       0.18850400
Ga      14.08572847       0.03429289       1.79617175       0.41155800       1.17954600      -0.76254600
Ga      22.07987598       0.02264710       3.99007821      -0.52892900      -0.23172700       0.68668100
Ga      20.31945243       1.60023562       1.79847339       0.65702000      -0.41175800      -0.07846900
Ga      15.75859333       1.55341952       3.95961026      -1.02715000       2.05940000       0.15718300
O       14.35038699      -0.05346888       0.55949961       0.15815300      -1.53706900      -0.39483300
O       21.69032200      -0.00663364       5.20575115      -2.13490300       1.34207200       1.19123500
O       20.74399658       1.60648234       0.49211001      -1.28229900       0.95760600       0.33973800
O       15.40054041       1.59001206       5.24421630       0.33763800      -0.00983400       1.11999200
O       13.85932002      -0.04550401       3.18775066       0.86360800       0.32390000       0.00726100
O       22.22337564       0.01107977       2.61483983      -0.26496900       0.19019900      -0.84967700
O       20.11822726       1.51497048       3.21070881      -0.57145800       0.36800500       0.84471400
O       16.00059177       1.49813657       2.60483611      -1.31268200       1.71462000      -0.78740000
O       12.15330862      -0.02937280       1.41099908       0.13444300       0.45951000       0.28727200
O       23.97309563      -0.00684685       4.29356457       0.26471500      -0.51552900       1.14245800
O       18.40888053       1.54324805       1.45554340      -0.95394300       0.52531100      -0.14547500
O       17.65608795       1.52922980       4.22536912      -0.71012700       0.12804500      -0.40954900
Ga      11.11981828       0.04187516      10.29436475      -0.88595600      -1.02431300       1.34607600
Ga      22.13051728       0.00989160       6.92955381      -0.10836600       0.43309700      -0.29977600
Ga      17.34815440       1.54584571      10.24769659      -0.46409900      -0.07208200       0.60772800
Ga      15.83431947       1.59709207       6.89894664       0.44541900      -0.29246500       0.18850400
Ga      12.69480447       0.03429289       7.51180675       0.41155800       1.17954600      -0.76254600
Ga      20.68895198       0.02264710       9.70571321      -0.52892900      -0.23172700       0.68668100
Ga      18.92852843       1.60023562       7.51410839       0.65702000      -0.41175800      -0.07846900
Ga      14.36766933       1.55341952       9.67524526      -1.02715000       2.05940000       0.15718300
O       12.95946299      -0.05346888       6.27513461       0.15815300      -1.53706900      -0.39483300
O       20.29939800      -0.00663364      10.92138615      -2.13490300       1.34207200       1.19123500
O       19.35307258       1.60648234       6.20774501      -1.28229900       0.95760600       0.33973800
O       14.00961641       1.59001206      10.95985130       0.33763800      -0.00983400       1.11999200
O       12.46839602      -0.04550401       8.90338566       0.86360800       0.32390000       0.00726100
O       20.83245164       0.01107977       8.33047483      -0.26496900       0.19019900      -0.84967700
O       18.72730326       1.51497048       8.92634381      -0.57145800       0.36800500       0.84471400
O       14.60966777       1.49813657       8.32047111      -1.31268200       1.71462000      -0.78740000
O       10.76238462      -0.02937280       7.12663408       0.13444300       0.45951000       0.28727200
O       22.58217163      -0.00684685      10.00919957       0.26471500      -0.51552900       1.14245800
O       17.01795653       1.54324805       7.17117840      -0.95394300       0.52531100      -0.14547500
O       16.26516395       1.52922980       9.94100412      -0.71012700       0.12804500      -0.40954900
Ga      12.51074228       3.12899516       4.57872975      -0.88595600      -1.02431300       1.34607600
Ga      23.52144128       3.09701160       1.21391881      -0.10836600       0.43309700      -0.29977600
Ga      18.73907840       4.63296571       4.53206159      -0.46409900      -0.07208200       0.60772800
Ga      17.22524347       4.68421207       1.18331164       0.44541900      -0.29246500       0.18850400
Ga      14.08572847       3.12141289       1.79617175       0.41155800       1.17954600      -0.76254600
Ga      22.07987598       3.10976710       3.99007821      -0.52892900      -0.23172700       0.68668100
Ga      20.31945243       4.68735562       1.79847339       0.65702000      -0.41175800      -0.07846900
Ga      15.75859333       4.64053952       3.95961026      -1.02715000       2.05940000       0.15718300
O       14.35038699       3.03365112       0.55949961       0.15815300      -1.53706900      -0.39483300
O       21.69032200       3.08048636       5.20575115      -2.13490300       1.34207200       1.19123500
O       20.74399658       4.69360234       0.49211001      -1.28229900       0.95760600       0.33973800
O       15.40054041       4.67713206       5.24421630       0.33763800      -0.00983400       1.11999200
O       13.85932002       3.04161599       3.18775066       0.86360800       0.32390000       0.00726100
O       22.22337564       3.09819977       2.61483983      -0.26496900       0.19019900      -0.84967700
O       20.11822726       4.60209048       3.21070881      -0.57145800       0.36800500       0.84471400
O       16.00059177       4.58525657       2.60483611      -1.31268200       1.71462000      -0.78740000
O       12.15330862       3.05774720       1.41099908       0.13444300       0.45951000       0.28727200
O       23.97309563       3.08027315       4.29356457       0.26471500      -0.51552900       1.14245800
O       18.40888053       4.63036805       1.45554340      -0.95394300       0.52531100      -0.14547500
O       17.65608795       4.61634980       4.22536912      -0.71012700       0.12804500      -0.40954900
Ga      11.11981828       3.12899516      10.29436475      -0.88595600      -1.02431300       1.34607600
Ga      22.13051728       3.09701160       6.92955381      -0.10836600       0.43309700      -0.29977600
Ga      17.34815440       4.63296571      10.24769659      -0.46409900      -0.07208200       0.60772800
Ga      15.83431947       4.68421207       6.89894664       0.44541900      -0.29246500       0.18850400
Ga      12.69480447       3.12141289       7.51180675       0.41155800       1.17954600      -0.76254600
Ga      20.68895198       3.10976710       9.70571321      -0.52892900      -0.23172700       0.68668100
Ga      18.92852843       4.68735562       7.51410839       0.65702000      -0.41175800      -0.07846900
Ga      14.36766933       4.64053952       9.67524526      -1.02715000       2.05940000       0.15718300
O       12.95946299       3.03365112       6.27513461       0.15815300      -1.53706900      -0.39483300
O       20.29939800       3.08048636      10.92138615      -2.13490300       1.34207200       1.19123500
O       19.35307258       4.69360234       6.20774501      -1.28229900       0.95760600       0.33973800
O       14.00961641       4.67713206      10.95985130       0.33763800      -0.00983400       1.11999200
O       12.46839602       3.04161599       8.90338566       0.86360800       0.32390000       0.00726100
O       20.83245164       3.09819977       8.33047483      -0.26496900       0.19019900      -0.84967700
O       18.72730326       4.60209048       8.92634381      -0.57145800       0.36800500       0.84471400
O       14.60966777       4.58525657       8.32047111      -1.31268200       1.71462000      -0.78740000
O       10.76238462       3.05774720       7.12663408       0.13444300       0.45951000       0.28727200
O       22.58217163       3.08027315      10.00919957       0.26471500      -0.51552900       1.14245800
O       17.01795653       4.63036805       7.17117840      -0.95394300       0.52531100      -0.14547500
O       16.26516395       4.61634980       9.94100412      -0.71012700       0.12804500      -0.40954900
160
Lattice="24.860479 0.0 0.0 0.0 6.155115 0.0 -2.773231 0.0 11.395861" Properties=species:S:1:pos:R:3:force:R:3 Energy=-631.212455 Virial="47.282418 9.99622 -1.956658 4.536741 3.126459 10.09426 4.453577 5.81917 28.547592" pbc="T T T"
Ga       0.01361957      -0.01643429       4.56794042       1.27011000       0.15021800       1.09333400
Ga      11.00573103      -0.01104842       1.22681644      -0.33547300      -0.67273000       0.06298200
Ga       6.25858171       1.60528707       4.57793809      -0.48893000       0.05571900       0.21134500
Ga       4.76988564       1.57837687       1.23136670      -0.00360600      -0.31574000       1.09157200
Ga       1.59707373       0.03952384       1.82899128       0.23851700      -0.97323700       1.47358700
Ga       9.49575551      -0.03349528       3.89355181       0.75116800       0.03820800       0.20332300
Ga       7.68428954       1.59249065       1.77895864      -1.01057000       0.15236500       1.36213000
Ga       3.34439529       1.48951885       3.95094550      -1.17025500       0.23898200       1.02131900
O        1.88842172      -0.05137478       0.60069053      -0.34428000      -0.40150500       0.84965300
O        9.17969868       0.00847170       5.16368256      -0.44232200       0.83473200      -1.16827700
O        8.14091724       1.54656398       0.50391477      -0.64301900       0.49155100       1.68107900
O        2.90380424       1.61720755       5.26921132      -0.49822200       0.43938300      -0.48407300
O        1.43920617       0.01912896       3.16593513      -1.15332500      -2.47798300      -1.21691400
O        9.63499629      -0.02929130       2.49635506      -0.09897300      -0.40029100      -0.03718500
O        7.67786589       1.61103012       3.20929623       1.60080100      -0.73338000       0.31876200
O        3.41337931       1.57450107       2.50894109      -0.19062100      -0.17350600      -1.27193700
O       -0.39137292       0.01148403       1.42499422      -0.18485600      -0.10063500       0.06980000
O       11.31655357      -0.01001632       4.21932720       0.65735400      -0.02848600       1.16222700
O        5.90849608       1.53548561       1.38363837      -0.09851300       0.43316800       0.31190600
O        5.19456793       1.49944376       4.20116418      -1.55668900      -0.46885400       0.38782500
Ga      -1.37730443      -0.01643429      10.28357542       1.27011000       0.15021800       1.09333400
Ga       9.61480703      -0.01104842       6.94245144      -0.33547300      -0.67273000       0.06298200
Ga       4.86765771       1.60528707      10.29357309      -0.48893000       0.05571900       0.21134500
Ga       3.37896164       1.57837687       6.94700170      -0.00360600      -0.31574000       1.09157200
Ga       0.20614973       0.03952384       7.54462628       0.23851700      -0.97323700       1.47358700
Ga       8.10483151      -0.03349528       9.60918681       0.75116800       0.03820800       0.20332300
Ga       6.29336554       1.59249065       7.49459364      -1.01057000       0.15236500       1.36213000
Ga       1.95347129       1.48951885       9.66658050      -1.17025500       0.23898200       1.02131900
O        0.49749772      -0.05137478       6.31632553      -0.34428000      -0.40150500       0.84965300
O        7.78877468       0.00847170      10.87931756      -0.44232200       0.83473200      -1.16827700
O        6.74999324       1.54656398       6.21954977      -0.64301900       0.49155100       1.68107900
O        1.51288024       1.61720755      10.98484632      -0.49822200       0.43938300      -0.48407300
O        0.04828217       0.01912896       8.88157013      -1.15332500      -2.47798300      -1.21691400
O        8.24407229      -0.02929130       8.21199006      -0.09897300      -0.40029100      -0.03718500
O        6.28694189       1.61103012       8.92493123       1.60080100      -0.73338000       0.31876200
O        2.02245531       1.57450107       8.22457609      -0.19062100      -0.17350600      -1.27193700
O       -1.78229692       0.01148403       7.14062922      -0.18485600      -0.10063500       0.06980000
O        9.92562957      -0.01001632       9.93496220       0.65735400      -0.02848600       1.16222700
O        4.51757208       1.53548561       7.09927337      -0.09851300       0.43316800       0.31190600
O        3.80364393       1.49944376       9.91679918      -1.55668900      -0.46885400       0.38782500
Ga       0.01361957       3.07068571       4.56794042       1.27011000       0.15021800       1.09333400
Ga      11.00573103       3.07607158       1.22681644      -0.33547300      -0.67273000       0.06298200
Ga       6.25858171       4.69240707       4.57793809      -0.48893000       0.05571900       0.21134500
Ga       4.76988564       4.66549687       1.23136670      -0.00360600      -0.31574000       1.09157200
Ga       1.59707373       3.12664384       1.82899128       0.23851700      -0.97323700       1.47358700
Ga       9.49575551       3.05362472       3.89355181       0.75116800       0.03820800       0.20332300
Ga       7.68428954       4.67961065       1.77895864      -1.01057000       0.15236500       1.36213000
Ga       3.34439529       4.57663885       3.95094550      -1.17025500       0.23898200       1.02131900
O        1.88842172       3.03574522       0.60069053      -0.34428000      -0.40150500       0.84965300
O        9.17969868       3.09559170       5.16368256      -0.44232200       0.83473200      -1.16827700
O        8.14091724       4.63368398       0.50391477      -0.64301900       0.49155100       1.68107900
O        2.90380424       4.70432755       5.26921132      -0.49822200       0.43938300      -0.48407300
O        1.43920617       3.10624896       3.16593513      -1.15332500      -2.47798300      -1.21691400
O        9.63499629       3.05782870       2.49635506      -0.09897300      -0.40029100      -0.03718500
O        7.67786589       4.69815012       3.20929623       1.60080100      -0.73338000       0.31876200
O        3.41337931       4.66162107       2.50894109      -0.19062100      -0.17350600      -1.27193700
O       -0.39137292       3.09860403       1.42499422      -0.18485600      -0.10063500       0.06980000
O       11.31655357       3.07710368       4.21932720       0.65735400      -0.02848600       1.16222700
O        5.90849608       4.62260561       1.38363837      -0.09851300       0.43316800       0.31190600
O        5.19456793       4.58656376       4.20116418      -1.55668900      -0.46885400       0.38782500
Ga      -1.37730443       3.07068571      10.28357542       1.27011000       0.15021800       1.09333400
Ga       9.61480703       3.07607158       6.94245144      -0.33547300      -0.67273000       0.06298200
Ga       4.86765771       4.69240707      10.29357309      -0.48893000       0.05571900       0.21134500
Ga       3.37896164       4.66549687       6.94700170      -0.00360600      -0.31574000       1.09157200
Ga       0.20614973       3.12664384       7.54462628       0.23851700      -0.97323700       1.47358700
Ga       8.10483151       3.05362472       9.60918681       0.75116800       0.03820800       0.20332300
Ga       6.29336554       4.67961065       7.49459364      -1.01057000       0.15236500       1.36213000
Ga       1.95347129       4.57663885       9.66658050      -1.17025500       0.23898200       1.02131900
O        0.49749772       3.03574522       6.31632553      -0.34428000      -0.40150500       0.84965300
O        7.78877468       3.09559170      10.87931756      -0.44232200       0.83473200      -1.16827700
O        6.74999324       4.63368398       6.21954977      -0.64301900       0.49155100       1.68107900
O        1.51288024       4.70432755      10.98484632      -0.49822200       0.43938300      -0.48407300
O        0.04828217       3.10624896       8.88157013      -1.15332500      -2.47798300      -1.21691400
O        8.24407229       3.05782870       8.21199006      -0.09897300      -0.40029100      -0.03718500
O        6.28694189       4.69815012       8.92493123       1.60080100      -0.73338000       0.31876200
O        2.02245531       4.66162107       8.22457609      -0.19062100      -0.17350600      -1.27193700
O       -1.78229692       3.09860403       7.14062922      -0.18485600      -0.10063500       0.06980000
O        9.92562957       3.07710368       9.93496220       0.65735400      -0.02848600       1.16222700
O        4.51757208       4.62260561       7.09927337      -0.09851300       0.43316800       0.31190600
O        3.80364393       4.58656376       9.91679918      -1.55668900      -0.46885400       0.38782500
Ga      12.48248057      -0.01643429       4.56794042       1.27011000       0.15021800       1.09333400
Ga      23.47459203      -0.01104842       1.22681644      -0.33547300      -0.67273000       0.06298200
Ga      18.72744271       1.60528707       4.57793809      -0.48893000       0.05571900       0.21134500
Ga      17.23874664       1.57837687       1.23136670      -0.00360600      -0.31574000       1.09157200
Ga      14.06593473       0.03952384       1.82899128       0.23851700      -0.97323700       1.47358700
Ga      21.96461651      -0.03349528       3.89355181       0.75116800       0.03820800       0.20332300
Ga      20.15315054       1.59249065       1.77895864      -1.01057000       0.15236500       1.36213000
Ga      15.81325629       1.48951885       3.95094550      -1.17025500       0.23898200       1.02131900
O       14.35728272      -0.05137478       0.60069053      -0.34428000      -0.40150500       0.84965300
O       21.64855968       0.00847170       5.16368256      -0.44232200       0.83473200      -1.16827700
O       20.60977824       1.54656398       0.50391477      -0.64301900       0.49155100       1.68107900
O       15.37266524       1.61720755       5.26921132      -0.49822200       0.43938300      -0.48407300
O       13.90806717       0.01912896       3.16593513      -1.15332500      -2.47798300      -1.21691400
O       22.10385729      -0.02929130       2.49635506      -0.09897300      -0.40029100      -0.03718500
O       20.14672689       1.61103012       3.20929623       1.60080100      -0.73338000       0.31876200
O       15.88224031       1.57450107       2.50894109      -0.19062100      -0.17350600      -1.27193700
O       12.07748808       0.01148403       1.42499422      -0.18485600      -0.10063500       0.06980000
O       23.78541457      -0.01001632       4.21932720       0.65735400      -0.02848600       1.16222700
O       18.37735708       1.53548561       1.38363837      -0.09851300       0.43316800       0.31190600
O       17.66342893       1.49944376       4.20116418      -1.55668900      -0.46885400       0.38782500
Ga      11.09155657      -0.01643429      10.28357542       1.27011000       0.15021800       1.09333400
Ga      22.08366803      -0.01104842       6.94245144      -0.33547300      -0.67273000       0.06298200
Ga      17.33651871       1.60528707      10.29357309      -0.48893000       0.05571900       0.21134500
Ga      15.84782264       1.57837687       6.94700170      -0.00360600      -0.31574000       1.09157200
Ga      12.67501073       0.03952384       7.54462628       0.23851700      -0.97323700       1.47358700
Ga      20.57369251      -0.03349528       9.60918681       0.75116800       0.03820800       0.20332300
Ga      18.76222654       1.59249065       7.49459364      -1.01057000       0.15236500       1.36213000
Ga      14.42233229       1.48951885       9.66658050      -1.17025500       0.23898200       1.02131900
O       12.96635872      -0.05137478       6.31632553      -0.34428000      -0.40150500       0.84965300
O       20.25763568       0.00847170      10.87931756      -0.44232200       0.83473200      -1.16827700
O       19.21885424       1.54656398       6.21954977      -0.64301900       0.49155100       1.68107900
O       13.98174124       1.61720755      10.98484632      -0.49822200       0.43938300      -0.48407300
O       12.51714317       0.01912896       8.88157013      -1.15332500      -2.47798300      -1.21691400
O       20.71293329      -0.02929130       8.21199006      -0.09897300      -0.40029100      -0.03718500
O       18.75580289       1.61103012       8.92493123       1.60080100      -0.73338000       0.31876200
O       14.49131631       1.57450107       8.22457609      -0.19062100      -0.17350600      -1.27193700
O       10.68656408       0.01148403       7.14062922      -0.18485600      -0.10063500       0.06980000
O       22.39449057      -0.01001632       9.93496220       0.65735400      -0.02848600       1.16222700
O       16.98643308       1.53548561       7.09927337      -0.09851300       0.43316800       0.31190600
O       16.27250493       1.49944376       9.91679918      -1.55668900      -0.46885400       0.38782500
Ga      12.48248057       3.07068571       4.56794042       1.27011000       0.15021800       1.09333400
Ga      23.47459203       3.07607158       1.22681644      -0.33547300      -0.67273000       0.06298200
Ga      18.72744271       4.69240707       4.57793809      -0.48893000       0.05571900       0.21134500
Ga      17.23874664       4.66549687       1.23136670      -0.00360600      -0.31574000       1.09157200
Ga      14.06593473       3.12664384       1.82899128       0.23851700      -0.97323700       1.47358700
Ga      21.96461651       3.05362472       3.89355181       0.75116800       0.03820800       0.20332300
Ga      20.15315054       4.67961065       1.77895864      -1.01057000       0.15236500       1.36213000
Ga      15.81325629       4.57663885       3.95094550      -1.17025500       0.23898200       1.02131900
O       14.35728272       3.03574522       0.60069053      -0.34428000      -0.40150500       0.84965300
O       21.64855968       3.09559170       5.16368256      -0.44232200       0.83473200      -1.16827700
O       20.60977824       4.63368398       0.50391477      -0.64301900       0.49155100       1.68107900
O       15.37266524       4.70432755       5.26921132      -0.49822200       0.43938300      -0.48407300
O       13.90806717       3.10624896       3.16593513      -1.15332500      -2.47798300      -1.21691400
O       22.10385729       3.05782870       2.49635506      -0.09897300      -0.40029100      -0.03718500
O       20.14672689       4.69815012       3.20929623       1.60080100      -0.73338000       0.31876200
O       15.88224031       4.66162107       2.50894109      -0.19062100      -0.17350600      -1.27193700
O       12.07748808       3.09860403       1.42499422      -0.18485600      -0.10063500       0.06980000
O       23.78541457       3.07710368       4.21932720       0.65735400      -0.02848600       1.16222700
O       18.37735708       4.62260561       1.38363837      -0.09851300       0.43316800       0.31190600
O       17.66342893       4.58656376       4.20116418      -1.55668900      -0.46885400       0.38782500
Ga      11.09155657       3.07068571      10.28357542       1.27011000       0.15021800       1.09333400
Ga      22.08366803       3.07607158       6.94245144      -0.33547300      -0.67273000       0.06298200
Ga      17.33651871       4.69240707      10.29357309      -0.48893000       0.05571900       0.21134500
Ga      15.84782264       4.66549687       6.94700170      -0.00360600      -0.31574000       1.09157200
Ga      12.67501073       3.12664384       7.54462628       0.23851700      -0.97323700       1.47358700
Ga      20.57369251       3.05362472       9.60918681       0.75116800       0.03820800       0.20332300
Ga      18.76222654       4.67961065       7.49459364      -1.01057000       0.15236500       1.36213000
Ga      14.42233229       4.57663885       9.66658050      -1.17025500       0.23898200       1.02131900
O       12.96635872       3.03574522       6.31632553      -0.34428000      -0.40150500       0.84965300
O       20.25763568       3.09559170      10.87931756      -0.44232200       0.83473200      -1.16827700
O       19.21885424       4.63368398       6.21954977      -0.64301900       0.49155100       1.68107900
O       13.98174124       4.70432755      10.98484632      -0.49822200       0.43938300      -0.48407300
O       12.51714317       3.10624896       8.88157013      -1.15332500      -2.47798300      -1.21691400
O       20.71293329       3.05782870       8.21199006      -0.09897300      -0.40029100      -0.03718500
O       18.75580289       4.69815012       8.92493123       1.60080100      -0.73338000       0.31876200
O       14.49131631       4.66162107       8.22457609      -0.19062100      -0.17350600      -1.27193700
O       10.68656408       3.09860403       7.14062922      -0.18485600      -0.10063500       0.06980000
O       22.39449057       3.07710368       9.93496220       0.65735400      -0.02848600       1.16222700
O       16.98643308       4.62260561       7.09927337      -0.09851300       0.43316800       0.31190600
O       16.27250493       4.58656376       9.91679918      -1.55668900      -0.46885400       0.38782500
160
Lattice="25.290266 0.0 0.0 0.0 6.261525 0.0 -2.821175 0.0 11.592872" Properties=species:S:1:pos:R:3:force:R:3 Energy=-631.202034 Virial="1.610798 2.786448 -9.019563 -6.134832 8.256671 10.857994 -11.709428 -18.658147 5.738182" pbc="T T T"
Ga       0.00008293      -0.04185400       4.62676777      -0.18520300       0.20009400      -0.46638700
Ga      11.20815243      -0.05357081       1.12991329      -0.45475900       1.41501400      -0.88527100
Ga       6.30774959       1.63821989       4.69438002       0.43558400      -0.33736500       1.18607700
Ga       4.89664686       1.57133891       1.17713481      -0.78086100      -0.00151100      -0.27524100
Ga       1.52493199       0.05500716       1.89618391      -0.14323400      -1.12024900      -0.50974800
Ga       9.63649686      -0.00331354       3.95720103      -1.86300000       0.54493900      -0.51899600
Ga       7.86806856       1.61281753       1.76876239       0.60786100      -1.14726300       0.37576900
Ga       3.36832569       1.59451073       3.96950964      -0.41566800       0.26895200       0.40025500
O        1.97692886       0.00590607       0.59355055      -1.00828900      -0.68625300      -0.25465200
O        9.23245067      -0.01395101       5.24869866       0.02050700      -0.08681700      -1.12527600
O        8.15688457       1.52194309       0.51232138       0.41149300      -0.16685800       1.82933300
O        3.00870040       1.53710747       5.21884803      -0.42095300       1.36151200       0.46351500
O        1.43319921      -0.06471643       3.15156149      -1.13222200       0.06374800       0.27996900
O        9.81958156      -0.05790827       2.50563811      -0.34137000      -0.28168100      -0.22945100
O        7.74600385       1.60042015       3.26596582      -0.25809000      -0.37179900       0.39244700
O        3.55582960       1.61502657       2.47688168      -0.21236900      -0.92992300       0.54900200
O       -0.29251326      -0.02118433       1.45399123       0.25521100      -0.69562300      -0.94017500
O       11.56749136      -0.06921182       4.24250399      -1.63057800       0.21483100       0.58877400
O        6.03737887       1.58489264       1.48935751      -1.04439900      -2.32224400      -0.22481300
O        5.18731253       1.59513439       4.33976045       0.73488900      -0.76378200      -0.40675900
Ga      -1.39084107      -0.04185400      10.34240277      -0.18520300       0.20009400      -0.46638700
Ga       9.81722843      -0.05357081       6.84554829      -0.45475900       1.41501400      -0.88527100
Ga       4.91682559       1.63821989      10.41001502       0.43558400      -0.33736500       1.18607700
Ga       3.50572286       1.57133891       6.89276981      -0.78086100      -0.00151100      -0.27524100
Ga       0.13400799       0.05500716       7.61181891      -0.14323400      -1.12024900      -0.50974800
Ga       8.24557286      -0.00331354       9.67283603      -1.86300000       0.54493900      -0.51899600
Ga       6.47714456       1.61281753       7.48439739       0.60786100      -1.14726300       0.37576900
Ga       1.97740169       1.59451073       9.68514464      -0.41566800       0.26895200       0.40025500
O        0.58600486       0.00590607       6.30918555      -1.00828900      -0.68625300      -0.25465200
O        7.84152667      -0.01395101      10.96433366       0.02050700      -0.08681700      -1.12527600
O        6.76596057       1.52194309       6.22795638       0.41149300      -0.16685800       1.82933300
O        1.61777640       1.53710747      10.93448303      -0.42095300       1.36151200       0.46351500
O        0.04227521      -0.06471643       8.86719649      -1.13222200       0.06374800       0.27996900
O        8.42865756      -0.05790827       8.22127311      -0.34137000      -0.28168100      -0.22945100
O        6.35507985       1.60042015       8.98160082      -0.25809000      -0.37179900       0.39244700
O        2.16490560       1.61502657       8.19251668      -0.21236900      -0.92992300       0.54900200
O       -1.68343726      -0.02118433       7.16962623       0.25521100      -0.69562300      -0.94017500
O       10.17656736      -0.06921182       9.95813899      -1.63057800       0.21483100       0.58877400
O        4.64645487       1.58489264       7.20499251      -1.04439900      -2.32224400      -0.22481300
O        3.79638853       1.59513439      10.05539545       0.73488900      -0.76378200      -0.40675900
Ga       0.00008293       3.04526600       4.62676777      -0.18520300       0.20009400      -0.46638700
Ga      11.20815243       3.03354919       1.12991329      -0.45475900       1.41501400      -0.88527100
Ga       6.30774959       4.72533989       4.69438002       0.43558400      -0.33736500       1.18607700
Ga       4.89664686       4.65845891       1.17713481      -0.78086100      -0.00151100      -0.27524100
Ga       1.52493199       3.14212716       1.89618391      -0.14323400      -1.12024900      -0.50974800
Ga       9.63649686       3.08380646       3.95720103      -1.86300000       0.54493900      -0.51899600
Ga       7.86806856       4.69993753       1.76876239       0.60786100      -1.14726300       0.37576900
Ga       3.36832569       4.68163073       3.96950964      -0.41566800       0.26895200       0.40025500
O        1.97692886       3.09302607       0.59355055      -1.00828900      -0.68625300      -0.25465200
O        9.23245067       3.07316899       5.24869866       0.02050700      -0.08681700      -1.12527600
O        8.15688457       4.60906309       0.51232138       0.41149300      -0.16685800       1.82933300
O        3.00870040       4.62422747       5.21884803      -0.42095300       1.36151200       0.46351500
O        1.43319921       3.02240357       3.15156149      -1.13222200       0.06374800       0.27996900
O        9.81958156       3.02921173       2.50563811      -0.34137000      -0.28168100      -0.22945100
O        7.74600385       4.68754015       3.26596582      -0.25809000      -0.37179900       0.39244700
O        3.55582960       4.70214657       2.47688168      -0.21236900      -0.92992300       0.54900200
O       -0.29251326       3.06593567       1.45399123       0.25521100      -0.69562300      -0.94017500
O       11.56749136       3.01790818       4.24250399      -1.63057800       0.21483100       0.58877400
O        6.03737887       4.67201264       1.48935751      -1.04439900      -2.32224400      -0.22481300
O        5.18731253       4.68225439       4.33976045       0.73488900      -0.76378200      -0.40675900
Ga      -1.39084107       3.04526600      10.34240277      -0.18520300       0.20009400      -0.46638700
Ga       9.81722843       3.03354919       6.84554829      -0.45475900       1.41501400      -0.88527100
Ga       4.91682559       4.72533989      10.41001502       0.43558400      -0.33736500       1.18607700
Ga       3.50572286       4.65845891       6.89276981      -0.78086100      -0.00151100      -0.27524100
Ga       0.13400799       3.14212716       7.61181891      -0.14323400      -1.12024900      -0.50974800
Ga       8.24557286       3.08380646       9.67283603      -1.86300000       0.54493900      -0.51899600
Ga       6.47714456       4.69993753       7.48439739       0.60786100      -1.14726300       0.37576900
Ga       1.97740169       4.68163073       9.68514464      -0.41566800       0.26895200       0.40025500
O        0.58600486       3.09302607       6.30918555      -1.00828900      -0.68625300      -0.25465200
O        7.84152667       3.07316899      10.96433366       0.02050700      -0.08681700      -1.12527600
O        6.76596057       4.60906309       6.22795638       0.41149300      -0.16685800       1.82933300
O        1.61777640       4.62422747      10.93448303      -0.42095300       1.36151200       0.46351500
O        0.04227521       3.02240357       8.86719649      -1.13222200       0.06374800       0.27996900
O        8.42865756       3.02921173       8.22127311      -0.34137000      -0.28168100      -0.22945100
O        6.35507985       4.68754015       8.98160082      -0.25809000      -0.37179900       0.39244700
O        2.16490560       4.70214657       8.19251668      -0.21236900      -0.92992300       0.54900200
O       -1.68343726       3.06593567       7.16962623       0.25521100      -0.69562300      -0.94017500
O       10.17656736       3.01790818       9.95813899      -1.63057800       0.21483100       0.58877400
O        4.64645487       4.67201264       7.20499251      -1.04439900      -2.32224400      -0.22481300
O        3.79638853       4.68225439      10.05539545       0.73488900      -0.76378200      -0.40675900
Ga      12.46894393      -0.04185400       4.62676777      -0.18520300       0.20009400      -0.46638700
Ga      23.67701343      -0.05357081       1.12991329      -0.45475900       1.41501400      -0.88527100
Ga      18.77661059       1.63821989       4.69438002       0.43558400      -0.33736500       1.18607700
Ga      17.36550786       1.57133891       1.17713481      -0.78086100      -0.00151100      -0.27524100
Ga      13.99379299       0.05500716       1.89618391      -0.14323400      -1.12024900      -0.50974800
Ga      22.10535786      -0.00331354       3.95720103      -1.86300000       0.54493900      -0.51899600
Ga      20.33692956       1.61281753       1.76876239       0.60786100      -1.14726300       0.37576900
Ga      15.83718669       1.59451073       3.96950964      -0.41566800       0.26895200       0.40025500
O       14.44578986       0.00590607       0.59355055      -1.00828900      -0.68625300      -0.25465200
O       21.70131167      -0.01395101       5.24869866       0.02050700      -0.08681700      -1.12527600
O       20.62574557       1.52194309       0.51232138       0.41149300      -0.16685800       1.82933300
O       15.47756140       1.53710747       5.21884803      -0.42095300       1.36151200       0.46351500
O       13.90206021      -0.06471643       3.15156149      -1.13222200       0.06374800       0.27996900
O       22.28844256      -0.05790827       2.50563811      -0.34137000      -0.28168100      -0.22945100
O       20.21486485       1.60042015       3.26596582      -0.25809000      -0.37179900       0.39244700
O       16.02469060       1.61502657       2.47688168      -0.21236900      -0.92992300       0.54900200
O       12.17634774      -0.02118433       1.45399123       0.25521100      -0.69562300      -0.94017500
O       24.03635236      -0.06921182       4.24250399      -1.63057800       0.21483100       0.58877400
O       18.50623987       1.58489264       1.48935751      -1.04439900      -2.32224400      -0.22481300
O       17.65617353       1.59513439       4.33976045       0.73488900      -0.76378200      -0.40675900
Ga      11.07801993      -0.04185400      10.34240277      -0.18520300       0.20009400      -0.46638700
Ga      22.28608943      -0.05357081       6.84554829      -0.45475900       1.41501400      -0.88527100
Ga      17.38568659       1.63821989      10.41001502       0.43558400      -0.33736500       1.18607700
Ga      15.97458386       1.57133891       6.89276981      -0.78086100      -0.00151100      -0.27524100
Ga      12.60286899       0.05500716       7.61181891      -0.14323400      -1.12024900      -0.50974800
Ga      20.71443386      -0.00331354       9.67283603      -1.86300000       0.54493900      -0.51899600
Ga      18.94600556       1.61281753       7.48439739       0.60786100      -1.14726300       0.37576900
Ga      14.44626269       1.59451073       9.68514464      -0.41566800       0.26895200       0.40025500
O       13.05486586       0.00590607       6.30918555      -1.00828900      -0.68625300      -0.25465200
O       20.31038767      -0.01395101      10.96433366       0.02050700      -0.08681700      -1.12527600
O       19.23482157       1.52194309       6.22795638       0.41149300      -0.16685800       1.82933300
O       14.08663740       1.53710747      10.93448303      -0.42095300       1.36151200       0.46351500
O       12.51113621      -0.06471643       8.86719649      -1.13222200       0.06374800       0.27996900
O       20.89751856      -0.05790827       8.22127311      -0.34137000      -0.28168100      -0.22945100
O       18.82394085       1.60042015       8.98160082      -0.25809000      -0.37179900       0.39244700
O       14.63376660       1.61502657       8.19251668      -0.21236900      -0.92992300       0.54900200
O       10.78542374      -0.02118433       7.16962623       0.25521100      -0.69562300      -0.94017500
O       22.64542836      -0.06921182       9.95813899      -1.63057800       0.21483100       0.58877400
O       17.11531587       1.58489264       7.20499251      -1.04439900      -2.32224400      -0.22481300
O       16.26524953       1.59513439      10.05539545       0.73488900      -0.76378200      -0.40675900
Ga      12.46894393       3.04526600       4.62676777      -0.18520300       0.20009400      -0.46638700
Ga      23.67701343       3.03354919       1.12991329      -0.45475900       1.41501400      -0.88527100
Ga      18.77661059       4.72533989       4.69438002       0.43558400      -0.33736500       1.18607700
Ga      17.36550786       4.65845891       1.17713481      -0.78086100      -0.00151100      -0.27524100
Ga      13.99379299       3.14212716       1.89618391      -0.14323400      -1.12024900      -0.50974800
Ga      22.10535786       3.08380646       3.95720103      -1.86300000       0.54493900      -0.51899600
Ga      20.33692956       4.69993753       1.76876239       0.60786100      -1.14726300       0.37576900
Ga      15.83718669       4.68163073       3.96950964      -0.41566800       0.26895200       0.40025500
O       14.44578986       3.09302607       0.59355055      -1.00828900      -0.68625300      -0.25465200
O       21.70131167       3.07316899       5.24869866       0.02050700      -0.08681700      -1.12527600
O       20.62574557       4.60906309       0.51232138       0.41149300      -0.16685800       1.82933300
O       15.47756140       4.62422747       5.21884803      -0.42095300       1.36151200       0.46351500
O       13.90206021       3.02240357       3.15156149      -1.13222200       0.06374800       0.27996900
O       22.28844256       3.02921173       2.50563811      -0.34137000      -0.28168100      -0.22945100
O       20.21486485       4.68754015       3.26596582      -0.25809000      -0.37179900       0.39244700
O       16.02469060       4.70214657       2.47688168      -0.21236900      -0.92992300       0.54900200
O       12.17634774       3.06593567       1.45399123       0.25521100      -0.69562300      -0.94017500
O       24.03635236       3.01790818       4.24250399      -1.63057800       0.21483100       0.58877400
O       18.50623987       4.67201264       1.48935751      -1.04439900      -2.32224400      -0.22481300
O       17.65617353       4.68225439       4.33976045       0.73488900      -0.76378200      -0.40675900
Ga      11.07801993       3.04526600      10.34240277      -0.18520300       0.20009400      -0.46638700
Ga      22.28608943       3.03354919       6.84554829      -0.45475900       1.41501400      -0.88527100
Ga      17.38568659       4.72533989      10.41001502       0.43558400      -0.33736500       1.18607700
Ga      15.97458386       4.65845891       6.89276981      -0.78086100      -0.00151100      -0.27524100
Ga      12.60286899       3.14212716       7.61181891      -0.14323400      -1.12024900      -0.50974800
Ga      20.71443386       3.08380646       9.67283603      -1.86300000       0.54493900      -0.51899600
Ga      18.94600556       4.69993753       7.48439739       0.60786100      -1.14726300       0.37576900
Ga      14.44626269       4.68163073       9.68514464      -0.41566800       0.26895200       0.40025500
O       13.05486586       3.09302607       6.30918555      -1.00828900      -0.68625300      -0.25465200
O       20.31038767       3.07316899      10.96433366       0.02050700      -0.08681700      -1.12527600
O       19.23482157       4.60906309       6.22795638       0.41149300      -0.16685800       1.82933300
O       14.08663740       4.62422747      10.93448303      -0.42095300       1.36151200       0.46351500
O       12.51113621       3.02240357       8.86719649      -1.13222200       0.06374800       0.27996900
O       20.89751856       3.02921173       8.22127311      -0.34137000      -0.28168100      -0.22945100
O       18.82394085       4.68754015       8.98160082      -0.25809000      -0.37179900       0.39244700
O       14.63376660       4.70214657       8.19251668      -0.21236900      -0.92992300       0.54900200
O       10.78542374       3.06593567       7.16962623       0.25521100      -0.69562300      -0.94017500
O       22.64542836       3.01790818       9.95813899      -1.63057800       0.21483100       0.58877400
O       17.11531587       4.67201264       7.20499251      -1.04439900      -2.32224400      -0.22481300
O       16.26524953       4.68225439      10.05539545       0.73488900      -0.76378200      -0.40675900
160
Lattice="24.69619 0.0 0.0 0.0 6.11444 0.0 -2.754905 0.0 11.320552" Properties=species:S:1:pos:R:3:force:R:3 Energy=-631.176073 Virial="29.221929 -2.531333 -10.270381 8.579457 0.245309 17.527056 3.841213 7.419195 -6.993867" pbc="T T T"
Ga       0.02988173       0.11383510       4.54165156       0.07100100      -0.69891500       0.64840900
Ga      10.94389617       0.00158395       1.21057427       0.16066300       1.72772900      -0.78358400
Ga       6.16065111       1.55307966       4.45295803      -1.30728400       0.69154600      -0.58147200
Ga       4.81061288       1.51685178       1.17064816       1.43445000      -0.79708200       0.23881200
Ga       1.51125723       0.02794747       1.77147212       0.37587400      -0.31577400       0.70205200
Ga       9.53134901       0.05675470       3.82964568       0.89033300       0.34918300      -0.79182500
Ga       7.70731838       1.55801617       1.76013302      -0.46257800      -0.63257700       0.02929700
Ga       3.31948135       1.57239599       3.87847472       0.31486500      -1.41963600      -0.44855300
O        1.93485531      -0.09642651       0.58636984      -0.03444800       0.19604400      -0.50567400
O        9.11049610      -0.04350711       5.13828552      -0.69758300       0.39857800       0.16132700
O        7.98860319       1.49807301       0.57589188       0.13190900      -1.27430000      -0.69905000
O        2.90047444       1.52588184       5.13001936      -0.88105000      -0.35965200      -1.22563200
O        1.36474446       0.03949959       3.13367444      -0.22788700      -0.95869300      -1.44800200
O        9.61981462      -0.04578471       2.53148656       0.55750900      -0.51591700      -0.12188600
O        7.52879466       1.52697046       3.14394719       1.45208400      -1.14517700      -1.88457600
O        3.41956678       1.48842091       2.51501259       0.42146700       0.94334300       0.11452100
O       -0.28104875      -0.05322561       1.42517525       0.21061900       0.52759800      -0.18713300
O       11.27507828      -0.02394593       4.20233250      -0.14776700       0.13148100      -0.11900100
O        5.93545562       1.48788345       1.35654377       0.42699700      -1.32505400      -1.35577500
O        5.07588127       1.51548357       4.19164577       0.68636600      -0.16321800      -1.37052300
Ga      -1.36104227       0.11383510      10.25728656       0.07100100      -0.69891500       0.64840900
Ga       9.55297217       0.00158395       6.92620927       0.16066300       1.72772900      -0.78358400
Ga       4.76972711       1.55307966      10.16859303      -1.30728400       0.69154600      -0.58147200
Ga       3.41968888       1.51685178       6.88628316       1.43445000      -0.79708200       0.23881200
Ga       0.12033323       0.02794747       7.48710712       0.37587400      -0.31577400       0.70205200
Ga       8.14042501       0.05675470       9.54528068       0.89033300       0.34918300      -0.79182500
Ga       6.31639438       1.55801617       7.47576802      -0.46257800      -0.63257700       0.02929700
Ga       1.92855735       1.57239599       9.59410972       0.31486500      -1.41963600      -0.44855300
O        0.54393131      -0.09642651       6.30200484      -0.03444800       0.19604400      -0.50567400
O        7.71957210      -0.04350711      10.85392052      -0.69758300       0.39857800       0.16132700
O        6.59767919       1.49807301       6.29152688       0.13190900      -1.27430000      -0.69905000
O        1.50955044       1.52588184      10.84565436      -0.88105000      -0.35965200      -1.22563200
O       -0.02617954       0.03949959       8.84930944      -0.22788700      -0.95869300      -1.44800200
O        8.22889062      -0.04578471       8.24712156       0.55750900      -0.51591700      -0.12188600
O        6.13787066       1.52697046       8.85958219       1.45208400      -1.14517700      -1.88457600
O        2.02864278       1.48842091       8.23064759       0.42146700       0.94334300       0.11452100
O       -1.67197275      -0.05322561       7.14081025       0.21061900       0.52759800      -0.18713300
O        9.88415428      -0.02394593       9.91796750      -0.14776700       0.13148100      -0.11900100
O        4.54453162       1.48788345       7.07217877       0.42699700      -1.32505400      -1.35577500
O        3.68495727       1.51548357       9.90728077       0.68636600      -0.16321800      -1.37052300
Ga       0.02988173       3.20095510       4.54165156       0.07100100      -0.69891500       0.64840900
Ga      10.94389617       3.08870395       1.21057427       0.16066300       1.72772900      -0.78358400
Ga       6.16065111       4.64019966       4.45295803      -1.30728400       0.69154600      -0.58147200
Ga       4.81061288       4.60397178       1.17064816       1.43445000      -0.79708200       0.23881200
Ga       1.51125723       3.11506747       1.77147212       0.37587400      -0.31577400       0.70205200
Ga       9.53134901       3.14387470       3.82964568       0.89033300       0.34918300      -0.79182500
Ga       7.70731838       4.64513617       1.76013302      -0.46257800      -0.63257700       0.02929700
Ga       3.31948135       4.65951599       3.87847472       0.31486500      -1.41963600      -0.44855300
O        1.93485531       2.99069349       0.58636984      -0.03444800       0.19604400      -0.50567400
O        9.11049610       3.04361289       5.13828552      -0.69758300       0.39857800       0.16132700
O        7.98860319       4.58519301       0.57589188       0.13190900      -1.27430000      -0.69905000
O        2.90047444       4.61300184       5.13001936      -0.88105000      -0.35965200      -1.22563200
O        1.36474446       3.12661959       3.13367444      -0.22788700      -0.95869300      -1.44800200
O        9.61981462       3.04133529       2.53148656       0.55750900      -0.51591700      -0.12188600
O        7.52879466       4.61409046       3.14394719       1.45208400      -1.14517700      -1.88457600
O        3.41956678       4.57554091       2.51501259       0.42146700       0.94334300       0.11452100
O       -0.28104875       3.03389439       1.42517525       0.21061900       0.52759800      -0.18713300
O       11.27507828       3.06317407       4.20233250      -0.14776700       0.13148100      -0.11900100
O        5.93545562       4.57500345       1.35654377       0.42699700      -1.32505400      -1.35577500
O        5.07588127       4.60260357       4.19164577       0.68636600      -0.16321800      -1.37052300
Ga      -1.36104227       3.20095510      10.25728656       0.07100100      -0.69891500       0.64840900
Ga       9.55297217       3.08870395       6.92620927       0.16066300       1.72772900      -0.78358400
Ga       4.76972711       4.64019966      10.16859303      -1.30728400       0.69154600      -0.58147200
Ga       3.41968888       4.60397178       6.88628316       1.43445000      -0.79708200       0.23881200
Ga       0.12033323       3.11506747       7.48710712       0.37587400      -0.31577400       0.70205200
Ga       8.14042501       3.14387470       9.54528068       0.89033300       0.34918300      -0.79182500
Ga       6.31639438       4.64513617       7.47576802      -0.46257800      -0.63257700       0.02929700
Ga       1.92855735       4.65951599       9.59410972       0.31486500      -1.41963600      -0.44855300
O        0.54393131       2.99069349       6.30200484      -0.03444800       0.19604400      -0.50567400
O        7.71957210       3.04361289      10.85392052      -0.69758300       0.39857800       0.16132700
O        6.59767919       4.58519301       6.29152688       0.13190900      -1.27430000      -0.69905000
O        1.50955044       4.61300184      10.84565436      -0.88105000      -0.35965200      -1.22563200
O       -0.02617954       3.12661959       8.84930944      -0.22788700      -0.95869300      -1.44800200
O        8.22889062       3.04133529       8.24712156       0.55750900      -0.51591700      -0.12188600
O        6.13787066       4.61409046       8.85958219       1.45208400      -1.14517700      -1.88457600
O        2.02864278       4.57554091       8.23064759       0.42146700       0.94334300       0.11452100
O       -1.67197275       3.03389439       7.14081025       0.21061900       0.52759800      -0.18713300
O        9.88415428       3.06317407       9.91796750      -0.14776700       0.13148100      -0.11900100
O        4.54453162       4.57500345       7.07217877       0.42699700      -1.32505400      -1.35577500
O        3.68495727       4.60260357       9.90728077       0.68636600      -0.16321800      -1.37052300
Ga      12.49874273       0.11383510       4.54165156       0.07100100      -0.69891500       0.64840900
Ga      23.41275717       0.00158395       1.21057427       0.16066300       1.72772900      -0.78358400
Ga      18.62951211       1.55307966       4.45295803      -1.30728400       0.69154600      -0.58147200
Ga      17.27947388       1.51685178       1.17064816       1.43445000      -0.79708200       0.23881200
Ga      13.98011823       0.02794747       1.77147212       0.37587400      -0.31577400       0.70205200
Ga      22.00021001       0.05675470       3.82964568       0.89033300       0.34918300      -0.79182500
Ga      20.17617938       1.55801617       1.76013302      -0.46257800      -0.63257700       0.02929700
Ga      15.78834235       1.57239599       3.87847472       0.31486500      -1.41963600      -0.44855300
O       14.40371631      -0.09642651       0.58636984      -0.03444800       0.19604400      -0.50567400
O       21.57935710      -0.04350711       5.13828552      -0.69758300       0.39857800       0.16132700
O       20.45746419       1.49807301       0.57589188       0.13190900      -1.27430000      -0.69905000
O       15.36933544       1.52588184       5.13001936      -0.88105000      -0.35965200      -1.22563200
O       13.83360546       0.03949959       3.13367444      -0.22788700      -0.95869300      -1.44800200
O       22.08867562      -0.04578471       2.53148656       0.55750900      -0.51591700      -0.12188600
O       19.99765566       1.52697046       3.14394719       1.45208400      -1.14517700      -1.88457600
O       15.88842778       1.48842091       2.51501259       0.42146700       0.94334300       0.11452100
O       12.18781225      -0.05322561       1.42517525       0.21061900       0.52759800      -0.18713300
O       23.74393928      -0.02394593       4.20233250      -0.14776700       0.13148100      -0.11900100
O       18.40431662       1.48788345       1.35654377       0.42699700      -1.32505400      -1.35577500
O       17.54474227       1.51548357       4.19164577       0.68636600      -0.16321800      -1.37052300
Ga      11.10781873       0.11383510      10.25728656       0.07100100      -0.69891500       0.64840900
Ga      22.02183317       0.00158395       6.92620927       0.16066300       1.72772900      -0.78358400
Ga      17.23858811       1.55307966      10.16859303      -1.30728400       0.69154600      -0.58147200
Ga      15.88854988       1.51685178       6.88628316       1.43445000      -0.79708200       0.23881200
Ga      12.58919423       0.02794747       7.48710712       0.37587400      -0.31577400       0.70205200
Ga      20.60928601       0.05675470       9.54528068       0.89033300       0.34918300      -0.79182500
Ga      18.78525538       1.55801617       7.47576802      -0.46257800      -0.63257700       0.02929700
Ga      14.39741835       1.57239599       9.59410972       0.31486500      -1.41963600      -0.44855300
O       13.01279231      -0.09642651       6.30200484      -0.03444800       0.19604400      -0.50567400
O       20.18843310      -0.04350711      10.85392052      -0.69758300       0.39857800       0.16132700
O       19.06654019       1.49807301       6.29152688       0.13190900      -1.27430000      -0.69905000
O       13.97841144       1.52588184      10.84565436      -0.88105000      -0.35965200      -1.22563200
O       12.44268146       0.03949959       8.84930944      -0.22788700      -0.95869300      -1.44800200
O       20.69775162      -0.04578471       8.24712156       0.55750900      -0.51591700      -0.12188600
O       18.60673166       1.52697046       8.85958219       1.45208400      -1.14517700      -1.88457600
O       14.49750378       1.48842091       8.23064759       0.42146700       0.94334300       0.11452100
O       10.79688825      -0.05322561       7.14081025       0.21061900       0.52759800      -0.18713300
O       22.35301528      -0.02394593       9.91796750      -0.14776700       0.13148100      -0.11900100
O       17.01339262       1.48788345       7.07217877       0.42699700      -1.32505400      -1.35577500
O       16.15381827       1.51548357       9.90728077       0.68636600      -0.16321800      -1.37052300
Ga      12.49874273       3.20095510       4.54165156       0.07100100      -0.69891500       0.64840900
Ga      23.41275717       3.08870395       1.21057427       0.16066300       1.72772900      -0.78358400
Ga      18.62951211       4.64019966       4.45295803      -1.30728400       0.69154600      -0.58147200
Ga      17.27947388       4.60397178       1.17064816       1.43445000      -0.79708200       0.23881200
Ga      13.98011823       3.11506747       1.77147212       0.37587400      -0.31577400       0.70205200
Ga      22.00021001       3.14387470       3.82964568       0.89033300       0.34918300      -0.79182500
Ga      20.17617938       4.64513617       1.76013302      -0.46257800      -0.63257700       0.02929700
Ga      15.78834235       4.65951599       3.87847472       0.31486500      -1.41963600      -0.44855300
O       14.40371631       2.99069349       0.58636984      -0.03444800       0.19604400      -0.50567400
O       21.57935710       3.04361289       5.13828552      -0.69758300       0.39857800       0.16132700
O       20.45746419       4.58519301       0.57589188       0.13190900      -1.27430000      -0.69905000
O       15.36933544       4.61300184       5.13001936      -0.88105000      -0.35965200      -1.22563200
O       13.83360546       3.12661959       3.13367444      -0.22788700      -0.95869300      -1.44800200
O       22.08867562       3.04133529       2.53148656       0.55750900      -0.51591700      -0.12188600
O       19.99765566       4.61409046       3.14394719       1.45208400      -1.14517700      -1.88457600
O       15.88842778       4.57554091       2.51501259       0.42146700       0.94334300       0.11452100
O       12.18781225       3.03389439       1.42517525       0.21061900       0.52759800      -0.18713300
O       23.74393928       3.06317407       4.20233250      -0.14776700       0.13148100      -0.11900100
O       18.40431662       4.57500345       1.35654377       0.42699700      -1.32505400      -1.35577500
O       17.54474227       4.60260357       4.19164577       0.68636600      -0.16321800      -1.37052300
Ga      11.10781873       3.20095510      10.25728656       0.07100100      -0.69891500       0.64840900
Ga      22.02183317       3.08870395       6.92620927       0.16066300       1.72772900      -0.78358400
Ga      17.23858811       4.64019966      10.16859303      -1.30728400       0.69154600      -0.58147200
Ga      15.88854988       4.60397178       6.88628316       1.43445000      -0.79708200       0.23881200
Ga      12.58919423       3.11506747       7.48710712       0.37587400      -0.31577400       0.70205200
Ga      20.60928601       3.14387470       9.54528068       0.89033300       0.34918300      -0.79182500
Ga      18.78525538       4.64513617       7.47576802      -0.46257800      -0.63257700       0.02929700
Ga      14.39741835       4.65951599       9.59410972       0.31486500      -1.41963600      -0.44855300
O       13.01279231       2.99069349       6.30200484      -0.03444800       0.19604400      -0.50567400
O       20.18843310       3.04361289      10.85392052      -0.69758300       0.39857800       0.16132700
O       19.06654019       4.58519301       6.29152688       0.13190900      -1.27430000      -0.69905000
O       13.97841144       4.61300184      10.84565436      -0.88105000      -0.35965200      -1.22563200
O       12.44268146       3.12661959       8.84930944      -0.22788700      -0.95869300      -1.44800200
O       20.69775162       3.04133529       8.24712156       0.55750900      -0.51591700      -0.12188600
O       18.60673166       4.61409046       8.85958219       1.45208400      -1.14517700      -1.88457600
O       14.49750378       4.57554091       8.23064759       0.42146700       0.94334300       0.11452100
O       10.79688825       3.03389439       7.14081025       0.21061900       0.52759800      -0.18713300
O       22.35301528       3.06317407       9.91796750      -0.14776700       0.13148100      -0.11900100
O       17.01339262       4.57500345       7.07217877       0.42699700      -1.32505400      -1.35577500
O       16.15381827       4.60260357       9.90728077       0.68636600      -0.16321800      -1.37052300
160
Lattice="24.520239 0.0 0.0 0.0 6.070877 0.0 -2.735277 0.0 11.239898" Properties=species:S:1:pos:R:3:force:R:3 Energy=-631.157158 Virial="-14.677095 4.645912 -0.554029 8.536775 -1.669081 2.808431 -14.86485 1.717376 9.831563" pbc="T T T"
Ga      -0.01228265      -0.09618198       4.47811818       0.35888100      -0.90989800       0.06321000
Ga      10.94096340      -0.06522229       1.15654767      -0.90634100       0.38510500       0.92266900
Ga       6.12459848       1.53857930       4.45871893      -0.95434800      -0.90621800       0.80371600
Ga       4.68520391       1.47847505       1.12112514       0.19978500       0.14190900      -0.31596200
Ga       1.56851560       0.05173037       1.75333463       0.48108200       1.31581000       0.36653300
Ga       9.42685004      -0.00692735       3.84109425      -0.35117500      -0.43802300       0.49644100
Ga       7.64708770       1.52911221       1.74357075      -0.82138200      -0.68822200      -0.92112500
Ga       3.24855241       1.54921209       3.85934234       0.14353100      -0.59212700      -1.13180700
O        1.88381251       0.01976721       0.55494378      -0.91716400      -0.91671700       1.73038300
O        9.00787494      -0.01896724       5.09924190       0.62572700      -0.10630400       0.26862000
O        7.94840276       1.50930631       0.42941314       0.26192700      -0.37054600      -0.17323400
O        2.81328778       1.44467176       5.13356783      -0.85253400       1.29935000      -0.13472400
O        1.35841728      -0.05048196       3.15557403       0.18102400       1.42495000       0.72184100
O        9.57416894       0.02033942       2.47646951       0.55852000      -0.38415100       0.54451300
O        7.49721758       1.55377906       3.11716155      -0.62259300      -1.98825700      -0.90611800
O        3.40575733       1.50743147       2.41948128       0.83200700      -0.18639300       0.02761600
O       -0.26441215       0.08229087       1.40375567       1.40092600      -0.94913100       0.17883700
O       11.23206285      -0.03367975       4.18655336      -1.47529600      -0.03233000       0.14062300
O        5.88930475       1.49690163       1.43812000       0.57205400       0.14790300       0.15336500
O        4.99143639       1.49115102       4.10499096      -0.59867900      -0.80420800       1.65940600
Ga      -1.40320665      -0.09618198      10.19375318       0.35888100      -0.90989800       0.06321000
Ga       9.55003940      -0.06522229       6.87218267      -0.90634100       0.38510500       0.92266900
Ga       4.73367448       1.53857930      10.17435393      -0.95434800      -0.90621800       0.80371600
Ga       3.29427991       1.47847505       6.83676014       0.19978500       0.14190900      -0.31596200
Ga       0.17759160       0.05173037       7.46896963       0.48108200       1.31581000       0.36653300
Ga       8.03592604      -0.00692735       9.55672925      -0.35117500      -0.43802300       0.49644100
Ga       6.25616370       1.52911221       7.45920575      -0.82138200      -0.68822200      -0.92112500
Ga       1.85762841       1.54921209       9.57497734       0.14353100      -0.59212700      -1.13180700
O        0.49288851       0.01976721       6.27057878      -0.91716400      -0.91671700       1.73038300
O        7.61695094      -0.01896724      10.81487690       0.62572700      -0.10630400       0.26862000
O        6.55747876       1.50930631       6.14504814       0.26192700      -0.37054600      -0.17323400
O        1.42236378       1.44467176      10.84920283      -0.85253400       1.29935000      -0.13472400
O       -0.03250672      -0.05048196       8.87120903       0.18102400       1.42495000       0.72184100
O        8.18324494       0.02033942       8.19210451       0.55852000      -0.38415100       0.54451300
O        6.10629358       1.55377906       8.83279655      -0.62259300      -1.98825700      -0.90611800
O        2.01483333       1.50743147       8.13511628       0.83200700      -0.18639300       0.02761600
O       -1.65533615       0.08229087       7.11939067       1.40092600      -0.94913100       0.17883700
O        9.84113885      -0.03367975       9.90218836      -1.47529600      -0.03233000       0.14062300
O        4.49838075       1.49690163       7.15375500       0.57205400       0.14790300       0.15336500
O        3.60051239       1.49115102       9.82062596      -0.59867900      -0.80420800       1.65940600
Ga      -0.01228265       2.99093802       4.47811818       0.35888100      -0.90989800       0.06321000
Ga      10.94096340       3.02189771       1.15654767      -0.90634100       0.38510500       0.92266900
Ga       6.12459848       4.62569930       4.45871893      -0.95434800      -0.90621800       0.80371600
Ga       4.68520391       4.56559505       1.12112514       0.19978500       0.14190900      -0.31596200
Ga       1.56851560       3.13885037       1.75333463       0.48108200       1.31581000       0.36653300
Ga       9.42685004       3.08019265       3.84109425      -0.35117500      -0.43802300       0.49644100
Ga       7.64708770       4.61623221       1.74357075      -0.82138200      -0.68822200      -0.92112500
Ga       3.24855241       4.63633209       3.85934234       0.14353100      -0.59212700      -1.13180700
O        1.88381251       3.10688721       0.55494378      -0.91716400      -0.91671700       1.73038300
O        9.00787494       3.06815276       5.09924190       0.62572700      -0.10630400       0.26862000
O        7.94840276       4.59642631       0.42941314       0.26192700      -0.37054600      -0.17323400
O        2.81328778       4.53179176       5.13356783      -0.85253400       1.29935000      -0.13472400
O        1.35841728       3.03663804       3.15557403       0.18102400       1.42495000       0.72184100
O        9.57416894       3.10745942       2.47646951       0.55852000      -0.38415100       0.54451300
O        7.49721758       4.64089906       3.11716155      -0.62259300      -1.98825700      -0.90611800
O        3.40575733       4.59455147       2.41948128       0.83200700      -0.18639300       0.02761600
O       -0.26441215       3.16941087       1.40375567       1.40092600      -0.94913100       0.17883700
O       11.23206285       3.05344025       4.18655336      -1.47529600      -0.03233000       0.14062300
O        5.88930475       4.58402163       1.43812000       0.57205400       0.14790300       0.15336500
O        4.99143639       4.57827102       4.10499096      -0.59867900      -0.80420800       1.65940600
Ga      -1.40320665       2.99093802      10.19375318       0.35888100      -0.90989800       0.06321000
Ga       9.55003940       3.02189771       6.87218267      -0.90634100       0.38510500       0.92266900
Ga       4.73367448       4.62569930      10.17435393      -0.95434800      -0.90621800       0.80371600
Ga       3.29427991       4.56559505       6.83676014       0.19978500       0.14190900      -0.31596200
Ga       0.17759160       3.13885037       7.46896963       0.48108200       1.31581000       0.36653300
Ga       8.03592604       3.08019265       9.55672925      -0.35117500      -0.43802300       0.49644100
Ga       6.25616370       4.61623221       7.45920575      -0.82138200      -0.68822200      -0.92112500
Ga       1.85762841       4.63633209       9.57497734       0.14353100      -0.59212700      -1.13180700
O        0.49288851       3.10688721       6.27057878      -0.91716400      -0.91671700       1.73038300
O        7.61695094       3.06815276      10.81487690       0.62572700      -0.10630400       0.26862000
O        6.55747876       4.59642631       6.14504814       0.26192700      -0.37054600      -0.17323400
O        1.42236378       4.53179176      10.84920283      -0.85253400       1.29935000      -0.13472400
O       -0.03250672       3.03663804       8.87120903       0.18102400       1.42495000       0.72184100
O        8.18324494       3.10745942       8.19210451       0.55852000      -0.38415100       0.54451300
O        6.10629358       4.64089906       8.83279655      -0.62259300      -1.98825700      -0.90611800
O        2.01483333       4.59455147       8.13511628       0.83200700      -0.18639300       0.02761600
O       -1.65533615       3.16941087       7.11939067       1.40092600      -0.94913100       0.17883700
O        9.84113885       3.05344025       9.90218836      -1.47529600      -0.03233000       0.14062300
O        4.49838075       4.58402163       7.15375500       0.57205400       0.14790300       0.15336500
O        3.60051239       4.57827102       9.82062596      -0.59867900      -0.80420800       1.65940600
Ga      12.45657835      -0.09618198       4.47811818       0.35888100      -0.90989800       0.06321000
Ga      23.40982440      -0.06522229       1.15654767      -0.90634100       0.38510500       0.92266900
Ga      18.59345948       1.53857930       4.45871893      -0.95434800      -0.90621800       0.80371600
Ga      17.15406491       1.47847505       1.12112514       0.19978500       0.14190900      -0.31596200
Ga      14.03737660       0.05173037       1.75333463       0.48108200       1.31581000       0.36653300
Ga      21.89571104      -0.00692735       3.84109425      -0.35117500      -0.43802300       0.49644100
Ga      20.11594870       1.52911221       1.74357075      -0.82138200      -0.68822200      -0.92112500
Ga      15.71741341       1.54921209       3.85934234       0.14353100      -0.59212700      -1.13180700
O       14.35267351       0.01976721       0.55494378      -0.91716400      -0.91671700       1.73038300
O       21.47673594      -0.01896724       5.09924190       0.62572700      -0.10630400       0.26862000
O       20.41726376       1.50930631       0.42941314       0.26192700      -0.37054600      -0.17323400
O       15.28214878       1.44467176       5.13356783      -0.85253400       1.29935000      -0.13472400
O       13.82727828      -0.05048196       3.15557403       0.18102400       1.42495000       0.72184100
O       22.04302994       0.02033942       2.47646951       0.55852000      -0.38415100       0.54451300
O       19.96607858       1.55377906       3.11716155      -0.62259300      -1.98825700      -0.90611800
O       15.87461833       1.50743147       2.41948128       0.83200700      -0.18639300       0.02761600
O       12.20444885       0.08229087       1.40375567       1.40092600      -0.94913100       0.17883700
O       23.70092385      -0.03367975       4.18655336      -1.47529600      -0.03233000       0.14062300
O       18.35816575       1.49690163       1.43812000       0.57205400       0.14790300       0.15336500
O       17.46029739       1.49115102       4.10499096      -0.59867900      -0.80420800       1.65940600
Ga      11.06565435      -0.09618198      10.19375318       0.35888100      -0.90989800       0.06321000
Ga      22.01890040      -0.06522229       6.87218267      -0.90634100       0.38510500       0.92266900
Ga      17.20253548       1.53857930      10.17435393      -0.95434800      -0.90621800       0.80371600
Ga      15.76314091       1.47847505       6.83676014       0.19978500       0.14190900      -0.31596200
Ga      12.64645260       0.05173037       7.46896963       0.48108200       1.31581000       0.36653300
Ga      20.50478704      -0.00692735       9.55672925      -0.35117500      -0.43802300       0.49644100
Ga      18.72502470       1.52911221       7.45920575      -0.82138200      -0.68822200      -0.92112500
Ga      14.32648941       1.54921209       9.57497734       0.14353100      -0.59212700      -1.13180700
O       12.96174951       0.01976721       6.27057878      -0.91716400      -0.91671700       1.73038300
O       20.08581194      -0.01896724      10.81487690       0.62572700      -0.10630400       0.26862000
O       19.02633976       1.50930631       6.14504814       0.26192700      -0.37054600      -0.17323400
O       13.89122478       1.44467176      10.84920283      -0.85253400       1.29935000      -0.13472400
O       12.43635428      -0.05048196       8.87120903       0.18102400       1.42495000       0.72184100
O       20.65210594       0.02033942       8.19210451       0.55852000      -0.38415100       0.54451300
O       18.57515458       1.55377906       8.83279655      -0.62259300      -1.98825700      -0.90611800
O       14.48369433       1.50743147       8.13511628       0.83200700      -0.18639300       0.02761600
O       10.81352485       0.08229087       7.11939067       1.40092600      -0.94913100       0.17883700
O       22.30999985      -0.03367975       9.90218836      -1.47529600      -0.03233000       0.14062300
O       16.96724175       1.49690163       7.15375500       0.57205400       0.14790300       0.15336500
O       16.06937339       1.49115102       9.82062596      -0.59867900      -0.80420800       1.65940600
Ga      12.45657835       2.99093802       4.47811818       0.35888100      -0.90989800       0.06321000
Ga      23.40982440       3.02189771       1.15654767      -0.90634100       0.38510500       0.92266900
Ga      18.59345948       4.62569930       4.45871893      -0.95434800      -0.90621800       0.80371600
Ga      17.15406491       4.56559505       1.12112514       0.19978500       0.14190900      -0.31596200
Ga      14.03737660       3.13885037       1.75333463       0.48108200       1.31581000       0.36653300
Ga      21.89571104       3.08019265       3.84109425      -0.35117500      -0.43802300       0.49644100
Ga      20.11594870       4.61623221       1.74357075      -0.82138200      -0.68822200      -0.92112500
Ga      15.71741341       4.63633209       3.85934234       0.14353100      -0.59212700      -1.13180700
O       14.35267351       3.10688721       0.55494378      -0.91716400      -0.91671700       1.73038300
O       21.47673594       3.06815276       5.09924190       0.62572700      -0.10630400       0.26862000
O       20.41726376       4.59642631       0.42941314       0.26192700      -0.37054600      -0.17323400
O       15.28214878       4.53179176       5.13356783      -0.85253400       1.29935000      -0.13472400
O       13.82727828       3.03663804       3.15557403       0.18102400       1.42495000       0.72184100
O       22.04302994       3.10745942       2.47646951       0.55852000      -0.38415100       0.54451300
O       19.96607858       4.64089906       3.11716155      -0.62259300      -1.98825700      -0.90611800
O       15.87461833       4.59455147       2.41948128       0.83200700      -0.18639300       0.02761600
O       12.20444885       3.16941087       1.40375567       1.40092600      -0.94913100       0.17883700
O       23.70092385       3.05344025       4.18655336      -1.47529600      -0.03233000       0.14062300
O       18.35816575       4.58402163       1.43812000       0.57205400       0.14790300       0.15336500
O       17.46029739       4.57827102       4.10499096      -0.59867900      -0.80420800       1.65940600
Ga      11.06565435       2.99093802      10.19375318       0.35888100      -0.90989800       0.06321000
Ga      22.01890040       3.02189771       6.87218267      -0.90634100       0.38510500       0.92266900
Ga      17.20253548       4.62569930      10.17435393      -0.95434800      -0.90621800       0.80371600
Ga      15.76314091       4.56559505       6.83676014       0.19978500       0.14190900      -0.31596200
Ga      12.64645260       3.13885037       7.46896963       0.48108200       1.31581000       0.36653300
Ga      20.50478704       3.08019265       9.55672925      -0.35117500      -0.43802300       0.49644100
Ga      18.72502470       4.61623221       7.45920575      -0.82138200      -0.68822200      -0.92112500
Ga      14.32648941       4.63633209       9.57497734       0.14353100      -0.59212700      -1.13180700
O       12.96174951       3.10688721       6.27057878      -0.91716400      -0.91671700       1.73038300
O       20.08581194       3.06815276      10.81487690       0.62572700      -0.10630400       0.26862000
O       19.02633976       4.59642631       6.14504814       0.26192700      -0.37054600      -0.17323400
O       13.89122478       4.53179176      10.84920283      -0.85253400       1.29935000      -0.13472400
O       12.43635428       3.03663804       8.87120903       0.18102400       1.42495000       0.72184100
O       20.65210594       3.10745942       8.19210451       0.55852000      -0.38415100       0.54451300
O       18.57515458       4.64089906       8.83279655      -0.62259300      -1.98825700      -0.90611800
O       14.48369433       4.59455147       8.13511628       0.83200700      -0.18639300       0.02761600
O       10.81352485       3.16941087       7.11939067       1.40092600      -0.94913100       0.17883700
O       22.30999985       3.05344025       9.90218836      -1.47529600      -0.03233000       0.14062300
O       16.96724175       4.58402163       7.15375500       0.57205400       0.14790300       0.15336500
O       16.06937339       4.57827102       9.82062596      -0.59867900      -0.80420800       1.65940600
160
Lattice="24.995098 0.0 0.0 0.0 6.188445 0.0 -2.788248 0.0 11.457569" Properties=species:S:1:pos:R:3:force:R:3 Energy=-631.053913 Virial="9.450953 -3.049946 1.11364 16.253818 7.614257 -10.820188 36.667891 0.076849 -4.361485" pbc="T T T"
Ga      -0.04096080      -0.02941099       4.55977967      -0.10832700      -0.44823000      -0.10689100
Ga      11.01738004       0.00508171       1.13690967       0.91173500      -0.51268500      -0.97757900
Ga       6.23763811       1.59909485       4.55358486       0.73168500      -1.05059300       0.11762200
Ga       4.79524100       1.55458465       1.11790730       1.01504000      -0.56480600      -0.70830600
Ga       1.55937056       0.04429273       1.82645392       0.39839000      -0.68061000       0.57691100
Ga       9.64565557      -0.07753564       3.93387913      -1.88510500       0.36923800       0.69376500
Ga       7.73911207       1.54018246       1.80004653       0.55229700      -0.50511100      -0.59864400
Ga       3.40176607       1.54472023       3.92566315      -0.42525800       0.49841900       1.74766300
O        1.95875630      -0.00211287       0.61175200      -0.65410900       1.90545600       0.66844100
O        9.21166179       0.03314012       5.11557647      -0.77035600       0.73191200      -0.25523000
O        8.24673319       1.52085296       0.53811691       1.35174700      -0.25684600       0.18650600
O        2.90999151       1.50614126       5.14219229      -0.21698100      -0.84282800      -0.75382600
O        1.38828392      -0.07879587       3.18694968       0.19750700      -1.11483600      -1.00198100
O        9.76158084       0.02527769       2.54942078       0.10287400      -0.30890800      -0.25928600
O        7.59711362       1.48366751       3.23833354      -0.46565000      -0.99940400      -0.38449400
O        3.45253695       1.54378818       2.52421958       0.69657000      -0.07481400       0.98646500
O       -0.28000977       0.07373264       1.52506440       0.01704900       0.94287300      -0.01902900
O       11.31704029      -0.01234156       4.20834596       0.55782000      -1.79154200      -0.64238700
O        5.97940541       1.54727065       1.49081551       0.82416500       0.18429400       0.97649700
O        5.14579111       1.50553645       4.22748447      -0.26579700      -0.62018700      -0.26745400
Ga      -1.43188480      -0.02941099      10.27541467      -0.10832700      -0.44823000      -0.10689100
Ga       9.62645604       0.00508171       6.85254467       0.91173500      -0.51268500      -0.97757900
Ga       4.84671411       1.59909485      10.26921986       0.73168500      -1.05059300       0.11762200
Ga       3.40431700       1.55458465       6.83354230       1.01504000      -0.56480600      -0.70830600
Ga       0.16844656       0.04429273       7.54208892       0.39839000      -0.68061000       0.57691100
Ga       8.25473157      -0.07753564       9.64951413      -1.88510500       0.36923800       0.69376500
Ga       6.34818807       1.54018246       7.51568153       0.55229700      -0.50511100      -0.59864400
Ga       2.01084207       1.54472023       9.64129815      -0.42525800       0.49841900       1.74766300
O        0.56783230      -0.00211287       6.32738700      -0.65410900       1.90545600       0.66844100
O        7.82073779       0.03314012      10.83121147      -0.77035600       0.73191200      -0.25523000
O        6.85580919       1.52085296       6.25375191       1.35174700      -0.25684600       0.18650600
O        1.51906751       1.50614126      10.85782729      -0.21698100      -0.84282800      -0.75382600
O       -0.00264008      -0.07879587       8.90258468       0.19750700      -1.11483600      -1.00198100
O        8.37065684       0.02527769       8.26505578       0.10287400      -0.30890800      -0.25928600
O        6.20618962       1.48366751       8.95396854      -0.46565000      -0.99940400      -0.38449400
O        2.06161295       1.54378818       8.23985458       0.69657000      -0.07481400       0.98646500
O       -1.67093377       0.07373264       7.24069940       0.01704900       0.94287300      -0.01902900
O        9.92611629      -0.01234156       9.92398096       0.55782000      -1.79154200      -0.64238700
O        4.58848141       1.54727065       7.20645051       0.82416500       0.18429400       0.97649700
O        3.75486711       1.50553645       9.94311947      -0.26579700      -0.62018700      -0.26745400
Ga      -0.04096080       3.05770901       4.55977967      -0.10832700      -0.44823000      -0.10689100
Ga      11.01738004       3.09220171       1.13690967       0.91173500      -0.51268500      -0.97757900
Ga       6.23763811       4.68621485       4.55358486       0.73168500      -1.05059300       0.11762200
Ga       4.79524100       4.64170465       1.11790730       1.01504000      -0.56480600      -0.70830600
Ga       1.55937056       3.13141273       1.82645392       0.39839000      -0.68061000       0.57691100
Ga       9.64565557       3.00958436       3.93387913      -1.88510500       0.36923800       0.69376500
Ga       7.73911207       4.62730246       1.80004653       0.55229700      -0.50511100      -0.59864400
Ga       3.40176607       4.63184023       3.92566315      -0.42525800       0.49841900       1.74766300
O        1.95875630       3.08500713       0.61175200      -0.65410900       1.90545600       0.66844100
O        9.21166179       3.12026012       5.11557647      -0.77035600       0.73191200      -0.25523000
O        8.24673319       4.60797296       0.53811691       1.35174700      -0.25684600       0.18650600
O        2.90999151       4.59326126       5.14219229      -0.21698100      -0.84282800      -0.75382600
O        1.38828392       3.00832413       3.18694968       0.19750700      -1.11483600      -1.00198100
O        9.76158084       3.11239769       2.54942078       0.10287400      -0.30890800      -0.25928600
O        7.59711362       4.57078751       3.23833354      -0.46565000      -0.99940400      -0.38449400
O        3.45253695       4.63090818       2.52421958       0.69657000      -0.07481400       0.98646500
O       -0.28000977       3.16085264       1.52506440       0.01704900       0.94287300      -0.01902900
O       11.31704029       3.07477844       4.20834596       0.55782000      -1.79154200      -0.64238700
O        5.97940541       4.63439065       1.49081551       0.82416500       0.18429400       0.97649700
O        5.14579111       4.59265645       4.22748447      -0.26579700      -0.62018700      -0.26745400
Ga      -1.43188480       3.05770901      10.27541467      -0.10832700      -0.44823000      -0.10689100
Ga       9.62645604       3.09220171       6.85254467       0.91173500      -0.51268500      -0.97757900
Ga       4.84671411       4.68621485      10.26921986       0.73168500      -1.05059300       0.11762200
Ga       3.40431700       4.64170465       6.83354230       1.01504000      -0.56480600      -0.70830600
Ga       0.16844656       3.13141273       7.54208892       0.39839000      -0.68061000       0.57691100
Ga       8.25473157       3.00958436       9.64951413      -1.88510500       0.36923800       0.69376500
Ga       6.34818807       4.62730246       7.51568153       0.55229700      -0.50511100      -0.59864400
Ga       2.01084207       4.63184023       9.64129815      -0.42525800       0.49841900       1.74766300
O        0.56783230       3.08500713       6.32738700      -0.65410900       1.90545600       0.66844100
O        7.82073779       3.12026012      10.83121147      -0.77035600       0.73191200      -0.25523000
O        6.85580919       4.60797296       6.25375191       1.35174700      -0.25684600       0.18650600
O        1.51906751       4.59326126      10.85782729      -0.21698100      -0.84282800      -0.75382600
O       -0.00264008       3.00832413       8.90258468       0.19750700      -1.11483600      -1.00198100
O        8.37065684       3.11239769       8.26505578       0.10287400      -0.30890800      -0.25928600
O        6.20618962       4.57078751       8.95396854      -0.46565000      -0.99940400      -0.38449400
O        2.06161295       4.63090818       8.23985458       0.69657000      -0.07481400       0.98646500
O       -1.67093377       3.16085264       7.24069940       0.01704900       0.94287300      -0.01902900
O        9.92611629       3.07477844       9.92398096       0.55782000      -1.79154200      -0.64238700
O        4.58848141       4.63439065       7.20645051       0.82416500       0.18429400       0.97649700
O        3.75486711       4.59265645       9.94311947      -0.26579700      -0.62018700      -0.26745400
Ga      12.42790020      -0.02941099       4.55977967      -0.10832700      -0.44823000      -0.10689100
Ga      23.48624104       0.00508171       1.13690967       0.91173500      -0.51268500      -0.97757900
Ga      18.70649911       1.59909485       4.55358486       0.73168500      -1.05059300       0.11762200
Ga      17.26410200       1.55458465       1.11790730       1.01504000      -0.56480600      -0.70830600
Ga      14.02823156       0.04429273       1.82645392       0.39839000      -0.68061000       0.57691100
Ga      22.11451657      -0.07753564       3.93387913      -1.88510500       0.36923800       0.69376500
Ga      20.20797307       1.54018246       1.80004653       0.55229700      -0.50511100      -0.59864400
Ga      15.87062707       1.54472023       3.92566315      -0.42525800       0.49841900       1.74766300
O       14.42761730      -0.00211287       0.61175200      -0.65410900       1.90545600       0.66844100
O       21.68052279       0.03314012       5.11557647      -0.77035600       0.73191200      -0.25523000
O       20.71559419       1.52085296       0.53811691       1.35174700      -0.25684600       0.18650600
O       15.37885251       1.50614126       5.14219229      -0.21698100      -0.84282800      -0.75382600
O       13.85714492      -0.07879587       3.18694968       0.19750700      -1.11483600      -1.00198100
O       22.23044184       0.02527769       2.54942078       0.10287400      -0.30890800      -0.25928600
O       20.06597462       1.48366751       3.23833354      -0.46565000      -0.99940400      -0.38449400
O       15.92139795       1.54378818       2.52421958       0.69657000      -0.07481400       0.98646500
O       12.18885123       0.07373264       1.52506440       0.01704900       0.94287300      -0.01902900
O       23.78590129      -0.01234156       4.20834596       0.55782000      -1.79154200      -0.64238700
O       18.44826641       1.54727065       1.49081551       0.82416500       0.18429400       0.97649700
O       17.61465211       1.50553645       4.22748447      -0.26579700      -0.62018700      -0.26745400
Ga      11.03697620      -0.02941099      10.27541467      -0.10832700      -0.44823000      -0.10689100
Ga      22.09531704       0.00508171       6.85254467       0.91173500      -0.51268500      -0.97757900
Ga      17.31557511       1.59909485      10.26921986       0.73168500      -1.05059300       0.11762200
Ga      15.87317800       1.55458465       6.83354230       1.01504000      -0.56480600      -0.70830600
Ga      12.63730756       0.04429273       7.54208892       0.39839000      -0.68061000       0.57691100
Ga      20.72359257      -0.07753564       9.64951413      -1.88510500       0.36923800       0.69376500
Ga      18.81704907       1.54018246       7.51568153       0.55229700      -0.50511100      -0.59864400
Ga      14.47970307       1.54472023       9.64129815      -0.42525800       0.49841900       1.74766300
O       13.03669330      -0.00211287       6.32738700      -0.65410900       1.90545600       0.66844100
O       20.28959879       0.03314012      10.83121147      -0.77035600       0.73191200      -0.25523000
O       19.32467019       1.52085296       6.25375191       1.35174700      -0.25684600       0.18650600
O       13.98792851       1.50614126      10.85782729      -0.21698100      -0.84282800      -0.75382600
O       12.46622092      -0.07879587       8.90258468       0.19750700      -1.11483600      -1.00198100
O       20.83951784       0.02527769       8.26505578       0.10287400      -0.30890800      -0.25928600
O       18.67505062       1.48366751       8.95396854      -0.46565000      -0.99940400      -0.38449400
O       14.53047395       1.54378818       8.23985458       0.69657000      -0.07481400       0.98646500
O       10.79792723       0.07373264       7.24069940       0.01704900       0.94287300      -0.01902900
O       22.39497729      -0.01234156       9.92398096       0.55782000      -1.79154200      -0.64238700
O       17.05734241       1.54727065       7.20645051       0.82416500       0.18429400       0.97649700
O       16.22372811       1.50553645       9.94311947      -0.26579700      -0.62018700      -0.26745400
Ga      12.42790020       3.05770901       4.55977967      -0.10832700      -0.44823000      -0.10689100
Ga      23.48624104       3.09220171       1.13690967       0.91173500      -0.51268500      -0.97757900
Ga      18.70649911       4.68621485       4.55358486       0.73168500      -1.05059300       0.11762200
Ga      17.26410200       4.64170465       1.11790730       1.01504000      -0.56480600      -0.70830600
Ga      14.02823156       3.13141273       1.82645392       0.39839000      -0.68061000       0.57691100
Ga      22.11451657       3.00958436       3.93387913      -1.88510500       0.36923800       0.69376500
Ga      20.20797307       4.62730246       1.80004653       0.55229700      -0.50511100      -0.59864400
Ga      15.87062707       4.63184023       3.92566315      -0.42525800       0.49841900       1.74766300
O       14.42761730       3.08500713       0.61175200      -0.65410900       1.90545600       0.66844100
O       21.68052279       3.12026012       5.11557647      -0.77035600       0.73191200      -0.25523000
O       20.71559419       4.60797296       0.53811691       1.35174700      -0.25684600       0.18650600
O       15.37885251       4.59326126       5.14219229      -0.21698100      -0.84282800      -0.75382600
O       13.85714492       3.00832413       3.18694968       0.19750700      -1.11483600      -1.00198100
O       22.23044184       3.11239769       2.54942078       0.10287400      -0.30890800      -0.25928600
O       20.06597462       4.57078751       3.23833354      -0.46565000      -0.99940400      -0.38449400
O       15.92139795       4.63090818       2.52421958       0.69657000      -0.07481400       0.98646500
O       12.18885123       3.16085264       1.52506440       0.01704900       0.94287300      -0.01902900
O       23.78590129       3.07477844       4.20834596       0.55782000      -1.79154200      -0.64238700
O       18.44826641       4.63439065       1.49081551       0.82416500       0.18429400       0.97649700
O       17.61465211       4.59265645       4.22748447      -0.26579700      -0.62018700      -0.26745400
Ga      11.03697620       3.05770901      10.27541467      -0.10832700      -0.44823000      -0.10689100
Ga      22.09531704       3.09220171       6.85254467       0.91173500      -0.51268500      -0.97757900
Ga      17.31557511       4.68621485      10.26921986       0.73168500      -1.05059300       0.11762200
Ga      15.87317800       4.64170465       6.83354230       1.01504000      -0.56480600      -0.70830600
Ga      12.63730756       3.13141273       7.54208892       0.39839000      -0.68061000       0.57691100
Ga      20.72359257       3.00958436       9.64951413      -1.88510500       0.36923800       0.69376500
Ga      18.81704907       4.62730246       7.51568153       0.55229700      -0.50511100      -0.59864400
Ga      14.47970307       4.63184023       9.64129815      -0.42525800       0.49841900       1.74766300
O       13.03669330       3.08500713       6.32738700      -0.65410900       1.90545600       0.66844100
O       20.28959879       3.12026012      10.83121147      -0.77035600       0.73191200      -0.25523000
O       19.32467019       4.60797296       6.25375191       1.35174700      -0.25684600       0.18650600
O       13.98792851       4.59326126      10.85782729      -0.21698100      -0.84282800      -0.75382600
O       12.46622092       3.00832413       8.90258468       0.19750700      -1.11483600      -1.00198100
O       20.83951784       3.11239769       8.26505578       0.10287400      -0.30890800      -0.25928600
O       18.67505062       4.57078751       8.95396854      -0.46565000      -0.99940400      -0.38449400
O       14.53047395       4.63090818       8.23985458       0.69657000      -0.07481400       0.98646500
O       10.79792723       3.16085264       7.24069940       0.01704900       0.94287300      -0.01902900
O       22.39497729       3.07477844       9.92398096       0.55782000      -1.79154200      -0.64238700
O       17.05734241       4.63439065       7.20645051       0.82416500       0.18429400       0.97649700
O       16.22372811       4.59265645       9.94311947      -0.26579700      -0.62018700      -0.26745400
160
Lattice="24.450704 0.0 0.0 0.0 6.053661 0.0 -2.72752 0.0 11.208023" Properties=species:S:1:pos:R:3:force:R:3 Energy=-631.012824 Virial="-21.487771 -16.459539 -2.490129 -3.638791 4.062192 -7.330659 7.25206 12.19373 -2.175172" pbc="T T T"
Ga       0.02442668       0.10546677       4.49908855       0.27564300       0.71768600      -1.13730600
Ga      10.88534369       0.01742185       1.15772308      -1.34361600       0.29253000      -0.31669400
Ga       6.03958289       1.48625599       4.43372546      -0.90961300       0.33565300      -1.41950600
Ga       4.65116971       1.46711857       1.07183021      -0.04430500       0.55474600       0.56625900
Ga       1.50891437       0.03275064       1.80505206      -0.95564300      -0.72631100      -0.14351900
Ga       9.36773564      -0.03853585       3.76594842      -0.63480100       2.25155700      -0.45487100
Ga       7.55284890       1.46265590       1.72522669       0.05746200       1.76010100       0.85621600
Ga       3.23207799       1.47284864       3.85679006      -0.37014900       0.23563000       0.60030300
O        1.86747294       0.00042183       0.57238746      -0.57143100       0.54152200      -0.50636000
O        8.93761843       0.01674818       5.07667573      -0.08421800      -0.01597600      -0.55118100
O        7.97610076       1.54882546       0.56193801      -1.94952600      -0.15502100      -1.29233400
O        2.83429174       1.50612878       5.08848313      -0.75025300       0.23457600      -1.56823600
O        1.34308708       0.02340085       3.13828611       0.10364100      -1.15448000      -0.37178600
O        9.58088668      -0.06121117       2.47207623       0.52711300      -0.53149100      -0.01282600
O        7.43034358       1.53757950       3.06235155      -0.57546000      -0.91860800      -0.79105400
O        3.40876041       1.48821327       2.44760720      -0.77338100      -0.07675700       0.45697900
O       -0.35808101      -0.01860304       1.47800755       0.69253100      -0.26045200      -0.22481000
O       11.16080511       0.02510722       4.23597024      -0.27047200       0.70823900       0.47087600
O        5.82300449       1.49106322       1.45331762       0.97524600      -0.33357600      -0.71232400
O        5.02736547       1.49323830       4.10858886       0.89275600       0.57519700      -0.24156400
Ga      -1.36649732       0.10546677      10.21472355       0.27564300       0.71768600      -1.13730600
Ga       9.49441969       0.01742185       6.87335808      -1.34361600       0.29253000      -0.31669400
Ga       4.64865889       1.48625599      10.14936046      -0.90961300       0.33565300      -1.41950600
Ga       3.26024571       1.46711857       6.78746521      -0.04430500       0.55474600       0.56625900
Ga       0.11799037       0.03275064       7.52068706      -0.95564300      -0.72631100      -0.14351900
Ga       7.97681164      -0.03853585       9.48158342      -0.63480100       2.25155700      -0.45487100
Ga       6.16192490       1.46265590       7.44086169       0.05746200       1.76010100       0.85621600
Ga       1.84115399       1.47284864       9.57242506      -0.37014900       0.23563000       0.60030300
O        0.47654894       0.00042183       6.28802246      -0.57143100       0.54152200      -0.50636000
O        7.54669443       0.01674818      10.79231073      -0.08421800      -0.01597600      -0.55118100
O        6.58517676       1.54882546       6.27757301      -1.94952600      -0.15502100      -1.29233400
O        1.44336774       1.50612878      10.80411813      -0.75025300       0.23457600      -1.56823600
O       -0.04783692       0.02340085       8.85392111       0.10364100      -1.15448000      -0.37178600
O        8.18996268      -0.06121117       8.18771123       0.52711300      -0.53149100      -0.01282600
O        6.03941958       1.53757950       8.77798655      -0.57546000      -0.91860800      -0.79105400
O        2.01783641       1.48821327       8.16324220      -0.77338100      -0.07675700       0.45697900
O       -1.74900501      -0.01860304       7.19364255       0.69253100      -0.26045200      -0.22481000
O        9.76988111       0.02510722       9.95160524      -0.27047200       0.70823900       0.47087600
O        4.43208049       1.49106322       7.16895262       0.97524600      -0.33357600      -0.71232400
O        3.63644147       1.49323830       9.82422386       0.89275600       0.57519700      -0.24156400
Ga       0.02442668       3.19258677       4.49908855       0.27564300       0.71768600      -1.13730600
Ga      10.88534369       3.10454185       1.15772308      -1.34361600       0.29253000      -0.31669400
Ga       6.03958289       4.57337599       4.43372546      -0.90961300       0.33565300      -1.41950600
Ga       4.65116971       4.55423857       1.07183021      -0.04430500       0.55474600       0.56625900
Ga       1.50891437       3.11987064       1.80505206      -0.95564300      -0.72631100      -0.14351900
Ga       9.36773564       3.04858415       3.76594842      -0.63480100       2.25155700      -0.45487100
Ga       7.55284890       4.54977590       1.72522669       0.05746200       1.76010100       0.85621600
Ga       3.23207799       4.55996864       3.85679006      -0.37014900       0.23563000       0.60030300
O        1.86747294       3.08754183       0.57238746      -0.57143100       0.54152200      -0.50636000
O        8.93761843       3.10386818       5.07667573      -0.08421800      -0.01597600      -0.55118100
O        7.97610076       4.63594546       0.56193801      -1.94952600      -0.15502100      -1.29233400
O        2.83429174       4.59324878       5.08848313      -0.75025300       0.23457600      -1.56823600
O        1.34308708       3.11052085       3.13828611       0.10364100      -1.15448000      -0.37178600
O        9.58088668       3.02590883       2.47207623       0.52711300      -0.53149100      -0.01282600
O        7.43034358       4.62469950       3.06235155      -0.57546000      -0.91860800      -0.79105400
O        3.40876041       4.57533327       2.44760720      -0.77338100      -0.07675700       0.45697900
O       -0.35808101       3.06851696       1.47800755       0.69253100      -0.26045200      -0.22481000
O       11.16080511       3.11222722       4.23597024      -0.27047200       0.70823900       0.47087600
O        5.82300449       4.57818322       1.45331762       0.97524600      -0.33357600      -0.71232400
O        5.02736547       4.58035830       4.10858886       0.89275600       0.57519700      -0.24156400
Ga      -1.36649732       3.19258677      10.21472355       0.27564300       0.71768600      -1.13730600
Ga       9.49441969       3.10454185       6.87335808      -1.34361600       0.29253000      -0.31669400
Ga       4.64865889       4.57337599      10.14936046      -0.90961300       0.33565300      -1.41950600
Ga       3.26024571       4.55423857       6.78746521      -0.04430500       0.55474600       0.56625900
Ga       0.11799037       3.11987064       7.52068706      -0.95564300      -0.72631100      -0.14351900
Ga       7.97681164       3.04858415       9.48158342      -0.63480100       2.25155700      -0.45487100
Ga       6.16192490       4.54977590       7.44086169       0.05746200       1.76010100       0.85621600
Ga       1.84115399       4.55996864       9.57242506      -0.37014900       0.23563000       0.60030300
O        0.47654894       3.08754183       6.28802246      -0.57143100       0.54152200      -0.50636000
O        7.54669443       3.10386818      10.79231073      -0.08421800      -0.01597600      -0.55118100
O        6.58517676       4.63594546       6.27757301      -1.94952600      -0.15502100      -1.29233400
O        1.44336774       4.59324878      10.80411813      -0.75025300       0.23457600      -1.56823600
O       -0.04783692       3.11052085       8.85392111       0.10364100      -1.15448000      -0.37178600
O        8.18996268       3.02590883       8.18771123       0.52711300      -0.53149100      -0.01282600
O        6.03941958       4.62469950       8.77798655      -0.57546000      -0.91860800      -0.79105400
O        2.01783641       4.57533327       8.16324220      -0.77338100      -0.07675700       0.45697900
O       -1.74900501       3.06851696       7.19364255       0.69253100      -0.26045200      -0.22481000
O        9.76988111       3.11222722       9.95160524      -0.27047200       0.70823900       0.47087600
O        4.43208049       4.57818322       7.16895262       0.97524600      -0.33357600      -0.71232400
O        3.63644147       4.58035830       9.82422386       0.89275600       0.57519700      -0.24156400
Ga      12.49328768       0.10546677       4.49908855       0.27564300       0.71768600      -1.13730600
Ga      23.35420469       0.01742185       1.15772308      -1.34361600       0.29253000      -0.31669400
Ga      18.50844389       1.48625599       4.43372546      -0.90961300       0.33565300      -1.41950600
Ga      17.12003071       1.46711857       1.07183021      -0.04430500       0.55474600       0.56625900
Ga      13.97777537       0.03275064       1.80505206      -0.95564300      -0.72631100      -0.14351900
Ga      21.83659664      -0.03853585       3.76594842      -0.63480100       2.25155700      -0.45487100
Ga      20.02170990       1.46265590       1.72522669       0.05746200       1.76010100       0.85621600
Ga      15.70093899       1.47284864       3.85679006      -0.37014900       0.23563000       0.60030300
O       14.33633394       0.00042183       0.57238746      -0.57143100       0.54152200      -0.50636000
O       21.40647943       0.01674818       5.07667573      -0.08421800      -0.01597600      -0.55118100
O       20.44496176       1.54882546       0.56193801      -1.94952600      -0.15502100      -1.29233400
O       15.30315274       1.50612878       5.08848313      -0.75025300       0.23457600      -1.56823600
O       13.81194808       0.02340085       3.13828611       0.10364100      -1.15448000      -0.37178600
O       22.04974768      -0.06121117       2.47207623       0.52711300      -0.53149100      -0.01282600
O       19.89920458       1.53757950       3.06235155      -0.57546000      -0.91860800      -0.79105400
O       15.87762141       1.48821327       2.44760720      -0.77338100      -0.07675700       0.45697900
O       12.11077999      -0.01860304       1.47800755       0.69253100      -0.26045200      -0.22481000
O       23.62966611       0.02510722       4.23597024      -0.27047200       0.70823900       0.47087600
O       18.29186549       1.49106322       1.45331762       0.97524600      -0.33357600      -0.71232400
O       17.49622647       1.49323830       4.10858886       0.89275600       0.57519700      -0.24156400
Ga      11.10236368       0.10546677      10.21472355       0.27564300       0.71768600      -1.13730600
Ga      21.96328069       0.01742185       6.87335808      -1.34361600       0.29253000      -0.31669400
Ga      17.11751989       1.48625599      10.14936046      -0.90961300       0.33565300      -1.41950600
Ga      15.72910671       1.46711857       6.78746521      -0.04430500       0.55474600       0.56625900
Ga      12.58685137       0.03275064       7.52068706      -0.95564300      -0.72631100      -0.14351900
Ga      20.44567264      -0.03853585       9.48158342      -0.63480100       2.25155700      -0.45487100
Ga      18.63078590       1.46265590       7.44086169       0.05746200       1.76010100       0.85621600
Ga      14.31001499       1.47284864       9.57242506      -0.37014900       0.23563000       0.60030300
O       12.94540994       0.00042183       6.28802246      -0.57143100       0.54152200      -0.50636000
O       20.01555543       0.01674818      10.79231073      -0.08421800      -0.01597600      -0.55118100
O       19.05403776       1.54882546       6.27757301      -1.94952600      -0.15502100      -1.29233400
O       13.91222874       1.50612878      10.80411813      -0.75025300       0.23457600      -1.56823600
O       12.42102408       0.02340085       8.85392111       0.10364100      -1.15448000      -0.37178600
O       20.65882368      -0.06121117       8.18771123       0.52711300      -0.53149100      -0.01282600
O       18.50828058       1.53757950       8.77798655      -0.57546000      -0.91860800      -0.79105400
O       14.48669741       1.48821327       8.16324220      -0.77338100      -0.07675700       0.45697900
O       10.71985599      -0.01860304       7.19364255       0.69253100      -0.26045200      -0.22481000
O       22.23874211       0.02510722       9.95160524      -0.27047200       0.70823900       0.47087600
O       16.90094149       1.49106322       7.16895262       0.97524600      -0.33357600      -0.71232400
O       16.10530247       1.49323830       9.82422386       0.89275600       0.57519700      -0.24156400
Ga      12.49328768       3.19258677       4.49908855       0.27564300       0.71768600      -1.13730600
Ga      23.35420469       3.10454185       1.15772308      -1.34361600       0.29253000      -0.31669400
Ga      18.50844389       4.57337599       4.43372546      -0.90961300       0.33565300      -1.41950600
Ga      17.12003071       4.55423857       1.07183021      -0.04430500       0.55474600       0.56625900
Ga      13.97777537       3.11987064       1.80505206      -0.95564300      -0.72631100      -0.14351900
Ga      21.83659664       3.04858415       3.76594842      -0.63480100       2.25155700      -0.45487100
Ga      20.02170990       4.54977590       1.72522669       0.05746200       1.76010100       0.85621600
Ga      15.70093899       4.55996864       3.85679006      -0.37014900       0.23563000       0.60030300
O       14.33633394       3.08754183       0.57238746      -0.57143100       0.54152200      -0.50636000
O       21.40647943       3.10386818       5.07667573      -0.08421800      -0.01597600      -0.55118100
O       20.44496176       4.63594546       0.56193801      -1.94952600      -0.15502100      -1.29233400
O       15.30315274       4.59324878       5.08848313      -0.75025300       0.23457600      -1.56823600
O       13.81194808       3.11052085       3.13828611       0.10364100      -1.15448000      -0.37178600
O       22.04974768       3.02590883       2.47207623       0.52711300      -0.53149100      -0.01282600
O       19.89920458       4.62469950       3.06235155      -0.57546000      -0.91860800      -0.79105400
O       15.87762141       4.57533327       2.44760720      -0.77338100      -0.07675700       0.45697900
O       12.11077999       3.06851696       1.47800755       0.69253100      -0.26045200      -0.22481000
O       23.62966611       3.11222722       4.23597024      -0.27047200       0.70823900       0.47087600
O       18.29186549       4.57818322       1.45331762       0.97524600      -0.33357600      -0.71232400
O       17.49622647       4.58035830       4.10858886       0.89275600       0.57519700      -0.24156400
Ga      11.10236368       3.19258677      10.21472355       0.27564300       0.71768600      -1.13730600
Ga      21.96328069       3.10454185       6.87335808      -1.34361600       0.29253000      -0.31669400
Ga      17.11751989       4.57337599      10.14936046      -0.90961300       0.33565300      -1.41950600
Ga      15.72910671       4.55423857       6.78746521      -0.04430500       0.55474600       0.56625900
Ga      12.58685137       3.11987064       7.52068706      -0.95564300      -0.72631100      -0.14351900
Ga      20.44567264       3.04858415       9.48158342      -0.63480100       2.25155700      -0.45487100
Ga      18.63078590       4.54977590       7.44086169       0.05746200       1.76010100       0.85621600
Ga      14.31001499       4.55996864       9.57242506      -0.37014900       0.23563000       0.60030300
O       12.94540994       3.08754183       6.28802246      -0.57143100       0.54152200      -0.50636000
O       20.01555543       3.10386818      10.79231073      -0.08421800      -0.01597600      -0.55118100
O       19.05403776       4.63594546       6.27757301      -1.94952600      -0.15502100      -1.29233400
O       13.91222874       4.59324878      10.80411813      -0.75025300       0.23457600      -1.56823600
O       12.42102408       3.11052085       8.85392111       0.10364100      -1.15448000      -0.37178600
O       20.65882368       3.02590883       8.18771123       0.52711300      -0.53149100      -0.01282600
O       18.50828058       4.62469950       8.77798655      -0.57546000      -0.91860800      -0.79105400
O       14.48669741       4.57533327       8.16324220      -0.77338100      -0.07675700       0.45697900
O       10.71985599       3.06851696       7.19364255       0.69253100      -0.26045200      -0.22481000
O       22.23874211       3.11222722       9.95160524      -0.27047200       0.70823900       0.47087600
O       16.90094149       4.57818322       7.16895262       0.97524600      -0.33357600      -0.71232400
O       16.10530247       4.58035830       9.82422386       0.89275600       0.57519700      -0.24156400
160
Lattice="25.134225 0.0 0.0 0.0 6.222891 0.0 -2.803768 0.0 11.521344" Properties=species:S:1:pos:R:3:force:R:3 Energy=-630.942026 Virial="-0.463133 -17.970711 -3.431555 -0.942309 -19.572923 1.022115 -0.493529 -9.622087 1.032359" pbc="T T T"
Ga       0.04048437      -0.07226238       4.62458035      -0.27299500      -1.01500700       0.46079500
Ga      11.21277431       0.00045145       1.18451164       0.09554100      -0.61645100       1.03358900
Ga       6.28627515       1.49045336       4.55494701      -0.24796700       0.05029100       0.93196700
Ga       4.92466229       1.59888323       1.15233334       1.55257000       0.74501900      -2.00700600
Ga       1.52953644       0.08540328       1.76919756       0.46543700       0.70843300      -0.04357700
Ga       9.58393880      -0.01718327       3.89634828      -0.31951800       0.33682400      -0.69118800
Ga       7.81472792       1.53483045       1.77391378       0.43038900       0.26167500       0.34563600
Ga       3.38211826       1.50904961       3.94499164       0.77604700       1.77399300      -1.01331900
O        1.89414884      -0.00839896       0.50456492       1.38878200       0.38113200      -0.24968300
O        9.23903465       0.01285852       5.27525620       1.00968300       1.12598600       0.96270600
O        8.18924149       1.62043585       0.50922439       0.19418700       0.38362500       0.33925900
O        2.94292170       1.62631237       5.33528659       0.13986000      -0.34940800      -1.05958000
O        1.45929614      -0.00894367       3.23504990       0.23816300       1.17582400       1.25614600
O        9.80067455       0.01381695       2.50590369      -1.30146900      -1.15313700      -0.30667300
O        7.68479838       1.53548895       3.17571839       0.76875100      -0.23455200       0.49713000
O        3.47735790       1.56833604       2.58627288       1.05255000      -1.09564300      -0.51210400
O       -0.31877090      -0.00314439       1.50688976      -1.30436800      -0.22608800      -0.54081100
O       11.47667639       0.01526206       4.28905860      -0.30707500      -0.58970600       0.54080400
O        5.98305089       1.51256180       1.47962566       0.89713100      -0.01006700       0.26387200
O        5.24740061       1.56248244       4.25258982       0.05570100       0.72452400       0.21332600
Ga      -1.35043963      -0.07226238      10.34021535      -0.27299500      -1.01500700       0.46079500
Ga       9.82185031       0.00045145       6.90014664       0.09554100      -0.61645100       1.03358900
Ga       4.89535115       1.49045336      10.27058201      -0.24796700       0.05029100       0.93196700
Ga       3.53373829       1.59888323       6.86796834       1.55257000       0.74501900      -2.00700600
Ga       0.13861244       0.08540328       7.48483256       0.46543700       0.70843300      -0.04357700
Ga       8.19301480      -0.01718327       9.61198328      -0.31951800       0.33682400      -0.69118800
Ga       6.42380392       1.53483045       7.48954878       0.43038900       0.26167500       0.34563600
Ga       1.99119426       1.50904961       9.66062664       0.77604700       1.77399300      -1.01331900
O        0.50322484      -0.00839896       6.22019992       1.38878200       0.38113200      -0.24968300
O        7.84811065       0.01285852      10.99089120       1.00968300       1.12598600       0.96270600
O        6.79831749       1.62043585       6.22485939       0.19418700       0.38362500       0.33925900
O        1.55199770       1.62631237      11.05092159       0.13986000      -0.34940800      -1.05958000
O        0.06837214      -0.00894367       8.95068490       0.23816300       1.17582400       1.25614600
O        8.40975055       0.01381695       8.22153869      -1.30146900      -1.15313700      -0.30667300
O        6.29387438       1.53548895       8.89135339       0.76875100      -0.23455200       0.49713000
O        2.08643390       1.56833604       8.30190788       1.05255000      -1.09564300      -0.51210400
O       -1.70969490      -0.00314439       7.22252476      -1.30436800      -0.22608800      -0.54081100
O       10.08575239       0.01526206      10.00469360      -0.30707500      -0.58970600       0.54080400
O        4.59212689       1.51256180       7.19526066       0.89713100      -0.01006700       0.26387200
O        3.85647661       1.56248244       9.96822482       0.05570100       0.72452400       0.21332600
Ga       0.04048437       3.01485762       4.62458035      -0.27299500      -1.01500700       0.46079500
Ga      11.21277431       3.08757145       1.18451164       0.09554100      -0.61645100       1.03358900
Ga       6.28627515       4.57757336       4.55494701      -0.24796700       0.05029100       0.93196700
Ga       4.92466229       4.68600323       1.15233334       1.55257000       0.74501900      -2.00700600
Ga       1.52953644       3.17252328       1.76919756       0.46543700       0.70843300      -0.04357700
Ga       9.58393880       3.06993673       3.89634828      -0.31951800       0.33682400      -0.69118800
Ga       7.81472792       4.62195045       1.77391378       0.43038900       0.26167500       0.34563600
Ga       3.38211826       4.59616961       3.94499164       0.77604700       1.77399300      -1.01331900
O        1.89414884       3.07872104       0.50456492       1.38878200       0.38113200      -0.24968300
O        9.23903465       3.09997852       5.27525620       1.00968300       1.12598600       0.96270600
O        8.18924149       4.70755585       0.50922439       0.19418700       0.38362500       0.33925900
O        2.94292170       4.71343237       5.33528659       0.13986000      -0.34940800      -1.05958000
O        1.45929614       3.07817633       3.23504990       0.23816300       1.17582400       1.25614600
O        9.80067455       3.10093695       2.50590369      -1.30146900      -1.15313700      -0.30667300
O        7.68479838       4.62260895       3.17571839       0.76875100      -0.23455200       0.49713000
O        3.47735790       4.65545604       2.58627288       1.05255000      -1.09564300      -0.51210400
O       -0.31877090       3.08397561       1.50688976      -1.30436800      -0.22608800      -0.54081100
O       11.47667639       3.10238206       4.28905860      -0.30707500      -0.58970600       0.54080400
O        5.98305089       4.59968180       1.47962566       0.89713100      -0.01006700       0.26387200
O        5.24740061       4.64960244       4.25258982       0.05570100       0.72452400       0.21332600
Ga      -1.35043963       3.01485762      10.34021535      -0.27299500      -1.01500700       0.46079500
Ga       9.82185031       3.08757145       6.90014664       0.09554100      -0.61645100       1.03358900
Ga       4.89535115       4.57757336      10.27058201      -0.24796700       0.05029100       0.93196700
Ga       3.53373829       4.68600323       6.86796834       1.55257000       0.74501900      -2.00700600
Ga       0.13861244       3.17252328       7.48483256       0.46543700       0.70843300      -0.04357700
Ga       8.19301480       3.06993673       9.61198328      -0.31951800       0.33682400      -0.69118800
Ga       6.42380392       4.62195045       7.48954878       0.43038900       0.26167500       0.34563600
Ga       1.99119426       4.59616961       9.66062664       0.77604700       1.77399300      -1.01331900
O        0.50322484       3.07872104       6.22019992       1.38878200       0.38113200      -0.24968300
O        7.84811065       3.09997852      10.99089120       1.00968300       1.12598600       0.96270600
O        6.79831749       4.70755585       6.22485939       0.19418700       0.38362500       0.33925900
O        1.55199770       4.71343237      11.05092159       0.13986000      -0.34940800      -1.05958000
O        0.06837214       3.07817633       8.95068490       0.23816300       1.17582400       1.25614600
O        8.40975055       3.10093695       8.22153869      -1.30146900      -1.15313700      -0.30667300
O        6.29387438       4.62260895       8.89135339       0.76875100      -0.23455200       0.49713000
O        2.08643390       4.65545604       8.30190788       1.05255000      -1.09564300      -0.51210400
O       -1.70969490       3.08397561       7.22252476      -1.30436800      -0.22608800      -0.54081100
O       10.08575239       3.10238206      10.00469360      -0.30707500      -0.58970600       0.54080400
O        4.59212689       4.59968180       7.19526066       0.89713100      -0.01006700       0.26387200
O        3.85647661       4.64960244       9.96822482       0.05570100       0.72452400       0.21332600
Ga      12.50934537      -0.07226238       4.62458035      -0.27299500      -1.01500700       0.46079500
Ga      23.68163531       0.00045145       1.18451164       0.09554100      -0.61645100       1.03358900
Ga      18.75513615       1.49045336       4.55494701      -0.24796700       0.05029100       0.93196700
Ga      17.39352329       1.59888323       1.15233334       1.55257000       0.74501900      -2.00700600
Ga      13.99839744       0.08540328       1.76919756       0.46543700       0.70843300      -0.04357700
Ga      22.05279980      -0.01718327       3.89634828      -0.31951800       0.33682400      -0.69118800
Ga      20.28358892       1.53483045       1.77391378       0.43038900       0.26167500       0.34563600
Ga      15.85097926       1.50904961       3.94499164       0.77604700       1.77399300      -1.01331900
O       14.36300984      -0.00839896       0.50456492       1.38878200       0.38113200      -0.24968300
O       21.70789565       0.01285852       5.27525620       1.00968300       1.12598600       0.96270600
O       20.65810249       1.62043585       0.50922439       0.19418700       0.38362500       0.33925900
O       15.41178270       1.62631237       5.33528659       0.13986000      -0.34940800      -1.05958000
O       13.92815714      -0.00894367       3.23504990       0.23816300       1.17582400       1.25614600
O       22.26953555       0.01381695       2.50590369      -1.30146900      -1.15313700      -0.30667300
O       20.15365938       1.53548895       3.17571839       0.76875100      -0.23455200       0.49713000
O       15.94621890       1.56833604       2.58627288       1.05255000      -1.09564300      -0.51210400
O       12.15009010      -0.00314439       1.50688976      -1.30436800      -0.22608800      -0.54081100
O       23.94553739       0.01526206       4.28905860      -0.30707500      -0.58970600       0.54080400
O       18.45191189       1.51256180       1.47962566       0.89713100      -0.01006700       0.26387200
O       17.71626161       1.56248244       4.25258982       0.05570100       0.72452400       0.21332600
Ga      11.11842137      -0.07226238      10.34021535      -0.27299500      -1.01500700       0.46079500
Ga      22.29071131       0.00045145       6.90014664       0.09554100      -0.61645100       1.03358900
Ga      17.36421215       1.49045336      10.27058201      -0.24796700       0.05029100       0.93196700
Ga      16.00259929       1.59888323       6.86796834       1.55257000       0.74501900      -2.00700600
Ga      12.60747344       0.08540328       7.48483256       0.46543700       0.70843300      -0.04357700
Ga      20.66187580      -0.01718327       9.61198328      -0.31951800       0.33682400      -0.69118800
Ga      18.89266492       1.53483045       7.48954878       0.43038900       0.26167500       0.34563600
Ga      14.46005526       1.50904961       9.66062664       0.77604700       1.77399300      -1.01331900
O       12.97208584      -0.00839896       6.22019992       1.38878200       0.38113200      -0.24968300
O       20.31697165       0.01285852      10.99089120       1.00968300       1.12598600       0.96270600
O       19.26717849       1.62043585       6.22485939       0.19418700       0.38362500       0.33925900
O       14.02085870       1.62631237      11.05092159       0.13986000      -0.34940800      -1.05958000
O       12.53723314      -0.00894367       8.95068490       0.23816300       1.17582400       1.25614600
O       20.87861155       0.01381695       8.22153869      -1.30146900      -1.15313700      -0.30667300
O       18.76273538       1.53548895       8.89135339       0.76875100      -0.23455200       0.49713000
O       14.55529490       1.56833604       8.30190788       1.05255000      -1.09564300      -0.51210400
O       10.75916610      -0.00314439       7.22252476      -1.30436800      -0.22608800      -0.54081100
O       22.55461339       0.01526206      10.00469360      -0.30707500      -0.58970600       0.54080400
O       17.06098789       1.51256180       7.19526066       0.89713100      -0.01006700       0.26387200
O       16.32533761       1.56248244       9.96822482       0.05570100       0.72452400       0.21332600
Ga      12.50934537       3.01485762       4.62458035      -0.27299500      -1.01500700       0.46079500
Ga      23.68163531       3.08757145       1.18451164       0.09554100      -0.61645100       1.03358900
Ga      18.75513615       4.57757336       4.55494701      -0.24796700       0.05029100       0.93196700
Ga      17.39352329       4.68600323       1.15233334       1.55257000       0.74501900      -2.00700600
Ga      13.99839744       3.17252328       1.76919756       0.46543700       0.70843300      -0.04357700
Ga      22.05279980       3.06993673       3.89634828      -0.31951800       0.33682400      -0.69118800
Ga      20.28358892       4.62195045       1.77391378       0.43038900       0.26167500       0.34563600
Ga      15.85097926       4.59616961       3.94499164       0.77604700       1.77399300      -1.01331900
O       14.36300984       3.07872104       0.50456492       1.38878200       0.38113200      -0.24968300
O       21.70789565       3.09997852       5.27525620       1.00968300       1.12598600       0.96270600
O       20.65810249       4.70755585       0.50922439       0.19418700       0.38362500       0.33925900
O       15.41178270       4.71343237       5.33528659       0.13986000      -0.34940800      -1.05958000
O       13.92815714       3.07817633       3.23504990       0.23816300       1.17582400       1.25614600
O       22.26953555       3.10093695       2.50590369      -1.30146900      -1.15313700      -0.30667300
O       20.15365938       4.62260895       3.17571839       0.76875100      -0.23455200       0.49713000
O       15.94621890       4.65545604       2.58627288       1.05255000      -1.09564300      -0.51210400
O       12.15009010       3.08397561       1.50688976      -1.30436800      -0.22608800      -0.54081100
O       23.94553739       3.10238206       4.28905860      -0.30707500      -0.58970600       0.54080400
O       18.45191189       4.59968180       1.47962566       0.89713100      -0.01006700       0.26387200
O       17.71626161       4.64960244       4.25258982       0.05570100       0.72452400       0.21332600
Ga      11.11842137       3.01485762      10.34021535      -0.27299500      -1.01500700       0.46079500
Ga      22.29071131       3.08757145       6.90014664       0.09554100      -0.61645100       1.03358900
Ga      17.36421215       4.57757336      10.27058201      -0.24796700       0.05029100       0.93196700
Ga      16.00259929       4.68600323       6.86796834       1.55257000       0.74501900      -2.00700600
Ga      12.60747344       3.17252328       7.48483256       0.46543700       0.70843300      -0.04357700
Ga      20.66187580       3.06993673       9.61198328      -0.31951800       0.33682400      -0.69118800
Ga      18.89266492       4.62195045       7.48954878       0.43038900       0.26167500       0.34563600
Ga      14.46005526       4.59616961       9.66062664       0.77604700       1.77399300      -1.01331900
O       12.97208584       3.07872104       6.22019992       1.38878200       0.38113200      -0.24968300
O       20.31697165       3.09997852      10.99089120       1.00968300       1.12598600       0.96270600
O       19.26717849       4.70755585       6.22485939       0.19418700       0.38362500       0.33925900
O       14.02085870       4.71343237      11.05092159       0.13986000      -0.34940800      -1.05958000
O       12.53723314       3.07817633       8.95068490       0.23816300       1.17582400       1.25614600
O       20.87861155       3.10093695       8.22153869      -1.30146900      -1.15313700      -0.30667300
O       18.76273538       4.62260895       8.89135339       0.76875100      -0.23455200       0.49713000
O       14.55529490       4.65545604       8.30190788       1.05255000      -1.09564300      -0.51210400
O       10.75916610       3.08397561       7.22252476      -1.30436800      -0.22608800      -0.54081100
O       22.55461339       3.10238206      10.00469360      -0.30707500      -0.58970600       0.54080400
O       17.06098789       4.59968180       7.19526066       0.89713100      -0.01006700       0.26387200
O       16.32533761       4.64960244       9.96822482       0.05570100       0.72452400       0.21332600
160
Lattice="24.463782 0.0 0.0 0.0 6.056899 0.0 -2.728979 0.0 11.214018" Properties=species:S:1:pos:R:3:force:R:3 Energy=-630.912101 Virial="14.466536 -22.224264 10.579122 -10.107764 -15.542788 14.249789 -16.559231 -4.043075 -24.581729" pbc="T T T"
Ga       0.05583858      -0.01029243       4.41738524      -0.16915700      -0.22559800      -1.14020500
Ga      10.80695331       0.03514937       1.08990841       0.13605500       0.44705700      -0.33354900
Ga       6.20579025       1.49597967       4.46771149      -0.10720200       0.31186900      -0.68268900
Ga       4.75676171       1.48687727       1.13328343       0.53167200       0.69516900       0.42512400
Ga       1.51653402      -0.03414883       1.71901721      -0.49229900       0.75250700       0.94109800
Ga       9.31703468       0.04836585       3.86120368       0.66294000       1.52349300       0.73727500
Ga       7.59547440       1.54913507       1.73221267       0.80903100      -0.81674400      -1.26237500
Ga       3.16218363       1.54209706       3.91113592       0.12967000      -0.57452900       0.92352400
O        1.90008931      -0.07549348       0.52611699      -1.12101700      -0.16439500       0.66527600
O        8.97865036       0.01512849       5.04605958      -0.35315500       0.63480300       1.16035500
O        7.98037449       1.45742138       0.53593003      -0.53838600      -0.90006500       0.13641800
O        2.81837178       1.53172168       5.04992847       0.66065400       0.74641000       0.73826700
O        1.22907500       0.03175033       3.14847261      -1.37489300      -0.56085900       0.79908600
O        9.56678730      -0.08360474       2.45211657      -0.19102000      -0.14043600       0.67855500
O        7.47594116       1.53709293       3.07019565       0.98615700       0.11253000      -1.82387000
O        3.41398216       1.49135362       2.40409540       0.27443300       0.87650100      -0.18291500
O       -0.33040890       0.02057509       1.36286296       0.30592000       1.12997400       0.39205100
O       11.19326493       0.01133512       4.16146032       0.79357800      -1.40048800       0.54773800
O        5.75015532       1.45202674       1.41945561       0.30248400      -0.43148600      -1.04603500
O        5.00684038       1.50087435       4.20786197       1.12911800      -0.89524900       0.39076500
Ga      -1.33508542      -0.01029243      10.13302024      -0.16915700      -0.22559800      -1.14020500
Ga       9.41602931       0.03514937       6.80554341       0.13605500       0.44705700      -0.33354900
Ga       4.81486625       1.49597967      10.18334649      -0.10720200       0.31186900      -0.68268900
Ga       3.36583771       1.48687727       6.84891843       0.53167200       0.69516900       0.42512400
Ga       0.12561002      -0.03414883       7.43465221      -0.49229900       0.75250700       0.94109800
Ga       7.92611068       0.04836585       9.57683868       0.66294000       1.52349300       0.73727500
Ga       6.20455040       1.54913507       7.44784767       0.80903100      -0.81674400      -1.26237500
Ga       1.77125963       1.54209706       9.62677092       0.12967000      -0.57452900       0.92352400
O        0.50916531      -0.07549348       6.24175199      -1.12101700      -0.16439500       0.66527600
O        7.58772636       0.01512849      10.76169458      -0.35315500       0.63480300       1.16035500
O        6.58945049       1.45742138       6.25156503      -0.53838600      -0.90006500       0.13641800
O        1.42744778       1.53172168      10.76556347       0.66065400       0.74641000       0.73826700
O       -0.16184900       0.03175033       8.86410761      -1.37489300      -0.56085900       0.79908600
O        8.17586330      -0.08360474       8.16775157      -0.19102000      -0.14043600       0.67855500
O        6.08501716       1.53709293       8.78583065       0.98615700       0.11253000      -1.82387000
O        2.02305816       1.49135362       8.11973040       0.27443300       0.87650100      -0.18291500
O       -1.72133290       0.02057509       7.07849796       0.30592000       1.12997400       0.39205100
O        9.80234093       0.01133512       9.87709532       0.79357800      -1.40048800       0.54773800
O        4.35923132       1.45202674       7.13509061       0.30248400      -0.43148600      -1.04603500
O        3.61591638       1.50087435       9.92349697       1.12911800      -0.89524900       0.39076500
Ga       0.05583858       3.07682757       4.41738524      -0.16915700      -0.22559800      -1.14020500
Ga      10.80695331       3.12226937       1.08990841       0.13605500       0.44705700      -0.33354900
Ga       6.20579025       4.58309967       4.46771149      -0.10720200       0.31186900      -0.68268900
Ga       4.75676171       4.57399727       1.13328343       0.53167200       0.69516900       0.42512400
Ga       1.51653402       3.05297117       1.71901721      -0.49229900       0.75250700       0.94109800
Ga       9.31703468       3.13548585       3.86120368       0.66294000       1.52349300       0.73727500
Ga       7.59547440       4.63625507       1.73221267       0.80903100      -0.81674400      -1.26237500
Ga       3.16218363       4.62921706       3.91113592       0.12967000      -0.57452900       0.92352400
O        1.90008931       3.01162652       0.52611699      -1.12101700      -0.16439500       0.66527600
O        8.97865036       3.10224849       5.04605958      -0.35315500       0.63480300       1.16035500
O        7.98037449       4.54454138       0.53593003      -0.53838600      -0.90006500       0.13641800
O        2.81837178       4.61884168       5.04992847       0.66065400       0.74641000       0.73826700
O        1.22907500       3.11887033       3.14847261      -1.37489300      -0.56085900       0.79908600
O        9.56678730       3.00351526       2.45211657      -0.19102000      -0.14043600       0.67855500
O        7.47594116       4.62421293       3.07019565       0.98615700       0.11253000      -1.82387000
O        3.41398216       4.57847362       2.40409540       0.27443300       0.87650100      -0.18291500
O       -0.33040890       3.10769509       1.36286296       0.30592000       1.12997400       0.39205100
O       11.19326493       3.09845512       4.16146032       0.79357800      -1.40048800       0.54773800
O        5.75015532       4.53914674       1.41945561       0.30248400      -0.43148600      -1.04603500
O        5.00684038       4.58799435       4.20786197       1.12911800      -0.89524900       0.39076500
Ga      -1.33508542       3.07682757      10.13302024      -0.16915700      -0.22559800      -1.14020500
Ga       9.41602931       3.12226937       6.80554341       0.13605500       0.44705700      -0.33354900
Ga       4.81486625       4.58309967      10.18334649      -0.10720200       0.31186900      -0.68268900
Ga       3.36583771       4.57399727       6.84891843       0.53167200       0.69516900       0.42512400
Ga       0.12561002       3.05297117       7.43465221      -0.49229900       0.75250700       0.94109800
Ga       7.92611068       3.13548585       9.57683868       0.66294000       1.52349300       0.73727500
Ga       6.20455040       4.63625507       7.44784767       0.80903100      -0.81674400      -1.26237500
Ga       1.77125963       4.62921706       9.62677092       0.12967000      -0.57452900       0.92352400
O        0.50916531       3.01162652       6.24175199      -1.12101700      -0.16439500       0.66527600
O        7.58772636       3.10224849      10.76169458      -0.35315500       0.63480300       1.16035500
O        6.58945049       4.54454138       6.25156503      -0.53838600      -0.90006500       0.13641800
O        1.42744778       4.61884168      10.76556347       0.66065400       0.74641000       0.73826700
O       -0.16184900       3.11887033       8.86410761      -1.37489300      -0.56085900       0.79908600
O        8.17586330       3.00351526       8.16775157      -0.19102000      -0.14043600       0.67855500
O        6.08501716       4.62421293       8.78583065       0.98615700       0.11253000      -1.82387000
O        2.02305816       4.57847362       8.11973040       0.27443300       0.87650100      -0.18291500
O       -1.72133290       3.10769509       7.07849796       0.30592000       1.12997400       0.39205100
O        9.80234093       3.09845512       9.87709532       0.79357800      -1.40048800       0.54773800
O        4.35923132       4.53914674       7.13509061       0.30248400      -0.43148600      -1.04603500
O        3.61591638       4.58799435       9.92349697       1.12911800      -0.89524900       0.39076500
Ga      12.52469958      -0.01029243       4.41738524      -0.16915700      -0.22559800      -1.14020500
Ga      23.27581431       0.03514937       1.08990841       0.13605500       0.44705700      -0.33354900
Ga      18.67465125       1.49597967       4.46771149      -0.10720200       0.31186900      -0.68268900
Ga      17.22562271       1.48687727       1.13328343       0.53167200       0.69516900       0.42512400
Ga      13.98539502      -0.03414883       1.71901721      -0.49229900       0.75250700       0.94109800
Ga      21.78589568       0.04836585       3.86120368       0.66294000       1.52349300       0.73727500
Ga      20.06433540       1.54913507       1.73221267       0.80903100      -0.81674400      -1.26237500
Ga      15.63104463       1.54209706       3.91113592       0.12967000      -0.57452900       0.92352400
O       14.36895031      -0.07549348       0.52611699      -1.12101700      -0.16439500       0.66527600
O       21.44751136       0.01512849       5.04605958      -0.35315500       0.63480300       1.16035500
O       20.44923549       1.45742138       0.53593003      -0.53838600      -0.90006500       0.13641800
O       15.28723278       1.53172168       5.04992847       0.66065400       0.74641000       0.73826700
O       13.69793600       0.03175033       3.14847261      -1.37489300      -0.56085900       0.79908600
O       22.03564830      -0.08360474       2.45211657      -0.19102000      -0.14043600       0.67855500
O       19.94480216       1.53709293       3.07019565       0.98615700       0.11253000      -1.82387000
O       15.88284316       1.49135362       2.40409540       0.27443300       0.87650100      -0.18291500
O       12.13845210       0.02057509       1.36286296       0.30592000       1.12997400       0.39205100
O       23.66212593       0.01133512       4.16146032       0.79357800      -1.40048800       0.54773800
O       18.21901632       1.45202674       1.41945561       0.30248400      -0.43148600      -1.04603500
O       17.47570138       1.50087435       4.20786197       1.12911800      -0.89524900       0.39076500
Ga      11.13377558      -0.01029243      10.13302024      -0.16915700      -0.22559800      -1.14020500
Ga      21.88489031       0.03514937       6.80554341       0.13605500       0.44705700      -0.33354900
Ga      17.28372725       1.49597967      10.18334649      -0.10720200       0.31186900      -0.68268900
Ga      15.83469871       1.48687727       6.84891843       0.53167200       0.69516900       0.42512400
Ga      12.59447102      -0.03414883       7.43465221      -0.49229900       0.75250700       0.94109800
Ga      20.39497168       0.04836585       9.57683868       0.66294000       1.52349300       0.73727500
Ga      18.67341140       1.54913507       7.44784767       0.80903100      -0.81674400      -1.26237500
Ga      14.24012063       1.54209706       9.62677092       0.12967000      -0.57452900       0.92352400
O       12.97802631      -0.07549348       6.24175199      -1.12101700      -0.16439500       0.66527600
O       20.05658736       0.01512849      10.76169458      -0.35315500       0.63480300       1.16035500
O       19.05831149       1.45742138       6.25156503      -0.53838600      -0.90006500       0.13641800
O       13.89630878       1.53172168      10.76556347       0.66065400       0.74641000       0.73826700
O       12.30701200       0.03175033       8.86410761      -1.37489300      -0.56085900       0.79908600
O       20.64472430      -0.08360474       8.16775157      -0.19102000      -0.14043600       0.67855500
O       18.55387816       1.53709293       8.78583065       0.98615700       0.11253000      -1.82387000
O       14.49191916       1.49135362       8.11973040       0.27443300       0.87650100      -0.18291500
O       10.74752810       0.02057509       7.07849796       0.30592000       1.12997400       0.39205100
O       22.27120193       0.01133512       9.87709532       0.79357800      -1.40048800       0.54773800
O       16.82809232       1.45202674       7.13509061       0.30248400      -0.43148600      -1.04603500
O       16.08477738       1.50087435       9.92349697       1.12911800      -0.89524900       0.39076500
Ga      12.52469958       3.07682757       4.41738524      -0.16915700      -0.22559800      -1.14020500
Ga      23.27581431       3.12226937       1.08990841       0.13605500       0.44705700      -0.33354900
Ga      18.67465125       4.58309967       4.46771149      -0.10720200       0.31186900      -0.68268900
Ga      17.22562271       4.57399727       1.13328343       0.53167200       0.69516900       0.42512400
Ga      13.98539502       3.05297117       1.71901721      -0.49229900       0.75250700       0.94109800
Ga      21.78589568       3.13548585       3.86120368       0.66294000       1.52349300       0.73727500
Ga      20.06433540       4.63625507       1.73221267       0.80903100      -0.81674400      -1.26237500
Ga      15.63104463       4.62921706       3.91113592       0.12967000      -0.57452900       0.92352400
O       14.36895031       3.01162652       0.52611699      -1.12101700      -0.16439500       0.66527600
O       21.44751136       3.10224849       5.04605958      -0.35315500       0.63480300       1.16035500
O       20.44923549       4.54454138       0.53593003      -0.53838600      -0.90006500       0.13641800
O       15.28723278       4.61884168       5.04992847       0.66065400       0.74641000       0.73826700
O       13.69793600       3.11887033       3.14847261      -1.37489300      -0.56085900       0.79908600
O       22.03564830       3.00351526       2.45211657      -0.19102000      -0.14043600       0.67855500
O       19.94480216       4.62421293       3.07019565       0.98615700       0.11253000      -1.82387000
O       15.88284316       4.57847362       2.40409540       0.27443300       0.87650100      -0.18291500
O       12.13845210       3.10769509       1.36286296       0.30592000       1.12997400       0.39205100
O       23.66212593       3.09845512       4.16146032       0.79357800      -1.40048800       0.54773800
O       18.21901632       4.53914674       1.41945561       0.30248400      -0.43148600      -1.04603500
O       17.47570138       4.58799435       4.20786197       1.12911800      -0.89524900       0.39076500
Ga      11.13377558       3.07682757      10.13302024      -0.16915700      -0.22559800      -1.14020500
Ga      21.88489031       3.12226937       6.80554341       0.13605500       0.44705700      -0.33354900
Ga      17.28372725       4.58309967      10.18334649      -0.10720200       0.31186900      -0.68268900
Ga      15.83469871       4.57399727       6.84891843       0.53167200       0.69516900       0.42512400
Ga      12.59447102       3.05297117       7.43465221      -0.49229900       0.75250700       0.94109800
Ga      20.39497168       3.13548585       9.57683868       0.66294000       1.52349300       0.73727500
Ga      18.67341140       4.63625507       7.44784767       0.80903100      -0.81674400      -1.26237500
Ga      14.24012063       4.62921706       9.62677092       0.12967000      -0.57452900       0.92352400
O       12.97802631       3.01162652       6.24175199      -1.12101700      -0.16439500       0.66527600
O       20.05658736       3.10224849      10.76169458      -0.35315500       0.63480300       1.16035500
O       19.05831149       4.54454138       6.25156503      -0.53838600      -0.90006500       0.13641800
O       13.89630878       4.61884168      10.76556347       0.66065400       0.74641000       0.73826700
O       12.30701200       3.11887033       8.86410761      -1.37489300      -0.56085900       0.79908600
O       20.64472430       3.00351526       8.16775157      -0.19102000      -0.14043600       0.67855500
O       18.55387816       4.62421293       8.78583065       0.98615700       0.11253000      -1.82387000
O       14.49191916       4.57847362       8.11973040       0.27443300       0.87650100      -0.18291500
O       10.74752810       3.10769509       7.07849796       0.30592000       1.12997400       0.39205100
O       22.27120193       3.09845512       9.87709532       0.79357800      -1.40048800       0.54773800
O       16.82809232       4.53914674       7.13509061       0.30248400      -0.43148600      -1.04603500
O       16.08477738       4.58799435       9.92349697       1.12911800      -0.89524900       0.39076500
